# vtk DataFile Version 2.0
phase field modeling fracture
ASCII
DATASET UNSTRUCTURED_GRID
POINTS 2538 float
0.0 0.0 0.0
10.0 0.0 0.0
0.0 10.0 0.0
10.0 10.0 0.0
0.0 4.9995 0.0
0.0 5.0005 0.0
5.0 5.0 0.0
0.9416964895726688 0.0 0.0
1.803581725054446 0.0 0.0
2.592419885431098 0.0 0.0
3.314401822861676 0.0 0.0
3.975193910351406 0.0 0.0
4.579982132660152 0.0 0.0
5.133512780936812 0.0 0.0
5.640130319506143 0.0 0.0
6.103810708661955 0.0 0.0
6.528192895506818 0.0 0.0
6.916607540127679 0.0 0.0
7.272102969376355 0.0 0.0
7.597469242948583 0.0 0.0
7.895259826292669 0.0 0.0
8.167811885738017 0.0 0.0
8.417264413845215 0.0 0.0
8.645575169389538 0.0 0.0
8.854535961159101 0.0 0.0
9.045786767735546 0.0 0.0
9.220828555767493 0.0 0.0
9.38103509633881 0.0 0.0
9.527663687265145 0.0 0.0
9.661865124984566 0.0 0.0
9.784692609918062 0.0 0.0
9.897110148790482 0.0 0.0
10.0 0.09999999999992584 0.0
10.0 0.199999999999856 0.0
10.0 0.2999999999997771 0.0
10.0 0.3999999999996677 0.0
10.0 0.4999999999995511 0.0
10.0 0.5999999999994683 0.0
10.0 0.6999999999993983 0.0
10.0 0.7999999999993286 0.0
10.0 0.8999999999992587 0.0
10.0 0.9999999999991888 0.0
10.0 1.099999999999119 0.0
10.0 1.199999999999033 0.0
10.0 1.299999999998852 0.0
10.0 1.399999999998576 0.0
10.0 1.499999999998284 0.0
10.0 1.599999999997992 0.0
10.0 1.6999999999977 0.0
10.0 1.799999999997408 0.0
10.0 1.899999999997116 0.0
10.0 1.999999999996825 0.0
10.0 2.099999999996533 0.0
10.0 2.199999999996241 0.0
10.0 2.299999999995949 0.0
10.0 2.399999999995657 0.0
10.0 2.499999999995365 0.0
10.0 2.599999999995073 0.0
10.0 2.699999999994782 0.0
10.0 2.79999999999449 0.0
10.0 2.899999999994198 0.0
10.0 2.999999999993906 0.0
10.0 3.099999999993614 0.0
10.0 3.199999999993322 0.0
10.0 3.299999999993029 0.0
10.0 3.399999999992738 0.0
10.0 3.499999999992446 0.0
10.0 3.599999999992154 0.0
10.0 3.699999999991863 0.0
10.0 3.799999999991571 0.0
10.0 3.899999999991278 0.0
10.0 3.999999999991022 0.0
10.0 4.099999999991035 0.0
10.0 4.199999999991187 0.0
10.0 4.299999999991338 0.0
10.0 4.399999999991491 0.0
10.0 4.499999999991642 0.0
10.0 4.599999999991795 0.0
10.0 4.699999999991947 0.0
10.0 4.799999999992099 0.0
10.0 4.89999999999225 0.0
10.0 4.999999999992403 0.0
10.0 5.099999999992555 0.0
10.0 5.199999999992706 0.0
10.0 5.299999999992858 0.0
10.0 5.39999999999301 0.0
10.0 5.499999999993161 0.0
10.0 5.599999999993313 0.0
10.0 5.699999999993466 0.0
10.0 5.799999999993618 0.0
10.0 5.899999999993771 0.0
10.0 5.999999999993922 0.0
10.0 6.099999999994074 0.0
10.0 6.199999999994227 0.0
10.0 6.299999999994378 0.0
10.0 6.39999999999453 0.0
10.0 6.499999999994682 0.0
10.0 6.599999999994833 0.0
10.0 6.699999999994986 0.0
10.0 6.799999999995138 0.0
10.0 6.899999999995289 0.0
10.0 6.999999999995442 0.0
10.0 7.099999999995594 0.0
10.0 7.199999999995747 0.0
10.0 7.299999999995897 0.0
10.0 7.39999999999605 0.0
10.0 7.499999999996202 0.0
10.0 7.599999999996353 0.0
10.0 7.699999999996505 0.0
10.0 7.799999999996658 0.0
10.0 7.899999999996808 0.0
10.0 7.999999999996962 0.0
10.0 8.099999999997113 0.0
10.0 8.199999999997265 0.0
10.0 8.299999999997418 0.0
10.0 8.399999999997569 0.0
10.0 8.499999999997721 0.0
10.0 8.599999999997873 0.0
10.0 8.699999999998024 0.0
10.0 8.799999999998176 0.0
10.0 8.899999999998329 0.0
10.0 8.99999999999848 0.0
10.0 9.099999999998634 0.0
10.0 9.199999999998786 0.0
10.0 9.299999999998937 0.0
10.0 9.399999999999089 0.0
10.0 9.499999999999241 0.0
10.0 9.599999999999392 0.0
10.0 9.699999999999545 0.0
10.0 9.799999999999697 0.0
10.0 9.899999999999848 0.0
9.897110148790565 10.0 0.0
9.784692609918244 10.0 0.0
9.66186512498486 10.0 0.0
9.527663687265571 10.0 0.0
9.381035096339392 10.0 0.0
9.220828555768257 10.0 0.0
9.045786767736512 10.0 0.0
8.854535961160305 10.0 0.0
8.645575169391027 10.0 0.0
8.417264413847017 10.0 0.0
8.167811885740178 10.0 0.0
7.895259826295246 10.0 0.0
7.597469242951631 10.0 0.0
7.272102969379938 10.0 0.0
6.916607540131873 10.0 0.0
6.528192895511704 10.0 0.0
6.103810708667616 10.0 0.0
5.640130319512691 10.0 0.0
5.13351278094435 10.0 0.0
4.579982132668816 10.0 0.0
3.975193910361222 10.0 0.0
3.314401822869852 10.0 0.0
2.592419885437257 10.0 0.0
1.803581725058137 10.0 0.0
0.9416964895740705 10.0 0.0
0.0 9.00010000000243 0.0
0.0 8.000200000005481 0.0
0.0 7.000300000005135 0.0
0.0 6.000400000002569 0.0
0.901790731451151 5.000409820926855 0.0
1.657200899774397 5.000334279910023 0.0
2.289991063707192 5.000271000893629 0.0
2.820065163538221 5.000217993483646 0.0
3.264096435579811 5.000173590356442 0.0
3.636051481595835 5.00013639485184 0.0
3.947629914072366 5.000105237008593 0.0
4.208632181002628 5.0000791367819 0.0
4.427267949625672 5.000057273205037 0.0
4.610414277633563 5.000038958572237 0.0
4.763831845154243 5.000023616815485 0.0
4.892346298799659 5.00001076537012 0.0
4.892346298799748 4.99998923462988 0.0
4.763831845154455 4.999976383184515 0.0
4.610414277633943 4.999961041427763 0.0
4.427267949626277 4.999942726794963 0.0
4.208632181003523 4.9999208632181 0.0
3.94762991407365 4.999894762991407 0.0
3.636051481597624 4.99986360514816 0.0
3.264096435582253 4.999826409643559 0.0
2.820065163541503 4.999782006516354 0.0
2.289991063711534 4.999728999106371 0.0
1.657200899778495 4.999665720089978 0.0
0.9017907314530094 4.999590179073145 0.0
0.0 3.999600000002013 0.0
0.0 2.999700000005187 0.0
0.0 1.99980000000512 0.0
0.0 0.9999000000025537 0.0
9.897889398521345 2.93573355845387 0.0
9.906568249974548 7.060009441434234 0.0
9.913122631074113 3.64016132281653 0.0
9.922462129543863 6.354535290629151 0.0
9.917693659967533 4.354211663134567 0.0
9.909873057440208 5.637584487339942 0.0
9.914183254994697 4.950672966925282 0.0
9.913885043715895 7.666887930262611 0.0
9.91009668007573 2.351889069770817 0.0
9.905135696074536 8.138152454502785 0.0
9.913397459621809 1.849999999997262 0.0
7.099302372137626 0.297750452375005 0.0
7.095143729410097 9.700359990366296 0.0
4.942912558701401 5.095838627899509 0.0
4.315009232304429 5.165022115481685 0.0
4.946182472483878 4.906763777264103 0.0
4.317967462990024 4.825955043772673 0.0
9.916390871492647 8.64999999999792 0.0
9.921504649680616 1.368376469890358 0.0
8.292538149791614 0.206877570318844 0.0
8.292538149793597 9.793122429681448 0.0
5.884594439766573 9.587645267048616 0.0
5.794826292691579 0.3794853783929359 0.0
9.913397459621425 9.049999999998557 0.0
9.908526577714177 0.9568239351922434 0.0
3.456851160380649 5.315740054130451 0.0
3.457889657868442 4.707121019609468 0.0
8.945214200703926 0.1503383337970344 0.0
8.950161364448409 9.8413906539257 0.0
9.913862335499305 4.055887885208452 0.0
9.916697353372683 4.650158482607802 0.0
9.919076340414442 6.049999999994006 0.0
9.906994308667635 5.25749687748192 0.0
9.917490342358025 6.655979201891897 0.0
9.915757520293784 7.343848891656911 0.0
9.910049507471042 3.363474386285078 0.0
9.914471988502868 2.647400064832979 0.0
9.91474124160965 9.337490423485129 0.0
9.916971008170838 0.6499999999994355 0.0
4.307157269264427 9.509674045029644 0.0
4.331527375865619 0.4401616696422582 0.0
9.45434939180249 9.878397030523757 0.0
9.457696120412969 0.1270877537061785 0.0
2.555070293622606 5.422044496190925 0.0
2.566232917480916 4.608001224030952 0.0
3.026511860837692 9.332320638257093 0.0
2.945561971800619 0.5895662714727601 0.0
7.7395404387124 0.2511088946967771 0.0
7.736379255744154 9.745848826372828 0.0
4.687135269408529 5.122111433928926 0.0
4.688420821504113 4.871895064967488 0.0
9.910554884115975 0.3448356354522978 0.0
9.911230082250466 9.65764729394159 0.0
9.921953841410854 6.851023993342036 0.0
9.912065178606017 5.448170483544033 0.0
9.911660025326261 3.861846960030188 0.0
9.914847467973438 3.14501593945607 0.0
9.913397459621425 5.849999999993703 0.0
9.913397459621425 7.849999999996735 0.0
9.906916878988277 2.15455769998631 0.0
9.913397459621425 8.349999999997479 0.0
9.909472363117661 1.640528221515488 0.0
9.913987325695956 1.152857110636247 0.0
9.913397459621425 8.849999999998241 0.0
0.9100099990995943 2.614215977520411 0.0
0.8395284981715456 7.451196254860987 0.0
9.723278867451556 9.898135916635193 0.0
9.723316350887044 0.09841820909386662 0.0
1.385819164827588 4.454539963646463 0.0
1.338343629665047 5.523111536005823 0.0
1.377179700550677 0.6809168304959698 0.0
1.418060461092743 9.285896715136046 0.0
9.91268220142518 0.1457914080939694 0.0
9.906737126737994 9.845745933882352 0.0
0.7108351382691361 6.537941170074089 0.0
1.527735020267026 6.915620208855231 0.0
1.630993885659103 7.838271825205868 0.0
2.232760943566823 7.370850737296832 0.0
2.243414218068206 6.688299277952821 0.0
2.779655053105118 7.021588754814074 0.0
2.80227799359795 7.632420170547022 0.0
3.282022065908813 7.305859666021318 0.0
3.327597298795347 7.857554136825748 0.0
3.743210251018715 7.549183328204379 0.0
3.716353232200752 7.062036086888612 0.0
4.111978858674101 7.27497101169417 0.0
4.104192177581432 6.879858986267289 0.0
4.436230765617037 7.045693351607117 0.0
4.430360014817357 6.703971783962796 0.0
4.732390145036301 6.849841042423394 0.0
5.056161327708878 5.095276573498806 0.0
5.111586796021131 4.999081142133581 0.0
5.169267363407189 5.09444870412406 0.0
5.223795108752053 4.996986220359468 0.0
5.281480803887719 5.092780870372803 0.0
5.335670761900611 4.994887492556936 0.0
5.393485214772442 5.090486192743301 0.0
5.447323082877892 4.992601527033996 0.0
5.505243219343024 5.087953380710069 0.0
5.558739102026105 4.990287787962959 0.0
5.616491581184779 5.085335255235766 0.0
5.669852346908056 4.9879269227514 0.0
5.727502713908907 5.082679981817038 0.0
5.780766004135139 4.988313988715834 0.0
5.838244881129535 5.080480568766611 0.0
5.891357695677371 4.986433849408193 0.0
5.948696036767613 5.077969900389505 0.0
6.001601341641615 4.981313698556656 0.0
6.058851024265095 5.074871552128682 0.0
6.111614020704875 4.978360695880202 0.0
6.168801161530775 5.072044953270978 0.0
6.221368818778567 4.975825765213497 0.0
6.278268309066882 5.066182320461055 0.0
6.330814273567539 4.972837984645718 0.0
6.387565032421376 5.062889771971895 0.0
6.437476667631405 4.971693683589553 0.0
6.496181111585419 5.060210690175857 0.0
6.539454812256072 4.964658165361536 0.0
6.604198202576491 5.056387520850258 0.0
6.648506025747331 4.939374587506267 0.0
6.714026758992516 5.05873885840664 0.0
6.764418045981209 4.959246676066148 0.0
6.8219334571197 5.055299567406268 0.0
6.873708540948134 4.960426349093742 0.0
6.930181428849307 5.053461390218819 0.0
6.981893615341967 4.96435459462232 0.0
7.037791764774784 5.051219747103022 0.0
7.090993561518408 4.96392420322464 0.0
5.504417457283294 4.900897920552702 0.0
7.145434864123609 5.048960634292441 0.0
6.054532384032612 4.883956083938546 0.0
6.738027949040956 4.850032323068674 0.0
7.198432914526514 4.956325226333323 0.0
7.252637187936749 5.046012229327236 0.0
7.30926729605109 4.948903216650376 0.0
7.248106275544042 4.860306312845646 0.0
7.363100274863074 4.849952416808486 0.0
7.365733472701664 5.039519554615095 0.0
7.308483293090149 5.137557220352172 0.0
6.768399513646964 5.145609705119954 0.0
7.422800035311104 5.132251445551834 0.0
7.358273518796229 5.235980394389298 0.0
7.480824155801127 5.227946127939927 0.0
7.302193400058628 4.761917474298247 0.0
7.413570879789824 4.754555110721153 0.0
7.414392998903179 5.334729114426734 0.0
7.352769630272076 4.660405502266205 0.0
7.467556835255426 4.658352623795039 0.0
7.536246869015014 5.328986926716081 0.0
7.478865844607288 5.432598185493195 0.0
7.406396991826072 4.556956233957538 0.0
7.523581002009154 4.552005631348623 0.0
7.597792398573263 5.429506106314967 0.0
7.540511043402902 5.53619421580439 0.0
7.46214474876342 4.452580994318881 0.0
7.5852185078634 4.446021810672608 0.0
7.663329342323453 5.533453399066901 0.0
7.603478967594521 5.643227430483237 0.0
7.513450346818673 4.347641323140766 0.0
7.640744971722214 4.333388343316237 0.0
7.727671715775243 5.642390483050116 0.0
7.667774597993788 5.753188858425915 0.0
7.570065256728661 4.230515669344811 0.0
7.702881065467917 4.218307808529532 0.0
7.638288257073729 4.107994211855027 0.0
7.493362356301017 4.120843902105771 0.0
7.779018500630071 5.521233457321821 0.0
7.794641287388929 5.752364621610818 0.0
7.73369774483611 5.865894287356292 0.0
7.600834531784728 5.867752110500446 0.0
6.233038857278689 5.15645045634683 0.0
7.669727996028819 5.985665563643058 0.0
7.528582452554481 5.987393423295551 0.0
7.598722674572824 6.11001923494443 0.0
7.778305000222867 4.104318908265786 0.0
7.704329019832056 3.987744174608892 0.0
7.838453459801382 4.213322728668484 0.0
7.864495721576461 5.862306066517277 0.0
7.846552353360407 3.98481756181946 0.0
7.769730409703277 3.86544808681145 0.0
5.785249360396857 5.177248808588045 0.0
7.908837087876153 3.861484036275285 0.0
7.834824606222196 3.740586825753288 0.0
7.97685993406276 3.736209527152902 0.0
7.89665098770825 3.615501862931453 0.0
7.753228010315262 3.617800245018972 0.0
7.826063013090472 3.483173292579822 0.0
7.66789744383048 3.48859328808356 0.0
8.042515855796823 3.595394268381807 0.0
7.75200750488492 3.341279823834038 0.0
7.582870318332553 3.346584916806707 0.0
8.120807847415062 3.732493963388337 0.0
8.189783970303546 3.61159165475499 0.0
7.657801000286734 3.200439907646711 0.0
7.486781956172036 3.201402473247712 0.0
7.452595103886905 6.11418616185016 0.0
7.527098033550077 6.243191052852112 0.0
8.260502906807751 3.728437634721859 0.0
8.327629317451398 3.608173631356984 0.0
7.372763970891452 6.247552889754036 0.0
7.456170570815929 6.384992468962936 0.0
7.621837793616884 6.376077080857113 0.0
7.548039512904141 6.520750676893614 0.0
7.717475944451644 6.514856553988943 0.0
7.636658166268699 6.661648164052906 0.0
7.807468267259438 6.664076174524672 0.0
7.718022764310774 6.817938967122142 0.0
7.887785766941087 6.807440365887151 0.0
7.545993589083432 6.815070675854734 0.0
7.809874785067209 6.967537287475282 0.0
7.975643812145337 6.948729406725126 0.0
8.396477808021062 3.725446935061211 0.0
7.565651643157136 3.044354774611752 0.0
7.384328725505071 3.043048915147076 0.0
8.056405351948353 6.802790889114673 0.0
8.14128318237188 6.940027831915737 0.0
8.064621760266059 7.086348792208953 0.0
8.225003598857908 6.805225152373254 0.0
8.463085452993242 3.606998510553562 0.0
8.230426869720718 7.079551841000411 0.0
8.155262284174286 7.224761758176069 0.0
8.530696760758996 3.721683301125054 0.0
8.596669886994064 3.604516769862316 0.0
8.528531058025589 3.490411531312337 0.0
8.320451770844851 7.218191678954744 0.0
8.245273958732774 7.363444652121271 0.0
8.66324687389452 3.717094013035765 0.0
8.600103125209296 3.831913857228569 0.0
8.662131102573216 3.488322280861316 0.0
8.594166125380536 3.374071873435548 0.0
8.411074336066186 7.353871649576861 0.0
8.339644223432472 7.505172120620427 0.0
8.165883718619623 7.513159193685373 0.0
8.483453820080417 7.2082285366806 0.0
8.261200365730348 7.657400951288149 0.0
8.081570576666843 7.670933304838066 0.0
7.471613195794025 2.872548423100142 0.0
7.268733678357991 2.881209199257603 0.0
7.184255506995786 3.084448584600423 0.0
7.065899603697895 2.883902449336828 0.0
6.960163891183182 3.081014635802978 0.0
6.847612128388715 2.885646860602812 0.0
6.739800729737967 3.078895733381448 0.0
8.729373804596847 3.827689165637365 0.0
8.668550856907444 3.938702277545298 0.0
8.72770789162863 3.371798381178293 0.0
8.659764090070603 3.257493349874974 0.0
8.436453928793245 7.648724489148887 0.0
6.619080287792762 2.90880017416788 0.0
6.511740956842646 3.09340654756684 0.0
8.793527829963288 3.935174834810256 0.0
8.736430500996828 4.042719556852617 0.0
7.631260330584174 4.565300771328012 0.0
8.359058396840432 7.801678182761817 0.0
5.339436215072359 5.184870243702279 0.0
4.994031736761993 5.193306795607908 0.0
6.383387675268097 4.87760645722207 0.0
7.29117392392962 6.382172868329505 0.0
6.378196825372041 2.907113079755629 0.0
6.269817199014261 3.12412150658573 0.0
8.793149127377946 3.255386294257182 0.0
8.725774239201558 3.141596687892195 0.0
8.857434600673502 4.041295940541356 0.0
8.802868937128341 4.1471119953668 0.0
8.532045262478793 7.7905977476835 0.0
7.364542641624493 2.699128473342751 0.0
7.571677611088925 2.695732556686516 0.0
6.723058333614999 2.672341359410618 0.0
8.456744924757372 7.94483904450548 0.0
6.140831279784704 2.921247401137864 0.0
6.02419219050745 3.14358702955763 0.0
8.916255604212301 3.934279868822481 0.0
8.859287250884009 3.140226640574265 0.0
8.791092798057303 3.025929352146465 0.0
7.210445465986021 6.245773134960393 0.0
7.120884161792869 6.385155584680196 0.0
7.036931702064287 6.240721609143972 0.0
6.943722280007011 6.3869279517155 0.0
8.920094519678617 4.144837222494242 0.0
8.864374107136287 4.250930406527029 0.0
7.347569838739255 4.463467417508182 0.0
5.90383431757064 2.935113219563906 0.0
5.783476009580765 3.156456199832474 0.0
8.626013191558314 7.935092223505354 0.0
8.687240186957197 7.796697889991163 0.0
5.642059327424706 2.903018174330269 0.0
5.52647853955939 3.162549070310043 0.0
8.555300051897738 8.086169516016518 0.0
8.405624441178524 8.083972416481254 0.0
5.374124307190728 2.945480555950917 0.0
8.935805220807357 3.249260758206028 0.0
8.981625171409894 4.247375537584228 0.0
8.924725364486765 4.352101286657735 0.0
8.807208588134106 4.356163101450244 0.0
8.868277832430604 4.45657124153171 0.0
8.75099635287701 4.460644845248524 0.0
8.812385950597063 4.560891222623518 0.0
8.693833206943118 4.564602972998703 0.0
8.756474732548273 4.665720853686476 0.0
8.63721608225855 4.669394550615355 0.0
8.700108119351134 4.770682016274914 0.0
8.81920502916846 4.767536120893284 0.0
8.76355311338807 4.871451945248518 0.0
8.881442328033694 4.868382238751069 0.0
8.826433523510634 4.97132552240372 0.0
8.943387824985514 4.967694248194483 0.0
8.888718468126953 5.071044784833541 0.0
8.580377663835254 4.774669738817985 0.0
8.770572242937233 5.073880380431421 0.0
8.832915096600454 5.174518948293615 0.0
8.952224483821848 5.170970838320107 0.0
8.897282771771884 5.275476392171722 0.0
7.463928467290875 2.513944501591933 0.0
7.675935950092034 2.509420347143072 0.0
8.924252417741767 3.024418701372628 0.0
8.857265893102921 2.911213535286156 0.0
8.776981063213334 5.27944309004916 0.0
8.840710910770163 5.380165700477552 0.0
8.960876896785969 5.375521424256389 0.0
8.904555918255223 5.482125846038813 0.0
7.567193097677677 2.32750151280277 0.0
7.780880844888839 2.323064027160363 0.0
6.851602118390116 6.234522818184622 0.0
6.758680682687229 6.389359516748128 0.0
6.66345977321418 6.231254850996584 0.0
8.715764716958308 8.079994249772627 0.0
8.65189989696114 8.227534663647639 0.0
9.042229096541828 4.348551764001607 0.0
6.436774206993324 3.316782326998922 0.0
7.590527613340588 5.22651784724799 0.0
9.024366884701616 5.476726561488805 0.0
8.968734351641839 5.583879050892151 0.0
8.845941080047659 5.586406316932274 0.0
8.909881305857882 5.690482454668167 0.0
7.348726871578975 5.44047403999932 0.0
6.567070253986433 6.398115757512583 0.0
6.697077150072261 6.553426749743366 0.0
5.252377383990728 3.187782967482479 0.0
8.988440431820699 2.908621158637298 0.0
8.922541972760119 2.796420836075996 0.0
6.466806010659505 6.229115583261771 0.0
9.033851153821296 5.686506775615425 0.0
8.978340519963718 5.795772485582058 0.0
8.85111463793018 5.798672910287243 0.0
8.922171984280597 5.907237880910408 0.0
8.795190680908043 5.911854068712683 0.0
8.864373398892472 6.019728357749566 0.0
8.991346995940626 6.014539153309398 0.0
8.93374019140187 6.12698887312768 0.0
5.095192648098848 2.952353430985476 0.0
7.672651464908932 2.141715359830917 0.0
7.886266921042761 2.136211284120189 0.0
9.098474286589756 4.245971410451114 0.0
8.813172564986438 8.216887361735234 0.0
8.74802978243154 8.366104673219047 0.0
9.059985162956899 6.120982589539211 0.0
9.00342813739303 6.233245043891739 0.0
4.961413514304496 3.214209167276753 0.0
9.05248113004685 2.794651022570942 0.0
8.986028039118027 2.681341972594222 0.0
5.671890458441996 3.377122473800023 0.0
4.755829262593116 7.184480462344647 0.0
9.158258644940048 4.34465968221255 0.0
4.799687186662534 2.961354824469195 0.0
6.030554747591715 2.726787502996874 0.0
8.938327180212585 8.34758372042188 0.0
8.847392320655468 8.503370672816716 0.0
8.67342124373679 8.518117686968314 0.0
5.234423106934083 2.694925204361751 0.0
8.964923046453565 8.185313058214797 0.0
7.456650986668838 2.134076476407834 0.0
9.111732084821366 2.897226832609386 0.0
6.368055837513985 6.402805870976705 0.0
6.265629899005033 6.226581076317183 0.0
8.736327196352686 6.026404178766982 0.0
9.117473097358854 2.67987006607594 0.0
9.052137415465204 2.565428515518978 0.0
7.781001557847192 1.955874236406257 0.0
7.992134447300669 1.949184538864554 0.0
8.593074792993455 3.143159483125708 0.0
9.1291360203536 6.226877897052981 0.0
9.072154326613617 6.338696745620542 0.0
8.916532550320525 2.566986282201109 0.0
8.984021113721658 2.449252898983242 0.0
9.178032243215632 6.120533546076094 0.0
9.213703592343162 4.244823670856978 0.0
9.11972142641474 2.449071238668887 0.0
9.052853896812186 2.33190758581705 0.0
8.635035926402708 4.462329956179506 0.0
8.773614475966344 8.657865377672689 0.0
8.596400917257634 8.67759750279447 0.0
8.942023339420883 8.644678093589654 0.0
9.19471670675691 6.33096438039349 0.0
9.138460613363325 6.443043552768813 0.0
8.66620319432524 5.916297234509582 0.0
8.606669825267202 6.032658196729024 0.0
9.27222540210304 4.341341907533128 0.0
9.013782808177437 6.451040569407859 0.0
9.08360982569773 6.55729980456602 0.0
7.885622149776354 1.768093045890686 0.0
8.095672144455353 1.768790621151345 0.0
9.208772072925791 6.549717411809656 0.0
9.154272208194383 6.662613503537815 0.0
9.187669783927937 2.334640996932141 0.0
9.122379015831417 2.215832190697178 0.0
6.164077036161143 6.404611236428829 0.0
6.062367614988677 6.224307160647549 0.0
8.987075041759633 2.211477580983978 0.0
9.056972755801603 2.093573581203428 0.0
9.194557288902232 2.096029761809264 0.0
9.131223008370409 1.972713028695079 0.0
8.87381302587057 8.795793668920256 0.0
9.039169086943392 8.781606667490083 0.0
4.662813350519927 3.228118291851354 0.0
4.474181267994617 2.945703616023359 0.0
6.562627723301209 6.075544382232434 0.0
9.326886053211574 4.243083624343211 0.0
9.280374192897945 6.656072830232892 0.0
9.224718905178564 6.766740750539347 0.0
4.703284910421452 6.528907865005451 0.0
8.955136474970331 6.565989985649191 0.0
8.998148826814893 4.865480736169776 0.0
8.99429836796776 1.965972383552685 0.0
9.065669391141741 1.847195105148808 0.0
9.207236162050343 1.853010386995843 0.0
9.143218073349985 1.725630086781897 0.0
8.998867447699345 1.719378449325465 0.0
9.082595782768397 1.592017827427701 0.0
8.92804562738841 1.585238202229766 0.0
9.01637794607019 1.453847302675876 0.0
8.854253119154375 1.446306868730686 0.0
8.941620273019874 1.320083886766936 0.0
8.775393064215876 1.308487027359826 0.0
9.102170347200483 1.324733726345249 0.0
9.013857060361985 1.178821526410403 0.0
7.991031819452564 1.587689878441685 0.0
7.767218744640202 1.595993197647291 0.0
9.191539171305216 1.194087248761656 0.0
9.123965901037613 1.057102462689568 0.0
4.853921953226772 3.470213116851758 0.0
7.496563223334782 3.470157221608763 0.0
8.536691379028115 5.921845852206257 0.0
8.475496498707471 6.037633662010236 0.0
7.978668526342969 2.307231488316941 0.0
9.384721922092124 4.337357165846226 0.0
9.331039180200886 4.435926256444196 0.0
8.546261775564837 6.150267290476958 0.0
8.411727261785726 6.155319300628062 0.0
8.972203609044218 8.930944433074036 0.0
9.133480321468399 8.90955269607895 0.0
9.197778815538276 8.768743880012563 0.0
6.162231825784922 6.05277753404107 0.0
5.962111081146334 6.046949845237622 0.0
9.268727788642101 4.146883230687689 0.0
9.380694211527906 4.144811697563401 0.0
9.323823335199954 4.049557759546529 0.0
9.283324894520613 1.736313094621396 0.0
5.858151623803662 6.22041808248046 0.0
5.759668475561988 6.038806123495502 0.0
7.836860473863919 3.191674397465999 0.0
9.348591928839294 6.75855034547469 0.0
9.293979592221298 6.870213350675044 0.0
9.170543172728557 6.879819332293818 0.0
9.240028263813034 6.983394994050525 0.0
4.347372565145963 3.312731475520695 0.0
4.114183445909965 2.96879678229065 0.0
8.616264880152233 4.042035981070631 0.0
9.403174760076901 6.650407069150438 0.0
4.173860112179449 7.723461240865885 0.0
9.365302975518428 6.973476802087294 0.0
9.312420275675276 7.088420778208979 0.0
9.184876614539778 7.0978133687822 0.0
9.25921281729617 7.204979813006656 0.0
9.12816413817609 7.21569648263899 0.0
9.203944409919862 7.322703303071253 0.0
9.334311975087337 7.311477957762272 0.0
9.280415785210538 7.428795599957155 0.0
9.274060219641907 1.066603180421249 0.0
9.211820491509728 0.9316562593680151 0.0
9.050684011148748 0.9017681241401576 0.0
9.441953732403995 4.432092590771756 0.0
9.394725873909666 4.526051349391942 0.0
9.43453556160865 4.048003950509361 0.0
9.378043599351757 3.952631412328806 0.0
9.289691247910705 8.890746792319852 0.0
9.228148443138926 9.030109127390128 0.0
4.440757888677695 6.389562448928118 0.0
4.689874463978985 6.239329075084555 0.0
4.291519540095677 2.622920583112654 0.0
3.886073352912894 2.632778677714434 0.0
9.344015622314338 1.202401041544343 0.0
8.193292196814806 3.849649660906171 0.0
6.960946604527747 6.07044529864598 0.0
9.347708267319902 8.756364147482309 0.0
6.826423138602714 3.261415861395883 0.0
6.06309517882478 5.884563187328262 0.0
9.4085057714426 7.414123963607981 0.0
9.356416821537886 7.532359471354527 0.0
5.042074134251055 6.938947182785697 0.0
5.063988238156824 7.311205832605263 0.0
3.946666851334923 3.30681624613374 0.0
8.189857914071878 1.939951128540477 0.0
7.880690277686857 1.38928908049477 0.0
7.63766396748483 1.399736360041063 0.0
9.345004233592562 1.857695941115052 0.0
9.440465164139875 7.085860901905448 0.0
7.918332480761888 5.744468010879592 0.0
9.08007135068879 5.372457017512481 0.0
8.78639561093144 3.718391405525285 0.0
9.356843485085705 0.9414458825132457 0.0
9.29705128845331 0.8103081541678832 0.0
9.251825423225316 2.451701826351773 0.0
8.483895366325516 6.270717564685176 0.0
8.346386886249478 6.275973306650227 0.0
9.493299170161215 4.138582531223591 0.0
5.321115649032961 7.117073603021904 0.0
5.354076009109965 7.436189411362466 0.0
5.597984079819928 7.254284331170681 0.0
5.644042313435943 7.564172740776336 0.0
5.383963016128051 7.753854027984002 0.0
5.681168258142109 7.880444993178456 0.0
5.935548099874979 7.687258900444162 0.0
5.979508404301389 7.994332725561488 0.0
6.21936843555201 7.802335560754011 0.0
6.267092590637372 8.104873033518185 0.0
6.498845418385807 7.917606504106031 0.0
6.544600005636809 8.209910620392591 0.0
6.77336078689533 8.027284686082275 0.0
6.814840179123049 8.311778392637773 0.0
6.721304148677048 7.737863326704131 0.0
7.031320924898797 8.1335673274533 0.0
7.077388928622946 8.403901803728003 0.0
5.417471987089176 8.090112295667405 0.0
8.845427688507666 2.446352368201366 0.0
9.318512319918124 2.339233739859646 0.0
9.380241452597096 2.451895615249572 0.0
7.283805558009199 8.237518806365102 0.0
7.329200330160381 8.497045124353782 0.0
7.233272584416691 7.991590926766813 0.0
9.142592248414191 5.471315142785471 0.0
9.196303265878848 5.36738298742727 0.0
9.25795832955665 5.465260877691205 0.0
9.310581303233182 5.36341558704714 0.0
9.371094700882272 5.459458038195667 0.0
9.422767107822985 5.360687090455724 0.0
9.36402660964156 5.264821436196721 0.0
9.474220736978928 5.262802348886269 0.0
9.41680330511366 5.169477108906666 0.0
5.168675939028436 4.895496152382537 0.0
9.482591449057548 5.454699312257291 0.0
9.431567605310825 5.552723344040521 0.0
7.531449703396948 4.741663470323411 0.0
8.517293123442691 4.672601123164268 0.0
8.459978676626639 4.778466809901586 0.0
8.396595115309985 4.67568709170855 0.0
8.338966609235166 4.782101664607259 0.0
8.275355646032752 4.678829956447008 0.0
8.217675280223542 4.785699596769931 0.0
8.28149024865807 4.888803783902183 0.0
8.16019781596952 4.892696417098926 0.0
8.22433278506531 4.995725219088695 0.0
8.102825704443651 4.999629142625341 0.0
8.166887930010795 5.098242831115916 0.0
8.034904900788316 4.896825406879729 0.0
8.15353539905931 4.682103688185489 0.0
8.211891449058882 4.574219757233394 0.0
8.290305306104333 5.094007100958221 0.0
8.225684228618732 5.201525567655179 0.0
9.444618942559746 2.343141375196729 0.0
6.929446520625337 4.868116916840016 0.0
5.737810725167649 4.893891407574175 0.0
8.720389971487277 5.38508368411851 0.0
8.805734920311323 8.951818172412821 0.0
8.905272694453211 9.083303226359831 0.0
6.006155038818204 5.171375272745409 0.0
6.431496448228514 5.152985998213245 0.0
9.052675024457304 7.106590131831544 0.0
7.740007013494393 6.09727525827826 0.0
9.375852260355511 9.013078430361404 0.0
9.32035844773103 9.14584923943073 0.0
6.989707597683965 5.146377438798643 0.0
9.488190206836386 3.951168069367155 0.0
9.432429152094464 3.855725756072153 0.0
5.568386402814275 5.185723849666124 0.0
9.525561551078322 5.166162126187324 0.0
9.465026391994275 5.072601962964018 0.0
9.320357339516937 3.857795423728873 0.0
9.375955927831914 3.759314274140895 0.0
9.261783786753899 3.761412578759438 0.0
9.31820665563318 3.661845422072752 0.0
9.431798673168924 3.660830894813109 0.0
9.374584413615914 3.563138564686839 0.0
9.48759661134647 3.562294297118573 0.0
9.431339678707085 3.464016717943268 0.0
9.417896212887529 1.746970678437863 0.0
8.731705369070733 9.110902182838881 0.0
5.652297951447118 6.21188565774667 0.0
5.569122518069258 6.024400786163834 0.0
8.257007204149394 3.505875091031567 0.0
8.717428603143034 2.925525757227976 0.0
6.882852832747376 8.57686572931064 0.0
6.337330066435714 8.416819098143066 0.0
9.50188906539997 4.521022403818629 0.0
9.453500859905136 4.617181635748691 0.0
9.46806769570129 6.749352117850711 0.0
8.836822104875719 1.72282859852854 0.0
7.481071063421426 5.64593758994851 0.0
5.668814988976305 5.86611128457842 0.0
5.487644760735084 5.847591822776978 0.0
8.993992818065195 7.228173913870249 0.0
7.98322414937693 7.229980191466666 0.0
9.22810751684646 7.54864871395298 0.0
9.304103360459063 7.654622011545798 0.0
9.432787371848761 7.633691049023619 0.0
9.382619818023882 7.759136995934441 0.0
7.239096822516492 4.679179578301165 0.0
9.47692479956498 1.861231395362419 0.0
8.041243110813022 5.095895152648969 0.0
6.190208781188077 7.509864122823853 0.0
9.283062812782122 4.549418667685757 0.0
9.503847665760087 2.450295046295932 0.0
9.443345385250678 2.557904120404248 0.0
9.52009568463353 6.644015937008899 0.0
9.203119005973903 3.662458522935253 0.0
8.406198651282708 5.92630414760378 0.0
8.467263597743843 5.811987729136874 0.0
9.461423029059445 9.128120577356565 0.0
9.408445330070542 9.26024300250086 0.0
9.266505293379728 9.277952925446408 0.0
4.14874709022218 3.631681332690154 0.0
9.437448107949258 0.8198473430736303 0.0
9.376993771693973 0.6910550697058979 0.0
9.22882356848217 0.6931820370818127 0.0
4.451823867195988 6.103664366188579 0.0
4.200031743909027 6.232039028149317 0.0
4.687154754667774 5.975132870483986 0.0
6.268889397098538 6.592235545990395 0.0
7.509366161722768 8.340075462391164 0.0
7.564775703413765 8.59800936579159 0.0
9.542148732924264 3.854614593058991 0.0
7.036231103929761 6.550562550831048 0.0
4.089373665437328 2.268193930262139 0.0
3.642558884866483 2.250386188148396 0.0
3.442182385618804 2.651948803899947 0.0
3.146832503011753 2.222630466765926 0.0
2.948870467975985 2.805088883766417 0.0
9.352005315330274 5.067356449300542 0.0
9.31729677031493 3.462944187594675 0.0
9.37428383619102 3.365546369736205 0.0
9.4883538239391 3.365384871181599 0.0
9.432147665178338 3.267287636377487 0.0
9.25034519267688 7.775848812012313 0.0
9.332091350002502 7.881724023243533 0.0
9.462101000264603 7.86490055671988 0.0
9.413353271651825 7.98561007219363 0.0
8.273592814723814 6.158623919352561 0.0
8.207135014732339 6.280394934566054 0.0
9.541483811580331 5.548224291759592 0.0
9.491365919893726 5.644847811894615 0.0
8.088095771120983 4.577581369371366 0.0
8.14760102783746 4.468303741922308 0.0
9.556217963323956 4.414867468889523 0.0
9.543667331547693 3.266908751519594 0.0
9.489307652535885 3.169908976697059 0.0
9.26285575842982 8.635341362685686 0.0
9.403220742003983 8.621447866627538 0.0
9.326013417886902 8.506778946171965 0.0
9.455477927154853 8.503896705359047 0.0
9.566646674069602 4.611465258087684 0.0
9.499341049870914 0.9352184973273918 0.0
8.683891958597638 1.444705608998412 0.0
8.599973456173778 1.287265568270043 0.0
7.760988189317371 1.175381292562583 0.0
7.50927661322749 1.171223823957793 0.0
7.380927152434357 1.411062577009695 0.0
7.242417847270241 1.170759311509981 0.0
7.107236746116019 1.421234419770886 0.0
6.960799033544566 1.169618322344823 0.0
6.817786081200392 1.434174581170586 0.0
9.48095050141868 8.738557748483624 0.0
9.319762046171894 3.263060331456388 0.0
8.920653400180534 7.117307656029475 0.0
9.452431221190624 6.544166520883111 0.0
9.571407933653493 6.540336592280795 0.0
9.507586285214174 6.443281357841339 0.0
9.575252974749443 5.070210512157044 0.0
5.755172844377253 6.370710487467459 0.0
9.541351959064952 7.969072511059531 0.0
9.354607289792183 9.3921968735401 0.0
9.495213435762107 9.37218405175897 0.0
3.77688136092967 3.643094492921176 0.0
5.460967180339239 6.159077196937325 0.0
8.656589552918996 5.283032675040985 0.0
8.599307076390474 5.387421722684671 0.0
9.584017606465821 5.263931993965828 0.0
9.51536593891754 4.977534386249715 0.0
7.788544970111893 2.70578432810479 0.0
7.381746833264364 8.755477463411431 0.0
7.615969996822885 8.852710176548548 0.0
7.783643411970649 8.691528137204457 0.0
7.845017394185501 8.938777577473743 0.0
8.570520580943368 7.342304222498308 0.0
9.103648004226827 5.781084627507008 0.0
8.338082930126799 5.815990105349368 0.0
8.930848895071895 4.561111316304916 0.0
7.381089602119859 5.983657236035151 0.0
8.42066837692862 6.393608568217351 0.0
8.888256157021065 6.459558428285236 0.0
8.826495664731354 6.575679897210801 0.0
4.22522220414496 5.921354747981145 0.0
3.943296448343383 6.075578573904587 0.0
9.563175937841836 2.554860696349795 0.0
9.505342423182917 2.656889632284623 0.0
6.660863480070611 1.168750929063519 0.0
6.518316961679488 1.436478598119306 0.0
6.683474168246802 1.694104067636375 0.0
6.376799057174731 1.707382100972048 0.0
6.205091481342603 1.443621641108414 0.0
6.058670988071357 1.728841803855816 0.0
5.877457486049096 1.454297236926778 0.0
5.724979192982589 1.756666409586195 0.0
5.529885788012015 1.462283739157555 0.0
9.514953777019835 0.7018468683209754 0.0
8.398665270372675 5.702731562702358 0.0
9.456442249775696 0.5772068858285652 0.0
9.565795671866349 2.345573662774494 0.0
8.830758563027459 9.247271599108435 0.0
8.523580738257648 4.88015211128435 0.0
5.580123316488715 5.701889892660689 0.0
5.398591029446707 5.685938459654249 0.0
5.367686360823392 1.778740548277203 0.0
9.546603444041448 1.754984055696778 0.0
9.489649223089446 1.641312329051244 0.0
9.617973952467912 3.363804764345866 0.0
9.584322830999731 6.729956156156573 0.0
9.597221861144487 3.948534024289882 0.0
9.49401963819799 8.089507968561776 0.0
9.207321074262563 9.416906871900888 0.0
8.27185428346661 4.464932191097996 0.0
8.207416067213774 4.35878753684812 0.0
8.332747746635944 4.354903699457511 0.0
3.990181919126853 3.930792395858886 0.0
8.267392138262498 4.254008221702929 0.0
7.997788712685495 1.196805377512679 0.0
9.600316638269724 5.639973985281733 0.0
9.550939606739425 5.737313319038155 0.0
9.44084303195315 5.74233753256161 0.0
9.50112296154558 5.834555019909565 0.0
8.897429225733994 6.685415510921676 0.0
8.762930941408914 6.695907295903629 0.0
8.654628175336732 9.278157371342388 0.0
8.544676900803436 9.133790942553834 0.0
5.294904777716057 5.855935872688884 0.0
5.216749389964556 5.66865685845661 0.0
9.508453581298625 2.239460033375932 0.0
9.599691370793206 3.169496930704394 0.0
9.546615051106684 3.073514534194011 0.0
7.484714626923596 5.028675123117963 0.0
9.588496050271255 7.850836295555126 0.0
5.153197381012662 1.471340286561097 0.0
9.433168304679345 3.071871997104804 0.0
9.610464706874994 5.829217654498672 0.0
9.561407772947403 5.926179534044419 0.0
8.273381980676042 5.705233340662362 0.0
8.330794188929296 5.594351887246082 0.0
8.207319603076424 5.596747949305344 0.0
7.251338559467102 5.233758892662348 0.0
8.708518799790543 1.130513882092466 0.0
9.590155250193266 0.5878623138195824 0.0
9.389919385420015 5.841079912164009 0.0
7.991397852194216 5.859910582924319 0.0
9.624951589233206 4.975554514425905 0.0
7.240016788025947 2.531866266726309 0.0
7.635666783493215 3.873554782053258 0.0
9.608476620993713 1.863530872936442 0.0
9.365330459496413 8.10677840682376 0.0
8.775076110585598 2.572737931759856 0.0
8.699389445914996 2.444602334375113 0.0
8.625078713232146 2.580891022578613 0.0
8.54447196848446 2.447624719286678 0.0
8.468898498943965 2.586757328881282 0.0
8.62282309213608 2.307826916202421 0.0
9.622102662978762 6.439307895185218 0.0
9.561995355724862 6.35103962032292 0.0
3.898245450818314 1.856155797593496 0.0
9.681759177700954 5.07069253017652 0.0
9.059254996454502 4.963357716933865 0.0
9.113144532326562 4.861710138088372 0.0
9.62140874877204 2.656009146517733 0.0
7.884510615470827 0.9666888912541309 0.0
8.14902661050739 1.005010215149227 0.0
8.491263206618079 8.527197931363634 0.0
8.408859203395778 8.697060715788105 0.0
6.54422152733529 1.954566069381189 0.0
9.563546573097593 2.755667904356369 0.0
9.453065492925557 2.761122255953964 0.0
9.676889098520615 2.755084315170127 0.0
9.678287124781653 2.556838324720633 0.0
2.60254317790297 2.278874965850319 0.0
9.211706272534968 4.050470567310489 0.0
8.526711683538949 5.698821878547752 0.0
8.296604023060945 8.533761944401608 0.0
9.649704314258118 5.543946557831669 0.0
9.651176136337964 3.85122804518279 0.0
9.44590154800397 9.498503704959054 0.0
9.580491248736612 9.476376347552954 0.0
4.3239388803087 3.921156392977062 0.0
9.65737873521736 3.075324100817917 0.0
8.128000846282253 6.160273991836929 0.0
8.06242981852327 6.292371360998262 0.0
8.500465019503922 1.442700595221201 0.0
9.615253212967009 1.649819368149096 0.0
9.561768620580791 1.538553925606111 0.0
9.435477757657937 1.527391516499924 0.0
9.627993450010088 2.242685831452484 0.0
9.5338252733548 0.4673994795805215 0.0
9.398055066504014 0.4589059948533885 0.0
9.669486082509058 5.920177035588319 0.0
9.621072177439727 6.016493814615133 0.0
9.506185962103057 6.018397021409126 0.0
9.196884440497488 7.898824858961557 0.0
9.112591143666748 7.789491461180181 0.0
9.664357762385308 7.950712034233033 0.0
8.46233617997115 2.308903464128035 0.0
8.547917980328803 2.169381684694277 0.0
8.139931430059324 6.410762600521521 0.0
7.672499127532963 9.099143622036436 0.0
7.91372855627271 9.178704612763656 0.0
8.463425076318451 9.290653726808348 0.0
9.643938029094286 9.335632419679458 0.0
9.647017668702574 0.7068996148634754 0.0
6.241662276606473 5.884018212993202 0.0
6.157742245066693 5.73500474100449 0.0
6.318815619949124 5.730068085823802 0.0
6.247706374231452 5.593094310939028 0.0
6.406948541886973 5.593272398468375 0.0
6.092564106310554 5.587409338401505 0.0
8.535507922245372 5.286142900439676 0.0
8.022959839404006 4.471630490587016 0.0
7.963561162854596 4.581393556789843 0.0
9.683487139413305 1.546750704925431 0.0
9.630761777960082 1.435922217091829 0.0
5.121714348989337 7.950140247572198 0.0
5.136464096196084 8.310254432483559 0.0
5.47349124035624 8.455234262268478 0.0
5.176273618280354 8.687190323573228 0.0
4.796664658962938 8.592678692862421 0.0
9.568705729418735 4.887269869750176 0.0
9.462711651199594 4.88832222094458 0.0
9.674903475028225 4.882285174433025 0.0
5.4996067353406 5.546583260717527 0.0
5.663632234555963 5.557613452957074 0.0
6.829408195405585 1.947174574944512 0.0
5.336529198289861 1.127585641139875 0.0
9.672387559812332 6.34138351957329 0.0
4.463988917379896 2.271060678869338 0.0
8.618048281355405 6.263841736419089 0.0
6.480949808711781 5.74815588680617 0.0
6.562207427719153 5.592185077216444 0.0
6.643040463857446 5.721233693378952 0.0
6.712825900331884 5.588664360236 0.0
6.79240375630333 5.711383948285569 0.0
6.86115931532141 5.584697050428064 0.0
6.939210100691576 5.704407337029545 0.0
7.007668476576536 5.580801046893123 0.0
7.084627386867475 5.702817970154801 0.0
6.633257976075473 5.460881327825488 0.0
6.931430743764456 5.461960451448691 0.0
9.682652370938209 6.533133024505995 0.0
8.761108695241376 9.450742747770144 0.0
9.146031326900015 3.764292700000154 0.0
9.089378801805193 3.661317181076136 0.0
9.514354521818781 8.994988681611192 0.0
8.157650730500988 4.262987189670279 0.0
6.329633198899328 5.4647789391701 0.0
2.340685767996258 2.811285337457589 0.0
7.379572471323651 0.9290892725587991 0.0
4.171878172186605 4.222320767259098 0.0
4.4876601621649 4.16473354200826 0.0
5.336389369563535 6.806464508860387 0.0
9.595468321212476 9.108133206829102 0.0
9.645038675267227 8.982113951305912 0.0
8.393140678816192 4.246338342095281 0.0
8.309440721624494 4.155300532283633 0.0
9.418269339704423 1.9925512363779 0.0
9.662781807969623 0.477809346089035 0.0
8.011297869803792 0.7518828483803571 0.0
8.250149975885678 0.7646904662196189 0.0
9.608674873602773 0.3618049194050078 0.0
8.692696069692623 6.582927327365709 0.0
8.628225948401226 6.705702462696891 0.0
8.701883181418305 6.822086652299242 0.0
8.559276855155542 6.829564723911442 0.0
7.069268463354993 5.459534423493629 0.0
2.654575201159115 3.323490466195074 0.0
3.610801136544596 4.044075244426243 0.0
8.263757217166944 5.48730323490738 0.0
8.138838162809126 5.491254533497952 0.0
7.90196833683664 4.477386962763833 0.0
7.987943097943191 3.978756490171551 0.0
9.704623491880403 3.945605151832784 0.0
9.461009573830147 7.301728818091931 0.0
9.532468631193666 7.399916015174975 0.0
9.582688928417856 7.292330983701011 0.0
9.652579613269625 7.387768793572397 0.0
9.699264016151023 7.282867433965265 0.0
9.633305589700536 7.188543855060478 0.0
9.505576100168666 6.961225778216469 0.0
9.43876966151099 6.342441564206569 0.0
4.908483672172518 6.098703904450545 0.0
9.135448256237908 5.269827196966999 0.0
5.905650502271389 2.025036080946255 0.0
9.709890722072377 9.452748507541063 0.0
9.663337613522643 9.572126259365891 0.0
9.603900123387826 7.495180532331903 0.0
9.720147629525837 7.483400774981126 0.0
9.674588415444239 7.588303295299578 0.0
9.653186673863587 4.039274180923234 0.0
9.053164539680804 4.764545162185531 0.0
9.164908495749003 4.763017269285045 0.0
9.226019227262443 4.858029410614327 0.0
8.809947621994619 3.4964384919072 0.0
9.10538997155458 4.665865142902959 0.0
9.331074106432244 5.748993480915537 0.0
9.055854333858068 7.918554535314415 0.0
9.446431573964945 8.209836764658437 0.0
9.573844810886287 8.191100251691205 0.0
9.309704769895653 8.244395007943949 0.0
7.240329561730736 1.676197957122907 0.0
9.543389817573933 3.660019800390455 0.0
9.598599341122098 3.563130123982772 0.0
9.652615161407017 3.658119804270645 0.0
9.706336063693934 3.564815526226687 0.0
8.632284427755456 6.946688912416058 0.0
9.682863230715835 2.349655023034811 0.0
9.571538455120994 2.142369886250143 0.0
8.090821900439733 9.017409120951333 0.0
6.812258669899192 0.9007667548831626 0.0
6.50135254578461 0.8974046495177885 0.0
9.598335906230732 6.246437748035812 0.0
9.719677442549804 6.253968775436637 0.0
8.593026822691716 5.180101360605356 0.0
5.537586126848265 8.836083861509138 0.0
9.688689404995035 2.143487155934306 0.0
2.821389253975936 6.507820864074362 0.0
9.176571289960709 8.507736431357309 0.0
2.918303740542162 8.256728920338826 0.0
3.428955230180972 8.401446814887457 0.0
8.490587404589881 6.715350139132777 0.0
8.86049054904785 7.243279881821806 0.0
8.93696309213556 7.356650230611625 0.0
3.951931175165697 5.78308550088855 0.0
3.65055612573298 5.91672400098539 0.0
3.668142216548471 6.247526235973777 0.0
9.717269848920886 5.821831227352286 0.0
9.708364917734201 3.164198601626433 0.0
8.45581975650687 4.569560863828342 0.0
8.204448312099833 6.040774355519757 0.0
8.65969449127868 5.485991799508151 0.0
9.707534571012967 5.634423933296901 0.0
9.62102991883279 2.849662850313935 0.0
9.144093558002634 3.560383427867003 0.0
8.29763273805118 1.77155302934031 0.0
5.280452715709455 9.01633391004168 0.0
8.984558945859158 6.99932633710603 0.0
8.4157550875812 1.275784953143711 0.0
2.068078118650995 3.355462780535101 0.0
9.205703884756806 5.568274778556933 0.0
9.745857863753141 7.178456670302003 0.0
9.681628895748586 7.081494416756802 0.0
8.875818787971069 6.240744812097083 0.0
7.993733797566922 6.414830952863579 0.0
8.462810157069566 3.377071044664789 0.0
9.29428363519789 4.759591981903337 0.0
7.933956818298286 5.97437536746848 0.0
9.028281726378319 3.558713145763133 0.0
9.083461773461467 3.455531762175701 0.0
9.73231939683535 2.849247643393067 0.0
6.70072305037728 2.192432536215492 0.0
6.423245125077639 2.212870246546939 0.0
4.931537051605536 1.135086496804522 0.0
4.746426561586179 1.500381091957315 0.0
9.707706579932626 7.836419656220658 0.0
8.590593344701457 1.595639668013959 0.0
8.708946574109854 2.1688179918246 0.0
8.634728854549891 2.028564483452208 0.0
9.230357659411311 8.129337203173913 0.0
9.102841374461482 4.452881308250647 0.0
8.472081531214734 5.388993924853032 0.0
4.925996806199801 5.844046944846857 0.0
4.702806345752284 5.745688656289065 0.0
4.884357002239844 5.633237011762874 0.0
4.709628434300812 5.536404116679045 0.0
4.530800966746534 5.627044171217377 0.0
6.040296145349247 6.603808099703576 0.0
6.162203578696918 6.795213950202512 0.0
5.923135943221574 6.824060069869489 0.0
6.046693245732212 7.010423490915212 0.0
6.297337598588478 6.979895528204233 0.0
7.760448385794147 0.7294020304851334 0.0
8.492228348169641 6.958778476405878 0.0
2.89219822877093 1.704113597264478 0.0
2.26178643438086 1.7814602252425 0.0
9.726968895980871 6.009547057102511 0.0
6.63195110828313 0.6072886418835157 0.0
7.984023036954866 7.515675826210831 0.0
7.893857204140559 7.681876703427663 0.0
7.778465117872411 7.537836322197895 0.0
7.998204230811618 7.844922503023499 0.0
7.798554315988981 7.858161805718108 0.0
7.917846202023782 8.03040048103727 0.0
8.547520504556728 2.721261126162116 0.0
8.39253850806587 2.732073315877738 0.0
8.306047241032278 2.59069854402512 0.0
8.233011054235162 2.739783364361515 0.0
8.318836035587811 2.879838477099622 0.0
8.159530874574331 2.888511553151382 0.0
8.245490421394788 3.024568439743106 0.0
9.759103003747676 3.077839427881478 0.0
8.083610090773394 3.033523757291178 0.0
8.174562583800352 3.166768504406541 0.0
6.046769434852523 1.155662270344939 0.0
6.968371001421964 2.176347877216873 0.0
8.324858098380334 3.152966249334499 0.0
8.145556596142626 2.609897633546475 0.0
8.970652052821418 7.804556541250797 0.0
9.033737629244714 7.681328986528639 0.0
9.62347010002576 4.796939565664328 0.0
9.72520380348743 4.790261082613535 0.0
4.882631186210167 5.455006233451049 0.0
4.618356368594037 3.933076284395493 0.0
4.748083507220199 4.151025177732873 0.0
4.641724290430313 4.358202249373887 0.0
4.87055838101999 4.337900676660481 0.0
4.974114446887331 4.149149057174687 0.0
5.081577844806959 4.3240148266423 0.0
5.179521650033781 4.148725180298481 0.0
5.276261408871418 4.316673822529601 0.0
5.369189110897883 4.148362797753505 0.0
5.463892033849439 4.338819369807593 0.0
5.550828466075906 4.146274465971151 0.0
5.646554822352869 4.303571429647391 0.0
5.728109623160046 4.138582010823754 0.0
5.821689108984419 4.291959598724587 0.0
5.906082534948073 4.141649907302701 0.0
5.99655838673762 4.288752711512514 0.0
6.077312859438928 4.141011188943332 0.0
6.164215275138099 4.281164574562373 0.0
6.241782344986693 4.140701084167517 0.0
6.324316420613108 4.277393447415522 0.0
6.40284165425941 4.140026953305852 0.0
6.483655157361099 4.273418937894759 0.0
6.561170698911611 4.136221843106807 0.0
6.63512300179586 4.269917278694155 0.0
6.720306110251473 4.133393659385058 0.0
6.63777078218551 3.99617001426095 0.0
6.802492763973074 3.994355399489989 0.0
6.798834760478153 4.276914787769972 0.0
6.15377608509923 4.000134206628027 0.0
6.548727135071258 4.400510710520637 0.0
6.251479300130713 4.421887359316258 0.0
5.275876048175579 3.979624500657822 0.0
5.910905077162284 4.431174408784691 0.0
6.717070288412452 3.851239795555301 0.0
6.883499045994213 3.852555480300214 0.0
6.96664848901999 3.994033961856844 0.0
7.048208567116626 3.854750001965969 0.0
5.810004974283072 3.982497501655442 0.0
5.586615391658107 4.471070246359201 0.0
6.547331954052155 3.853872077215347 0.0
5.179081233207816 4.485638492900557 0.0
7.126615227065496 3.995337770596979 0.0
7.209459742762513 3.856893463870469 0.0
7.130226097876905 3.713620439679428 0.0
6.63075064074106 3.699684148676045 0.0
6.446985573861992 3.697358756862005 0.0
7.043151422977365 4.131713936060725 0.0
7.198322215260019 4.129850614748363 0.0
7.119378405252723 4.26005098890218 0.0
4.797146270976422 4.525762781577414 0.0
4.608329098388589 4.573584257851931 0.0
7.294442092743627 3.720853338661503 0.0
7.215753312764997 3.571378507508807 0.0
7.049631633956289 3.568047985538775 0.0
7.133765707749521 3.414282375958479 0.0
9.755079417839903 5.539705890434435 0.0
9.698955703441971 5.450920012703194 0.0
9.717604099406742 9.09084770432896 0.0
9.276716006673976 5.847248422342224 0.0
9.339081208926798 5.941174203394446 0.0
9.031261921742963 3.750271483819014 0.0
9.08721978689863 3.853416037308712 0.0
4.801461566647803 7.510704110489921 0.0
8.206553504932042 5.818005960412773 0.0
7.362361315389098 3.863102442315545 0.0
9.492826845316191 2.963845037486267 0.0
9.376710375304633 2.97229517374228 0.0
9.3192743723601 3.070687802230453 0.0
7.915389082113898 6.293241865913004 0.0
6.735006382384437 5.832450056405368 0.0
8.456481836836168 4.35369289249905 0.0
8.517718268476031 4.246675068616396 0.0
5.583512022030555 5.411069060406398 0.0
5.73625200174779 5.422617752052123 0.0
5.81006929286229 5.548584937688919 0.0
5.903438861894402 5.420604003204523 0.0
5.43801870974416 5.402925156167655 0.0
7.022641548594327 5.825217331839047 0.0
7.165095795605366 5.826005223633447 0.0
7.223078558430726 5.690146755650336 0.0
7.841396000338385 4.586693006493787 0.0
7.904793170875705 4.690826189066096 0.0
7.785999820520073 4.696719777099973 0.0
7.846448506395101 4.798518978096564 0.0
7.728149182067156 4.803800941124008 0.0
7.788983823826226 4.904802634695232 0.0
7.672018889153144 4.910077510508749 0.0
7.731996012352178 5.014717724244488 0.0
7.852072803124419 5.00743796185411 0.0
7.779278698005006 5.118909346425974 0.0
8.088113864063853 5.605434545811022 0.0
8.016457362785575 5.494849890158723 0.0
8.072290383394757 5.385594956317259 0.0
7.95068657972964 5.38825563681957 0.0
8.309366678475389 1.438342408757099 0.0
9.748160780780179 1.447794693754379 0.0
9.696454228162398 1.337889922375316 0.0
9.568813761940916 1.329560834053294 0.0
9.638326779791626 1.226729570935787 0.0
8.472132467407484 5.182856496818138 0.0
8.066211547412054 6.53691730655352 0.0
8.217035586462373 6.522976700918602 0.0
3.544839338670893 3.324491119989469 0.0
6.999740002965287 5.347729916247808 0.0
6.874544698914502 5.347027470386579 0.0
4.880451234715014 5.193043717957879 0.0
9.104510033763066 9.313204713465637 0.0
9.0466357104558 9.45359399494339 0.0
9.146803165140184 9.569652364413551 0.0
8.134107047896672 0.5527712356100052 0.0
8.369770412730738 0.5571215815175228 0.0
8.47386979744655 0.7564607169846485 0.0
8.585193608569258 0.5749174254532757 0.0
8.683868132726584 0.75505070091701 0.0
8.787381435061018 0.5813987798627239 0.0
8.697570280442534 0.3771156480326233 0.0
8.530048434259976 5.077280516000916 0.0
7.995091351438729 2.90367515012593 0.0
9.731083608815164 1.662638626153251 0.0
7.260488865351954 4.255073962371814 0.0
9.760728358076392 8.990038509880067 0.0
9.716710396257366 8.884160310398862 0.0
8.794627466210242 7.369659405098349 0.0
8.868068657550866 7.515048014893154 0.0
8.702594597629135 7.510501129643432 0.0
5.132320689147051 0.7610757801158905 0.0
9.755852887652699 3.853180024615871 0.0
9.787424819067885 2.757921105725315 0.0
9.731193479931608 0.3736343090103709 0.0
9.796526908308536 0.489684029254899 0.0
8.226019692057042 2.453349105940535 0.0
4.560989821496479 5.428206018250252 0.0
4.348810639659689 5.517048281386008 0.0
8.785190163106925 7.119142251269924 0.0
9.015515413043023 7.464769766852701 0.0
9.754861440190705 3.659036930324926 0.0
9.7543610723378 4.033687839160082 0.0
9.707881226943384 4.127219992296752 0.0
9.52841017383273 8.309020665649431 0.0
9.65186044414544 8.289498614805698 0.0
9.714051275521857 8.173576484362068 0.0
8.209758892476394 8.715513071423135 0.0
8.097084883671858 8.548851201381087 0.0
8.177989947800599 8.367872862579052 0.0
7.974142434808908 8.36779470623567 0.0
8.409012054919861 2.142624252464372 0.0
7.707002321497132 8.039129945341395 0.0
7.574653123518228 7.83895791570255 0.0
9.229858094382692 5.951357214361815 0.0
9.75307989876696 1.229893222503321 0.0
9.715811155868643 1.128779429890018 0.0
9.597960915003707 1.117058287635912 0.0
9.672063923518955 1.020806103150243 0.0
8.99090422125785 9.593878510105375 0.0
8.133165456134304 9.257620998029804 0.0
7.976779931497633 9.420725324095141 0.0
9.77231778617502 7.927819487779705 0.0
7.957213679655531 4.364530256281665 0.0
9.609903116082736 8.403725680286847 0.0
9.724891358972584 8.388392708395173 0.0
9.687487059868507 8.495935345161797 0.0
9.810055520269009 8.494090598382963 0.0
9.755967487162335 8.599790818513082 0.0
9.645698986824481 8.606121319182705 0.0
9.721376049217765 8.699989876681524 0.0
9.773009257015609 4.884557953188837 0.0
9.830105798750992 4.796546393900876 0.0
9.775335108731761 4.686093304257503 0.0
7.455611517737074 3.730099283949135 0.0
8.906943567829634 0.4197477661467797 0.0
8.980613334153533 0.5814185917581446 0.0
9.081059111759728 0.4263421860552371 0.0
9.821654809259165 3.576985724143072 0.0
9.761309244784803 3.4792267780002 0.0
9.763329553045937 9.353068233045157 0.0
4.463051839136694 1.164440352584939 0.0
8.0213168204867 5.283436382300235 0.0
7.89385412333227 5.290429544753158 0.0
5.806940001023414 8.583716119232427 0.0
5.88977793877374 8.96065112858812 0.0
9.177759062826041 8.25539130897928 0.0
9.626582559276994 2.05283181283147 0.0
9.747673294325121 2.064954301745188 0.0
8.775905508647185 6.951821187702613 0.0
2.3581644273991 6.029034686663493 0.0
9.777798009058461 9.548066962498762 0.0
9.737129197219856 9.662299853506903 0.0
9.615080366030512 9.683349544763068 0.0
3.315839678697904 6.042943273456425 0.0
8.915083018115329 7.937748428923896 0.0
9.489832173860055 4.712364754630572 0.0
8.118313727862493 8.013944064029838 0.0
8.902248750797776 7.67372145952523 0.0
8.954075939212636 3.463080912810881 0.0
9.45247551997678 2.133243108303608 0.0
8.311151553157742 8.899233004613622 0.0
3.28672004268868 6.826745674539142 0.0
9.86008383798735 3.468233656255824 0.0
8.389990589860254 1.947086063498656 0.0
7.144231739553659 5.329544660076687 0.0
9.654500729007207 7.743301971143119 0.0
9.761920842881946 7.740144345898896 0.0
9.692820773976567 0.2651585113981998 0.0
9.690951720399688 6.100517071814821 0.0
9.775704281989471 6.077882312279847 0.0
9.823117117198079 4.115168542267924 0.0
9.764391943581737 4.214465954230587 0.0
9.659455011849253 4.218716850797838 0.0
9.713462125022623 4.30742830316693 0.0
9.849638067150842 4.208845651573708 0.0
6.376241713254513 3.858766051594979 0.0
6.274931849158213 3.701528298009006 0.0
7.097780104117746 1.926449727602711 0.0
2.457742027508782 3.810157622192786 0.0
2.963634206580268 3.740748099915693 0.0
5.065585416063965 5.544355730437482 0.0
9.783560252464587 7.566507987677117 0.0
9.825819294611026 7.470942204664841 0.0
9.799976114123012 1.01659516618323 0.0
9.745559590633832 0.9150866860898854 0.0
8.20473400632469 9.495828670767946 0.0
8.784586030320169 2.054461500762216 0.0
8.758471587067168 1.888286802854785 0.0
0.9188935087347281 8.510730800272478 0.0
9.674192026048217 9.20389587377276 0.0
9.796314981283475 9.185916994648775 0.0
7.206882433199502 5.452024361489832 0.0
9.773927048949279 6.334665846819535 0.0
9.830288393591173 6.225300227041885 0.0
8.25177349297509 3.282767705830209 0.0
8.099233469407428 3.304040153764131 0.0
9.607860512870598 4.315652630490023 0.0
9.403674738018715 8.367349042046314 0.0
7.611756786273919 5.018691202305147 0.0
7.549513964643336 4.923310232561835 0.0
9.80986724662116 0.2915868356190958 0.0
0.7757562810577034 3.504187313079081 0.0
7.659562100664981 4.698467529240196 0.0
6.539424975891206 3.541729955691742 0.0
6.717348880400739 3.55221857686142 0.0
6.836337579501807 2.417476958454302 0.0
7.096480496160066 5.959124656438389 0.0
7.189742782777612 4.377051328076039 0.0
7.051723187622053 4.38470822973091 0.0
7.125489805519186 4.497018383456762 0.0
6.994915621927777 4.501504591168814 0.0
7.056755276274058 4.607929817497045 0.0
6.932937068803914 4.613249390039674 0.0
6.86629288290367 4.50541343988659 0.0
6.80427099775847 4.617607827251794 0.0
6.739195362053689 4.511124964201849 0.0
6.677260697693361 4.624288827143181 0.0
6.996760608675822 4.711715831373894 0.0
6.316045249462968 0.6456945497683586 0.0
7.321834163850416 5.816449323512759 0.0
7.833101485370825 4.390058096386987 0.0
4.996572652976738 4.498711166259074 0.0
5.112334577457371 4.663858846723513 0.0
5.271923064784868 4.629759173373871 0.0
4.93773508827367 4.668006487116195 0.0
5.348137647919096 4.485934621930562 0.0
5.413454827497575 4.62999925573761 0.0
5.356581113747675 4.770594395332836 0.0
5.013422223730484 4.793321773780133 0.0
8.58674425943957 0.9312335381466886 0.0
8.776450596582496 0.9362399987293505 0.0
4.783496233934828 9.486061758876032 0.0
4.544176394620909 9.034071856445296 0.0
4.082330493623582 9.015765881393772 0.0
9.820867469965414 7.285959215547852 0.0
9.852697883440127 7.166089674802766 0.0
9.260999083164238 2.971390964911171 0.0
9.197701900169713 3.073162109379564 0.0
9.31960210441945 2.867465579641856 0.0
6.660951583415121 3.383363199709994 0.0
5.210469976037585 4.761678854423166 0.0
6.740780285297665 4.733615686805694 0.0
6.611362405615225 4.731958642073806 0.0
6.549091884465382 4.629620704100811 0.0
6.491761716522486 4.733409494449344 0.0
6.425259228542098 4.640546096196947 0.0
9.715556659367534 2.986725573570596 0.0
3.710524324925069 9.463213827486557 0.0
4.768537031214573 4.727001037865238 0.0
5.039413681704655 5.378508462165627 0.0
5.188746429211535 5.440476671296013 0.0
5.172214816037712 5.298914527247826 0.0
4.469063601436893 3.667917323494335 0.0
3.799121596584382 4.741629285988305 0.0
3.661085664896249 4.442847704416992 0.0
3.316563386321876 4.380147387454913 0.0
3.802087298647255 5.26743535640985 0.0
9.738116341343215 8.047178982429934 0.0
9.85106076399546 8.021725551312715 0.0
9.837581050304836 2.844176011307251 0.0
9.664579962075123 4.402853107737106 0.0
9.76433159763034 4.39807801415352 0.0
9.718924973226878 4.487825491046641 0.0
9.826405563645343 4.494594135148365 0.0
4.931068003413168 6.359330991212394 0.0
5.130175746947236 6.201075257041828 0.0
5.143884286052002 6.445382329515047 0.0
4.953395875296406 6.628748468717369 0.0
7.833019185167153 5.400347121613631 0.0
7.766636138801143 5.313240048256084 0.0
9.767038723422333 4.578090619166644 0.0
7.315369355237483 3.441501197259575 0.0
9.556068971301514 0.2347811136726856 0.0
5.733871280791703 4.444861510772459 0.0
5.828809543126846 4.569791247698539 0.0
5.986701526182213 4.562881783985375 0.0
5.912543327921148 4.692966271273211 0.0
6.052130330528581 4.682477327897978 0.0
5.773525984744635 4.697697018456535 0.0
6.121646311546238 4.572302645403103 0.0
6.182349700936326 4.67713231096357 0.0
5.846371383601797 4.808939734754761 0.0
5.117807918383606 5.974361363083184 0.0
6.256132501905665 4.575863546153224 0.0
6.324770064521816 9.645040261272253 0.0
7.345522892050965 4.12581088034536 0.0
9.338523512844539 4.854480276600515 0.0
9.286984287289403 4.959628690044808 0.0
5.676298026114105 4.589279806918992 0.0
5.631257891894775 4.722749088404111 0.0
7.970415275563177 5.621040275419208 0.0
9.565118337557308 7.081391220827488 0.0
9.626201005045262 6.980441083020495 0.0
9.733729506193331 6.979928568877979 0.0
9.684556253529976 6.887102896543928 0.0
9.780785815410074 6.890287441101827 0.0
9.740054813822885 6.794211367612523 0.0
6.462628988057306 7.629921412015864 0.0
6.692564520952154 7.473594130811262 0.0
6.927983108788191 7.570982428592125 0.0
6.899878641134941 7.329306734748538 0.0
7.117542472438434 7.416951094809493 0.0
7.089537168123128 7.186691566729968 0.0
7.296585396514727 7.275888419524222 0.0
6.879678873774065 7.097443005287856 0.0
7.063454637059129 6.967740076426161 0.0
7.329105042924355 7.496317641003757 0.0
6.867084781778411 6.878842928865059 0.0
7.494278796275744 7.351949197351029 0.0
7.462564159480594 7.150140034494138 0.0
7.644835001206406 7.21506678718646 0.0
6.682478929414216 7.008358327294905 0.0
6.449199855715812 7.365660640952548 0.0
7.548139855358765 7.57299228324251 0.0
7.008502809092701 7.844601794812628 0.0
7.371739019901781 7.707688433423657 0.0
5.665345294602155 5.290628720253272 0.0
3.987583013016546 4.486920698115711 0.0
8.893480480320447 0.7785000884179994 0.0
9.715485963651112 0.5955299613117169 0.0
9.761785841543585 0.7048670948649375 0.0
9.670304314877074 4.578896619304786 0.0
8.058509626083154 5.744161686650483 0.0
6.181795443628869 5.462040811515966 0.0
6.256771804808641 5.338464817889848 0.0
6.124070400983443 5.352376180901929 0.0
6.399679261813415 5.349186390888865 0.0
6.477776305607503 5.46505688468465 0.0
6.541624525938461 5.346017118512589 0.0
6.673064575428321 5.339051516933525 0.0
6.599301548842115 5.241958624987057 0.0
9.573774011620444 0.815274945835158 0.0
5.86493292693426 5.877588788523632 0.0
5.552663040119136 6.957487930464628 0.0
5.535080960199246 6.663033131707637 0.0
3.708603689392072 0.5979254716153909 0.0
3.31896983256719 1.188583855309964 0.0
3.895664898001925 1.128137111173669 0.0
6.363360407965353 6.032416442205533 0.0
9.445959758065749 1.070139246426051 0.0
9.50632172780449 1.214052376665338 0.0
9.441030033980638 1.325047485624912 0.0
9.295799464644857 1.341410624832976 0.0
9.184164107767781 1.461677744200096 0.0
6.407191016756832 4.407273313799791 0.0
5.544591888593027 0.7652641669375747 0.0
7.883090151006535 2.497506182548758 0.0
8.073420508370992 2.120510489750234 0.0
5.494822040671399 4.732314720081375 0.0
0.8986976806403217 1.464611451578306 0.0
9.536325549598013 6.83286654168725 0.0
5.972289519322897 5.727532110854501 0.0
9.82203607053145 9.443411729566549 0.0
7.263199949874008 7.064207941227515 0.0
7.233659553805083 6.853135694774254 0.0
9.793310082768443 7.072747972018893 0.0
6.734168931095253 9.67499220075154 0.0
6.941134861034159 9.382328333169653 0.0
7.285822522704258 9.443989747444657 0.0
6.576263515512108 9.333035011158342 0.0
7.160560566479093 9.127732577621245 0.0
6.218711947378506 9.298064908857533 0.0
6.432383355119106 8.980985203293491 0.0
6.795390278360442 9.046043538032663 0.0
8.54677014121837 0.1957422484480979 0.0
8.528696320820908 9.804850950580938 0.0
8.42644965647489 9.604735484095604 0.0
8.010239224104339 9.715048083583248 0.0
8.644359648763341 9.628432815860457 0.0
5.344212921686536 5.526744195650314 0.0
9.760936589662048 7.38409687515441 0.0
9.128187788393989 0.1445485608215519 0.0
9.133307661752394 9.854833215426817 0.0
4.867351616228264 3.944459575003425 0.0
5.905323253270366 7.385600364255367 0.0
5.909045412185362 3.361969954191194 0.0
5.80580919758911 3.569999290452344 0.0
5.578230704221431 3.587842862412673 0.0
6.013352753603037 3.550699073477782 0.0
5.936624955014758 3.721630401607248 0.0
5.735413275357409 3.78528948606432 0.0
5.512538847486775 3.794760621907932 0.0
5.360571639388366 3.618649018042938 0.0
5.134141179590394 3.459385929220745 0.0
6.167399567008798 3.367365990358096 0.0
9.766756262206602 8.291756450136036 0.0
5.486063578307141 9.64505925252771 0.0
9.497624614180321 4.328873442170357 0.0
9.811387324954623 1.570516917365688 0.0
9.389210081887331 4.69150887571586 0.0
9.704395728912932 3.754226393630331 0.0
9.808172776193384 3.748784464356272 0.0
6.549660911932182 4.839747932361234 0.0
6.757415124099031 6.077939876843736 0.0
3.805578542126494 8.040840085419626 0.0
4.232580149691158 8.198659880701744 0.0
4.559765382564095 7.87091698350757 0.0
8.3829075948167 0.9495097054886067 0.0
9.8571301061408 1.456307792614791 0.0
2.005900212453279 4.535525273813588 0.0
1.85904408608185 3.956445706785572 0.0
1.979307922430775 5.474327285927505 0.0
4.387923194305381 4.427191306527721 0.0
9.429258370703248 8.873693567695483 0.0
8.99196583083892 4.664567567015693 0.0
3.050357122593155 5.368999067452741 0.0
2.861107385476722 5.785089447130829 0.0
5.005058958272409 3.711196438448062 0.0
9.8972295764837 2.755337284632969 0.0
9.581048890980513 8.853909321617065 0.0
9.668838904423916 1.762418716497425 0.0
9.716576458425756 1.852218615166234 0.0
9.799043132681442 1.780583141193779 0.0
7.661868217848455 2.880323287492419 0.0
6.780136552904057 5.443858690999834 0.0
6.489544866845868 5.913957888434588 0.0
6.880149522020364 4.134257616716107 0.0
6.970134365280068 4.264072319341612 0.0
2.225481516813409 9.348422240784 0.0
1.843418032490818 8.641605249943353 0.0
2.198000805242772 0.6459947140825729 0.0
8.740020306282506 0.1903932731609072 0.0
6.86957996016679 4.720776242956433 0.0
7.430920333506809 0.2702852342693345 0.0
7.302066064947383 0.6134316505458445 0.0
9.305398039877746 4.64854361125207 0.0
4.078151380865065 5.203425462519088 0.0
4.080704120371218 4.778853303303787 0.0
8.052525541571825 5.965483159581719 0.0
6.367194027835946 4.754896037842673 0.0
8.604191121620719 7.648182513679963 0.0
9.546446695207845 9.234701521982952 0.0
9.018652854946867 3.351011585453845 0.0
9.143853648154607 3.350173119015413 0.0
9.067079866763024 3.245174561579149 0.0
8.991492136849105 3.135578770028028 0.0
9.29603967712795 0.1426516429033488 0.0
9.392428271030795 0.2506306237151588 0.0
9.223973843394301 0.2912279164401488 0.0
8.39375191941536 3.018777714002827 0.0
8.4836475746111 2.88135207267795 0.0
8.741089053946197 9.821127577434911 0.0
9.803966507713174 5.448064463539533 0.0
9.748132240148552 5.359371181503531 0.0
9.850258990973547 5.355211921626304 0.0
9.7965346514158 5.266762244994661 0.0
9.84142096963129 5.171050273734619 0.0
9.738843612428232 5.167483913244169 0.0
9.64168976006725 5.359875132194057 0.0
3.335917453809221 5.671837672982919 0.0
6.962669142802881 1.683222554707996 0.0
7.365210844496719 1.887492842536114 0.0
7.517378971174123 1.677983072937792 0.0
8.00383870208024 6.089394601875145 0.0
1.725435941000569 2.759295503019395 0.0
7.907977929549089 5.102827208603365 0.0
8.052861051278896 0.2683271125209605 0.0
9.80169732768395 3.385443381464333 0.0
9.831597648680848 3.28491948963525 0.0
9.736335895866404 3.316207814499244 0.0
9.597256128490281 3.756160701977744 0.0
8.865819925321706 3.366235906378775 0.0
8.489614436807788 1.757152185195495 0.0
8.88089641144391 1.078983279100314 0.0
7.430923851187758 9.724389499796425 0.0
7.584252919312249 9.509430586267927 0.0
9.744026095940516 2.247117754488748 0.0
9.729961521243718 2.659836747108116 0.0
9.790866569780063 2.558993767350471 0.0
9.736606445116795 2.455104424879619 0.0
9.846806182714698 2.452157456754448 0.0
4.518102112052724 5.141350889745285 0.0
4.519880229178207 4.85678334497067 0.0
9.7302407894617 6.434012603549242 0.0
9.787537474544765 6.523591663056312 0.0
9.744262337067932 6.617499601377625 0.0
9.8406238811518 6.41591236129004 0.0
8.914967252734657 3.579360039684312 0.0
9.154797282599406 5.670753066089419 0.0
4.228839454580575 4.612979739018002 0.0
6.095037541675208 4.42126627187728 0.0
9.304166983880842 9.864854494751789 0.0
9.406445527105628 9.759007358529582 0.0
9.256225114941945 9.700832989525724 0.0
9.796206564635622 2.351215649506205 0.0
9.849373673349081 2.25090453834006 0.0
6.332048155295931 3.511675163099286 0.0
9.069679774213784 3.022879178706259 0.0
9.070599961450037 9.055284879641471 0.0
1.808685691036764 6.331557276533421 0.0
7.120156826652838 4.698481230214924 0.0
7.052894345811342 4.799848851879358 0.0
4.739957520484086 5.369107149361242 0.0
9.389197839958292 7.197139943834638 0.0
9.046688232613976 4.560364044038737 0.0
9.162685461967492 4.562194096410666 0.0
4.227377821420887 1.564128177298305 0.0
9.201090975245227 2.794301402811909 0.0
9.251941624303948 2.677556975242327 0.0
9.186758273070138 2.563916005021366 0.0
9.317609833868786 2.560335260954038 0.0
6.57599191748324 2.437689779955877 0.0
6.305556560534859 2.459112595979303 0.0
6.981058048792093 2.642476994448363 0.0
9.886113463139504 6.510498309609482 0.0
9.250462794607717 6.221362629571698 0.0
9.305373999084068 6.108271307139882 0.0
9.390477915810829 6.228015172491477 0.0
9.44452571968143 6.114582165110393 0.0
9.502105740270528 6.197677857389309 0.0
9.31559697209813 6.331647407124485 0.0
9.370938253597153 6.437386206819511 0.0
9.594764406124872 0.1099001288712305 0.0
9.602872681151728 9.894988341116305 0.0
9.622661196143387 8.076680696281343 0.0
9.769069277144705 5.9102532189237 0.0
2.615076109785583 8.807551523115547 0.0
9.658920005405456 5.730890135691177 0.0
9.76063135061807 5.720703211793342 0.0
8.63963723169499 7.177334225227945 0.0
7.841904391869763 6.41346852896409 0.0
7.764520718520185 6.297267738834625 0.0
9.546492996136271 3.465225175657335 0.0
9.25600964352143 2.219157062786616 0.0
7.625057159226293 7.012987957636062 0.0
9.529121062829038 7.730283486008674 0.0
8.329887090625894 3.845190321147069 0.0
8.265841850823831 3.95687001944245 0.0
8.402006523775544 3.947660780406651 0.0
8.128436391670505 3.968543393650448 0.0
8.46705122470662 3.835767362024195 0.0
8.218867047074696 4.063481375518748 0.0
8.089763413611255 4.08062363292928 0.0
7.939578083855268 4.111915744184436 0.0
3.74991304509639 6.615676756107112 0.0
2.627714335615619 1.170993030860914 0.0
7.046129971268607 6.759930788612616 0.0
8.534603732661887 7.486325780553722 0.0
1.569381386467569 2.042794535871475 0.0
6.228703743210918 1.986421863690014 0.0
6.467030855792859 2.67190498312861 0.0
9.272246093269825 1.975478263632296 0.0
8.05269609263041 3.854522845257449 0.0
8.008595521536957 3.177870309354594 0.0
7.929796740504207 3.350600835935766 0.0
8.048703574664067 3.449582532910417 0.0
9.72947480375618 4.973926800124758 0.0
9.784850360535604 5.072865219810449 0.0
9.896036387646596 5.069261557893528 0.0
9.633140953203334 5.168645132864771 0.0
9.558102991128836 7.602453108835212 0.0
7.278758746505716 3.994295887299482 0.0
8.306681733482405 6.936428510427854 0.0
9.487163072013963 3.757777670075558 0.0
9.532950522284125 5.359403698944497 0.0
9.816036650072329 3.927268437107025 0.0
6.173882586235392 8.734645960664665 0.0
7.972518459433741 5.003005338485466 0.0
8.398453459336153 1.601072016988848 0.0
8.97460527296194 4.040886705742754 0.0
9.037941657530773 4.143578781749325 0.0
8.849604200183613 3.828506169652706 0.0
9.545296177100065 4.042698359132156 0.0
8.595941796785514 5.806754902023664 0.0
8.65588412428292 5.694192853853139 0.0
8.723710665131787 5.801528918332044 0.0
6.861288985046249 6.673713222735126 0.0
8.87477249219366 4.664500928777609 0.0
8.72385765226959 3.608276264790996 0.0
7.145228858696953 5.573648565429618 0.0
7.282945121585866 5.558559688509987 0.0
9.224761401603633 1.602363370249125 0.0
9.609115686587552 2.986868833620756 0.0
9.633989947851914 6.628120633848649 0.0
6.046214325132457 5.45615093027661 0.0
9.017014346798927 5.271996636983457 0.0
9.070824864071271 5.168510834798647 0.0
9.189021391555556 5.166867900487267 0.0
9.123328759137758 5.064718588163964 0.0
9.240587446378079 5.06459430516883 0.0
9.250848280531756 5.267364371053135 0.0
5.773050603406019 5.7192906317521 0.0
8.576466432793914 4.3559007860436 0.0
8.634627802680399 4.253467736542067 0.0
8.461790117175607 5.591735227444779 0.0
8.907610717370224 3.713397213891439 0.0
9.80665594564509 5.628066492225966 0.0
8.985935132601089 4.455263493464225 0.0
9.00640209566022 5.067597672073404 0.0
9.833659276096986 6.976519563917422 0.0
8.0283368553477 4.687271895436317 0.0
8.326580191759327 9.127498457128247 0.0
8.650637373791266 5.07513089931925 0.0
8.701067313435203 2.700069743477523 0.0
4.825307249916392 4.884175191874744 0.0
9.418335984190309 6.858444798015129 0.0
3.91434687300816 8.542956908935874 0.0
5.569239724399552 2.064135034637056 0.0
5.234271567762738 2.128974435011933 0.0
5.757920427527626 2.312422707096966 0.0
5.43365689737979 2.427455772745759 0.0
5.673210219624612 2.602111218343444 0.0
7.214258468265766 6.652783071431555 0.0
9.823626269633962 4.30685540664529 0.0
7.96996639420014 4.794005510174826 0.0
7.616003332725032 0.502676560965646 0.0
3.050634530589821 4.659174799474146 0.0
2.870894249800723 4.246924313393336 0.0
5.285393339952368 6.079037173753393 0.0
9.439954241218905 4.23581687956071 0.0
9.67709722097145 4.710772408106511 0.0
7.40767785509217 4.259947873553335 0.0
8.396202587439676 5.486075637998701 0.0
8.323689688705493 5.372061002264632 0.0
8.191312386254125 5.384662546230823 0.0
5.304380054816289 5.369675374029755 0.0
9.093848379546637 4.047647920840374 0.0
7.916313220758624 3.045043876114836 0.0
8.435854831444637 4.144861908356168 0.0
9.060262453079693 0.7340576053322918 0.0
7.053195520344596 5.238809779682351 0.0
9.621762679347093 2.45205452967588 0.0
8.410730269104743 5.287995309529392 0.0
9.655094569234972 3.472720279371932 0.0
7.982140513923982 6.667914768024983 0.0
8.402690325256646 4.883576657130221 0.0
9.17488654147479 4.962006474835693 0.0
9.013188196102961 8.49700148123058 0.0
9.795977244531603 2.156818021002043 0.0
9.893813711206834 9.545820400859157 0.0
7.965349232662289 4.250048884270795 0.0
8.644264557989125 4.874751532150782 0.0
8.215430976121077 1.26077208565765 0.0
8.379717637669398 8.37324652769609 0.0
9.320026533461409 5.559861899725609 0.0
7.885778178744864 0.4977439426642278 0.0
7.547066983926719 5.125166613071239 0.0
7.657542898944819 5.122996245335209 0.0
7.423918840193691 9.000935553397358 0.0
9.854133000712425 5.541931969512857 0.0
9.328508174398952 2.101486405523264 0.0
9.300749600926641 9.530012105354274 0.0
8.130307182491519 5.277079344947874 0.0
8.346752967392757 4.987627363826086 0.0
9.118404185029991 6.007087846617186 0.0
9.048232213728614 5.89431792713258 0.0
9.088340967655858 5.576242562571367 0.0
8.094762487139027 4.789727191449318 0.0
9.915265904493378 5.749591413470928 0.0
9.92169805280126 6.154216704502091 0.0
9.918022441582268 4.549125436287157 0.0
9.919332362905616 4.849536560132457 0.0
9.914800786693318 6.750595509794719 0.0
9.811792900437824 6.703950687575952 0.0
9.900643083988882 3.749855087409844 0.0
9.912423171222734 3.043228996968949 0.0
9.91892875832665 5.949999999993851 0.0
9.913300070218703 3.960831593817277 0.0
7.709347001661226 4.444236534782706 0.0
7.479443107717332 8.071637285053104 0.0
8.839057072155848 6.807845119358974 0.0
8.972330068019902 6.78765448182788 0.0
8.542093772125282 3.941452413628317 0.0
8.279144752968262 5.930387616620717 0.0
9.393455876855919 4.973162505621418 0.0
9.507123333872533 2.855087674515822 0.0
8.77504684283825 2.317347145885344 0.0
8.394133129040345 4.464046960801843 0.0
5.725509852450801 8.210843960481027 0.0
5.62632390239664 3.967637659758752 0.0
7.910815814627989 4.900765971697654 0.0
8.595808444085467 5.590040244353608 0.0
9.705160502006024 0.8106158419444889 0.0
9.82021247904746 0.808810893177099 0.0
9.218352146075844 4.447736986422823 0.0
9.20781892622228 3.858281726888132 0.0
8.713609974387523 5.178241668554946 0.0
3.55755059259364 8.921522400238844 0.0
9.59122926011489 5.452844834281716 0.0
9.70565100407009 9.77887811062354 0.0
9.826938454219809 9.74303055702321 0.0
7.238962096855633 3.278078153406256 0.0
8.575609105166194 4.567807831727537 0.0
8.936449841121737 4.765835458965493 0.0
5.59323463391086 9.248527978398117 0.0
5.280809113285124 4.886132326418428 0.0
9.328132730893216 6.544753806716806 0.0
9.026944889277736 6.67247283515637 0.0
9.81946239021469 3.007926663525007 0.0
8.677633568960493 6.144049349297466 0.0
8.33427489656924 4.571212803519522 0.0
8.55734024448315 6.382535186588269 0.0
8.692399379422756 6.372347713955898 0.0
8.495817478252626 6.503308565233578 0.0
9.905494734661673 2.544078755559835 0.0
6.177101405266569 7.228490244483556 0.0
9.825373011845263 5.807482724503027 0.0
9.808678508609606 8.118683092442964 0.0
8.397717712407108 7.08010313863416 0.0
7.428555529689225 4.935946611338556 0.0
9.575504958128711 6.125633853639113 0.0
9.154066996197898 4.146562596982661 0.0
8.074381802159323 4.337569667261167 0.0
7.018337246891919 8.843475095716133 0.0
7.970627172560641 2.658650028065857 0.0
7.382546388883145 6.723381543491632 0.0
6.822972334933889 4.884555620881615 0.0
8.343732976791593 6.041576709398377 0.0
7.743680217306919 8.423336160305476 0.0
8.505717922983454 1.115022897794028 0.0
9.113973198216474 6.992972408167606 0.0
5.818882632841168 5.300437503812764 0.0
5.951991891717714 5.279516346785062 0.0
9.450183479138845 5.92934813870612 0.0
8.783346541536119 5.48419035750989 0.0
9.38074895894124 5.65076274999803 0.0
9.513658728876734 7.193620441323493 0.0
6.396040948797887 6.776064256962667 0.0
5.389661780244388 4.89715084345563 0.0
4.473247649068957 5.85935163892416 0.0
9.249586607512612 8.37680799459232 0.0
9.103796366487646 8.379197231055114 0.0
6.274057301184156 4.87985402946409 0.0
9.259628836118232 3.561431822636308 0.0
4.037922477011971 5.489409780163391 0.0
5.62712958624254 4.893925433488392 0.0
8.806426003347967 6.133410188141932 0.0
9.53304466499349 9.59279975429444 0.0
9.542890959420024 1.966631379116419 0.0
7.459736176874619 5.863847835420528 0.0
5.937613117200432 4.89232797168023 0.0
6.171611131472617 4.879541833448487 0.0
6.100695199816815 2.291172318314745 0.0
2.315194906726768 8.081958163666464 0.0
6.878489987598286 5.148099521847569 0.0
9.105264414399338 8.639184652727645 0.0
9.20047261316883 3.457820810661327 0.0
9.895329010385955 7.55944047105717 0.0
9.912742873006831 7.76210330502246 0.0
9.37761459375249 3.168397068877758 0.0
8.946121261512507 6.345629828835438 0.0
9.918632496443566 4.449809517365367 0.0
6.848211525651934 5.945010613369067 0.0
9.915721525903255 2.047407395915179 0.0
6.117255841708726 5.163321965161054 0.0
7.276595248786602 5.347247322210079 0.0
6.32682869954104 5.23674259421017 0.0
8.785886448438022 5.692775375342819 0.0
9.099994401883361 6.776698531382792 0.0
9.913397459621638 0.2499999999998165 0.0
9.910352525643928 0.4481571029410266 0.0
9.907850422008579 0.5479735220323012 0.0
9.911983631350465 9.24778487019403 0.0
9.917634740384067 0.7514684821956668 0.0
9.195214232985496 3.254172408378337 0.0
5.000896927376288 1.846006038077654 0.0
9.917172478547403 8.250155740683276 0.0
9.908120476950126 1.742986232208194 0.0
9.914524635720774 1.949567899316728 0.0
9.907358878377153 9.145625165175748 0.0
9.917695944922635 8.949999999998397 0.0
7.648387553139914 5.325741673607362 0.0
9.605343588986079 4.130627398479715 0.0
6.648113233057817 6.774798386229164 0.0
9.910347203087213 8.446729917003672 0.0
9.913623694530468 8.548470085896316 0.0
9.9201245863254 1.536225488581779 0.0
9.906538426683255 1.059019360781604 0.0
9.912867352010919 8.74999999999809 0.0
9.799662981388353 8.79550485462418 0.0
9.831828680383174 5.99966894118311 0.0
9.91414179906643 1.263025320602998 0.0
9.920690092699912 7.240982963665807 0.0
9.385889285950551 2.235126904097426 0.0
9.28133998925606 8.00415195851526 0.0
9.817074723108401 3.172398890123306 0.0
9.482030285089927 7.512954023388035 0.0
6.682432918504054 7.233889573028878 0.0
8.528699633246763 3.260502457553277 0.0
8.91699963742029 2.327016692708648 0.0
9.267676068834481 3.954520684561369 0.0
8.70811637467455 4.974101624783084 0.0
8.18184214270768 7.816666208279135 0.0
9.690393137288163 5.264344933127836 0.0
6.937111790104696 5.245184991960528 0.0
5.895846026722989 5.174232967273284 0.0
8.281683356622615 6.400073017261236 0.0
9.150883172924027 7.444273543454419 0.0
5.430406600793122 3.390815886517273 0.0
5.049583827974758 5.697634876048387 0.0
8.3966710383105 3.495813899905868 0.0
9.007538428392454 8.046563579784266 0.0
4.645155158868719 2.637132843684674 0.0
4.887444326771336 2.30020425915506 0.0
6.483736782775559 4.522536327482678 0.0
7.843169154548308 8.2116075844056 0.0
5.06295551628385 4.901632590583318 0.0
7.201400991012747 5.138239336380897 0.0
8.519791031104612 8.848807089071627 0.0
8.658623737989732 3.031313729049854 0.0
7.585566208322493 3.629882964874684 0.0
8.411818469596405 6.834326722716643 0.0
9.172363528634236 7.669230647622864 0.0
8.85455683341768 2.682483055215344 0.0
9.359398739738925 1.631421337140716 0.0
9.071793864444992 7.337030604117359 0.0
6.968394563521436 3.712808894519514 0.0
7.899236117684646 7.094583340182754 0.0
9.54362864504834 9.781852543872333 0.0
7.151298729743687 7.644795130415299 0.0
5.452218361466201 5.186873761308322 0.0
5.517642289161902 5.293540933999446 0.0
7.802500357665464 5.978295671754199 0.0
6.594850839687122 8.491429270558893 0.0
6.029132431949566 8.294997405201931 0.0
9.31286590869111 0.5672913838331921 0.0
9.25238720319541 0.4415953739444106 0.0
9.550589523211062 4.228044955453704 0.0
8.748611832783206 6.250900951984038 0.0
7.566980108995873 3.995148257893202 0.0
7.426142759241261 3.996743578498081 0.0
6.478912513785404 4.000296412419969 0.0
9.30435638148753 5.168210982711592 0.0
7.542154188520517 5.752525075248498 0.0
7.219033852073297 2.139582470800704 0.0
7.370913620388047 6.545121498197235 0.0
5.226731036024996 5.187572666585561 0.0
8.515591031124366 4.462223215179979 0.0
6.762864307079274 0.3078036604979366 0.0
8.587432696997471 4.977010533175154 0.0
8.703948448756302 8.815629076400704 0.0
8.081003990931544 7.370949680119862 0.0
7.424404567669909 6.949730915714445 0.0
8.578903262311433 8.377992954045473 0.0
7.301258690263783 6.106184350645308 0.0
5.991600556904204 3.99820087171043 0.0
8.203048538477193 1.601044215405025 0.0
7.289972483120081 4.572350254111052 0.0
7.714697186439165 5.420586967696794 0.0
8.918853780709807 1.841796898567452 0.0
9.919941345877513 4.749808449067644 0.0
7.245589454939737 5.94251251443003 0.0
9.258480524497795 3.358952871140391 0.0
3.705877615124628 5.574038727593425 0.0
8.287096858129765 7.962370605242409 0.0
6.799629860952143 3.705385600481528 0.0
4.146753450763018 6.544154457143895 0.0
7.413973555029582 5.545687501585183 0.0
8.466524978378082 4.980481756569235 0.0
7.336312153537934 2.337983522449311 0.0
7.695505222753409 3.747498713679684 0.0
4.898236813123799 4.795853653580084 0.0
4.59779105899602 1.896916774247134 0.0
8.560170375862322 7.072369101894893 0.0
8.386150468360862 2.449771437140704 0.0
8.41200018115259 5.084601315536367 0.0
5.102189912301071 7.621598618277815 0.0
8.336320418935243 6.71651223072348 0.0
5.081745734883095 3.977838926197614 0.0
7.63590698378166 0.9500570055008507 0.0
7.743369677149255 3.051233984704873 0.0
5.357527459690566 0.3809996753407537 0.0
5.967373112873382 0.7731113464301924 0.0
8.169449265206127 6.666271947462212 0.0
5.95122726745053 5.55758205410881 0.0
9.922289489207834 3.53923011719877 0.0
9.39154684476555 2.659037023454942 0.0
7.701415639167884 7.690060291860976 0.0
9.819179654793023 1.329863870021845 0.0
8.358229579054417 6.506108206863729 0.0
9.269720555169467 5.657096143475924 0.0
4.473187658045934 7.435037860084884 0.0
9.65807158077373 3.255496360750368 0.0
9.605155446454205 8.713645566904637 0.0
7.097383547728313 5.141197376985936 0.0
9.812212483832656 1.89920712759492 0.0
9.83875570675407 6.81603549325055 0.0
8.926246869879279 2.079976511571457 0.0
9.166785856141402 9.169070814302419 0.0
8.763479010228052 1.587152667342957 0.0
5.957377924852992 6.404530806530254 0.0
7.14506854375872 6.10342416684208 0.0
5.672595070581394 5.164323323112049 0.0
4.899782787268781 0.3801727265981219 0.0
4.447133848117348 4.673614099606824 0.0
7.044865074789195 3.253639989243549 0.0
9.818461337102992 7.819456450952447 0.0
9.925334577033155 7.954012377173311 0.0
6.352907898232792 1.173665225954276 0.0
7.351721385581032 5.660361289755705 0.0
9.337367583861807 2.76534436379692 0.0
8.693118347802024 4.360254099729149 0.0
9.476812970101324 0.3524826622168163 0.0
7.109868985890334 0.9024224571333925 0.0
7.899106846231403 5.511805431542581 0.0
8.352799544476607 5.187887629361129 0.0
6.957483547582747 0.6176251309213842 0.0
8.099559500483094 1.412323841044818 0.0
9.913030944540278 0.8542404645334569 0.0
9.143075088381442 8.022165366829135 0.0
8.819861450593166 6.356592599428041 0.0
9.319444417409162 1.49938505915629 0.0
6.490262520326714 7.118204362551877 0.0
6.490874470087819 6.582907761235813 0.0
9.82506653058937 0.6146757679104559 0.0
6.803129818897624 4.419048038171804 0.0
9.840901379354312 0.08198751964190581 0.0
9.839740374244226 9.918356239418472 0.0
8.551927134544655 9.449788917425456 0.0
9.92097857388158 3.249999999993177 0.0
5.797087413057367 7.077351493358238 0.0
9.255412859987286 6.433984412022419 0.0
8.668174522249984 1.740767926084485 0.0
9.920991430240607 6.25262219124529 0.0
7.57275248448898 1.94367954756322 0.0
8.052865444445507 8.19900054463639 0.0
8.748697149245206 4.25201068974208 0.0
9.158270227735827 0.5542256343091421 0.0
5.997487767477439 4.787924707603557 0.0
6.119759900601896 4.78043793682227 0.0
4.353034750397793 8.619182743639561 0.0
8.721093521611476 5.588932824583312 0.0
5.717101151444983 1.123034066822819 0.0
9.825602081347064 8.68753399402474 0.0
8.005502510832988 8.7824052910506 0.0
5.548184234622668 6.408009287230429 0.0
5.77830300433981 6.598697187164234 0.0
9.613093825495433 4.50282172481406 0.0
9.928981132641653 9.74928475696928 0.0
6.613628176297015 4.515513362596662 0.0
1.822126723816303 1.297795131355289 0.0
9.514164594137375 1.43081427463862 0.0
4.735494753432723 3.698541604583975 0.0
9.52844959749262 8.615213629960298 0.0
4.660704511759056 0.7947595073298008 0.0
6.82340845160293 5.239926830264399 0.0
7.885938077030673 7.380147032865134 0.0
7.884599891021201 6.09005968568029 0.0
8.846834820720167 9.653276456345532 0.0
8.457777199486827 0.3851010632068662 0.0
6.66485224572131 8.771510767670392 0.0
9.091499342133352 9.708315832477556 0.0
9.824286725109655 4.976315293637262 0.0
7.848197684391786 5.632217046637356 0.0
3.88430598115417 4.225391362015386 0.0
8.776890759183289 2.809688928468134 0.0
7.393884285023409 3.59397875231041 0.0
6.927568893329758 4.396788356869783 0.0
4.96854327720728 2.662368428358774 0.0
9.1480130720193 3.951479613991279 0.0
7.071049729490975 2.38092990636632 0.0
3.40193058782919 1.686321186206593 0.0
7.612042194200681 4.815904436723407 0.0
9.043395868401339 6.888481825015849 0.0
9.098933057562759 8.152197681006806 0.0
6.058682303253315 3.857501492181965 0.0
3.707092669281355 2.986685502034343 0.0
5.113272509841263 5.189455016444592 0.0
6.960565857079232 3.416349532571279 0.0
8.755151527375476 7.649255597361291 0.0
3.393680865444538 3.679982303262531 0.0
3.117424600120088 3.35605258976247 0.0
8.530814041264104 5.488376426140491 0.0
4.820719767306654 5.106646490188182 0.0
9.918899263509473 4.144927088739744 0.0
9.918194630017027 7.447268230913605 0.0
8.461970084137805 3.144844565847669 0.0
9.924415919486059 6.949999999995354 0.0
7.184050152099684 2.72771667662237 0.0
8.834356715215904 7.801565642745232 0.0
8.689015446783005 4.145232831954543 0.0
8.490778532265319 8.234414357968106 0.0
8.63666290918932 2.83060276219705 0.0
4.61028976098935 4.741894230894578 0.0
6.314735925012879 4.003132559161639 0.0
9.20786580425652 4.67001723737971 0.0
7.141401229301469 4.873205425098625 0.0
6.235177809922153 4.774126344778935 0.0
9.12491895896937 3.145675090615719 0.0
9.255747684068178 3.162525801823036 0.0
8.312852272796098 2.290855459722148 0.0
1.449266720542303 3.363629101350872 0.0
9.525687840398492 4.800807314407045 0.0
4.829905263804087 8.14474456977717 0.0
9.09338914689732 7.563794106183232 0.0
5.389401689694107 5.283808684471545 0.0
8.530979415204587 3.029374286908943 0.0
7.901489077080633 6.535344047486632 0.0
9.218572924671975 5.760893551533255 0.0
8.562382833959296 4.143913974026883 0.0
8.62959127904665 8.974877485888243 0.0
9.408442441596518 9.62276529745719 0.0
7.5034765601713 3.869833107932387 0.0
9.842813436634783 6.600620949014236 0.0
9.826116984327193 8.911617279149695 0.0
7.529907780698261 0.7369111006685982 0.0
7.832164962480427 2.905293639437395 0.0
8.39517908433056 3.267417602291069 0.0
9.823014010107707 9.085319632577246 0.0
9.022314123618541 3.944559746338292 0.0
4.243701230676532 5.332574856090426 0.0
9.816740542566388 1.127839952679595 0.0
8.166775715766304 5.693916696568397 0.0
8.865374421689054 8.068986769641638 0.0
8.761145809863661 6.470583506581853 0.0
8.998345275919851 9.209303502026401 0.0
9.698477487436316 6.706902829754045 0.0
6.439032098063426 0.3109134377713525 0.0
7.562681994382136 4.643158005207056 0.0
9.03999088074715 0.2799354672273258 0.0
5.180741540467516 3.805018725608906 0.0
6.243990330956698 2.718077286244967 0.0
9.79416634023361 0.1815240178579244 0.0
9.926540005061975 2.847049370876555 0.0
9.826476210374608 2.670192168078066 0.0
6.365816673179121 4.536333049275508 0.0
5.546353765219417 4.618331215552614 0.0
9.820703096450293 2.000649418331399 0.0
6.884388790679166 3.561583980715254 0.0
7.431303395649604 5.747824222777201 0.0
8.849816832721245 2.19318290395604 0.0
4.185147517585975 5.697469360586313 0.0
9.165905238119013 5.873664931582344 0.0
7.70479478158537 1.788324620089049 0.0
9.627376046933474 0.9196091445437269 0.0
6.657687963328663 5.144792385996769 0.0
9.83245016645186 0.3925568446109945 0.0
7.483092985762584 9.253837199159435 0.0
5.445348362202234 3.977855663863651 0.0
7.476680532833337 4.837183287808616 0.0
9.572749890969304 8.505160319814301 0.0
9.915853314998252 9.437014513917465 0.0
7.679469018350979 7.390484878021194 0.0
9.418139053434402 4.790576000488359 0.0
8.096967733471567 5.865447162201908 0.0
9.829153508938724 8.378494945652118 0.0
9.926595955569645 5.157718300415699 0.0
8.774484245600224 7.939747459426853 0.0
8.629764448155779 6.481031318922794 0.0
8.961169458302376 3.839036702328818 0.0
4.617199205561317 5.256318959792646 0.0
8.480815774219478 4.031210317621497 0.0
9.708341592512763 3.401018043990571 0.0
7.183974816647467 4.77882314543966 0.0
9.821437962294304 7.659391965474772 0.0
8.150320284869602 2.286501016204562 0.0
9.828114434347311 1.684891358832554 0.0
5.349187766238684 6.538177907133678 0.0
8.076053471314525 2.76180604769483 0.0
4.907713691134565 5.29818629967416 0.0
0.6874399366049438 4.328593906714074 0.0
0.6980011780697519 5.702671170050627 0.0
8.263861466707834 8.182284285231713 0.0
5.838783785156478 4.913981390426639 0.0
7.807619472656604 7.235706382002089 0.0
9.388504256318683 6.022122644748753 0.0
9.929839894767033 6.436189192303577 0.0
8.3205848711706 3.39107920408397 0.0
3.240770542267401 4.019899919523968 0.0
8.059047070496568 2.468855909103855 0.0
9.932479519490421 2.449625056415224 0.0
7.737639000139152 4.580708137963557 0.0
8.26141077223695 0.3940397126348397 0.0
9.69568953371801 1.959951226402445 0.0
6.469120930453264 4.892267070266994 0.0
9.167223997255698 0.8102256463122337 0.0
6.236889648241256 0.9291076084031108 0.0
8.306379082772498 5.268830342852036 0.0
6.716089118890225 5.239344620507032 0.0
9.82511981852641 9.282822358664017 0.0
6.68375719572285 4.404998642130821 0.0
8.913754712375674 6.908138360584365 0.0
6.173250048857013 5.251634416326969 0.0
4.235907497612446 1.924052997345291 0.0
5.151007663981651 2.438629730660893 0.0
8.924254300637541 9.3764975797567 0.0
4.438612423541503 5.287968640901957 0.0
8.571203234299599 1.897009944569934 0.0
6.878800676380218 5.821332862798138 0.0
5.710626178601224 4.792560699857408 0.0
7.149510071621283 5.216310009157644 0.0
2.099966541549645 2.334742113488256 0.0
9.93396330620579 5.350566393301629 0.0
7.143046479323961 8.646955109387985 0.0
7.965747313080266 5.193641450105844 0.0
6.3314394693073 5.135050228240639 0.0
7.665821333021348 6.222698255001823 0.0
6.305321657053551 4.659816230868476 0.0
7.833020917089713 5.208837056143474 0.0
9.41455902676429 2.869725681199307 0.0
8.567151507735133 6.598605357295113 0.0
7.405527786978573 4.377085529441429 0.0
6.552969697053132 5.137148974085434 0.0
9.93630620742063 8.042778076596578 0.0
7.166743296019233 4.593171678848165 0.0
6.595561806063966 5.839366735225723 0.0
6.066152182102007 5.262519562574559 0.0
9.834694151277489 0.9093455747994099 0.0
8.98259191950674 7.579732466796592 0.0
6.465071238839505 5.25485771955322 0.0
9.759759896588413 3.236659507608532 0.0
4.775529448101694 5.224235675150505 0.0
9.935991245222917 7.153416415978829 0.0
0.6530736820718381 9.352299998916202 0.0
0.6449439415299687 0.6468300344151556 0.0
7.804690364869245 4.495816547678174 0.0
9.84503784553893 5.70620404704573 0.0
9.83525329400959 3.826992990746767 0.0
9.922964894244684 4.265000406933376 0.0
8.333767638401964 1.121219971446645 0.0
8.876012546033895 7.019147158538482 0.0
8.172413577824324 3.413096916572049 0.0
7.232233017296214 4.478957103028363 0.0
6.214597295185415 3.852860083673202 0.0
9.85013791746415 4.400709747289421 0.0
3.941627380932058 6.342995010255737 0.0
3.097271569675528 8.77391871286929 0.0
9.292917152323044 6.010976049411984 0.0
8.104342196673183 5.184165973282902 0.0
8.994300084006271 3.652611812846807 0.0
9.937157897030163 5.549999999993244 0.0
8.721368888525245 7.274540720770752 0.0
8.920003648712827 0.9516585309368178 0.0
7.910527456030004 8.536826514867816 0.0
9.846441288756814 4.60515911863952 0.0
9.584942233925151 4.712073182517884 0.0
9.642357858573972 6.805672051759494 0.0
9.797024725252207 9.838837222258014 0.0
9.842451438022124 4.018973836958878 0.0
6.112723137676118 3.704473949316424 0.0
7.574641969193845 3.765362276156904 0.0
7.826594968121701 6.200366572362263 0.0
7.762805366733504 9.34009502796868 0.0
9.56854033867856 1.012566255816665 0.0
7.71256563655353 5.219373702836014 0.0
9.68039392238282 8.786964504862018 0.0
5.910362452777086 9.277662068919813 0.0
7.418090653922814 3.326443419100716 0.0
9.857704179097952 4.697553149694669 0.0
8.452469674653342 8.996585816905599 0.0
9.522351366699843 2.057525484575908 0.0
7.802315574700843 9.548878971475935 0.0
9.938875656926385 3.449999999992592 0.0
8.425189037911712 6.608575180629274 0.0
5.925965231566842 2.523669697740033 0.0
6.654918072256329 5.95749128982984 0.0
9.826748589235729 9.631118448471485 0.0
8.6684585637523 7.39633999085442 0.0
9.844673843931567 3.090088625379724 0.0
9.93613850661301 2.250382721159617 0.0
9.218291993658738 2.892108990205171 0.0
9.83502846611296 8.212781989607324 0.0
7.754136409732265 7.104288507262783 0.0
8.510570542791681 2.036933285735889 0.0
7.757745059307245 4.315798612475442 0.0
7.989231770559189 6.201656630465583 0.0
8.068934521422738 4.198631572122605 0.0
4.957478134450373 9.038766150325067 0.0
7.208661142641733 6.501402463831379 0.0
7.299506095906239 4.363561999234681 0.0
8.250303873550486 2.105322217421675 0.0
8.678637541413377 7.053471135702286 0.0
9.761528395137384 6.163503990672834 0.0
9.84494857233395 8.59999999999775 0.0
9.83825138794677 3.672838954969637 0.0
5.121008544047756 5.808127183024784 0.0
8.343911550360986 4.043535893276861 0.0
9.85324441775315 5.899999999993774 0.0
9.51114465213134 8.41035540646284 0.0
6.505812179224195 6.93390566262983 0.0
6.15572847138365 9.023097246950844 0.0
3.352081892333425 3.024853379890529 0.0
6.433163283162099 8.675072413910678 0.0
8.825744236698243 3.624446391299867 0.0
4.883007294861279 7.819620905924936 0.0
5.876659170760434 5.638247433601083 0.0
6.859400040348503 6.510797998354633 0.0
7.946400945409184 3.500317276373196 0.0
7.496830255505493 6.653194511698024 0.0
9.852183479755313 4.891525833556942 0.0
9.77998778436291 2.922486526124376 0.0
6.774672660492365 5.324728659740495 0.0
5.717254072187427 6.824125962512845 0.0
9.713440940838062 4.63793103997539 0.0
8.859858662536796 0.2721395536350836 0.0
8.37556017530946 9.436653414116012 0.0
7.395237381047616 7.885576562773319 0.0
5.4709157802033 4.511152089197594 0.0
9.489749416979361 9.691840729914848 0.0
4.599216022837964 3.46438688931078 0.0
5.572287492757569 4.807021644849729 0.0
9.926499336309957 9.92730688390086 0.0
9.926499336310107 0.07269311609890093 0.0
9.338127766332573 0.3585313952168247 0.0
6.810761948165162 3.414693294319008 0.0
8.166274345037138 5.943611545564389 0.0
5.2892644736731 6.301081312912763 0.0
9.731911074791544 7.649313380659622 0.0
8.90251102352767 9.50983415326544 0.0
8.997881406541017 1.033666784655452 0.0
5.835124768755703 2.738139962594905 0.0
9.665357480775825 6.185331297099201 0.0
7.656532192558493 8.217157287499347 0.0
9.170463887605525 2.975444721032631 0.0
4.208158615905443 0.8648302238584886 0.0
6.97015686031129 5.933674629077266 0.0
6.181941366523793 3.565885175921835 0.0
3.30313590337911 6.393402837735046 0.0
6.447482061767014 4.816169316820496 0.0
8.185341428749446 4.169172087371246 0.0
4.552595724340015 8.298301336212145 0.0
9.84850676569699 8.999999999998423 0.0
9.846941514449377 7.393642828194986 0.0
7.924592433490734 2.788309934035703 0.0
8.154308714226714 8.853640122009672 0.0
8.876629743004642 1.96110242719995 0.0
7.228849192966834 8.90811350348676 0.0
9.852301635085423 8.296637825215246 0.0
5.219795195341889 5.547413133147649 0.0
9.861497117995457 6.901363010201344 0.0
2.953911258021604 6.136007283255669 0.0
6.93158841067062 4.77708273647784 0.0
9.67540418457871 2.912802891506324 0.0
4.194055958522277 4.437353127730132 0.0
6.133959559341536 0.406856611599261 0.0
8.29952795189331 9.309744645643846 0.0
9.843692337952948 1.209647690818311 0.0
5.164986286280336 6.671544079402435 0.0
9.838533350075606 2.081705440779448 0.0
8.301244777513975 6.604088853319459 0.0
5.471494771710784 2.714598185146428 0.0
8.86534684892311 1.208599471795828 0.0
9.940610684232212 1.451558535868664 0.0
9.40896208432968 1.428353940655538 0.0
2.329177605337097 4.238803555614174 0.0
5.980761651517799 7.182207186682233 0.0
9.66541573964336 0.1719254072074424 0.0
7.220979380229172 7.806128737674462 0.0
1.251721227904697 6.151932667911503 0.0
8.104967286191181 6.057912607875576 0.0
6.650768762224724 4.817922869198292 0.0
6.634976350437587 3.213339182992986 0.0
7.034320437500567 4.898219100342838 0.0
9.502772020064167 6.283064492634301 0.0
8.13187938667684 3.518506862055515 0.0
9.855471943454193 2.599999999994991 0.0
9.056747742708522 8.263936599935574 0.0
4.352645795441222 5.724453640019 0.0
3.744263984699181 1.488951698361357 0.0
5.175860134287045 3.6375726667098 0.0
7.736434712114619 6.400417475661193 0.0
9.857658576695343 6.316607183405179 0.0
7.876525261950537 4.304285002335559 0.0
9.856114384785611 7.914602773442983 0.0
9.848334119947063 0.7059644476295188 0.0
9.59694321995579 6.895814046141667 0.0
5.906465212962551 3.869023950643881 0.0
9.840676994268005 9.364956386459765 0.0
5.355015287544095 3.83518170601625 0.0
6.374090407153147 5.855743754257685 0.0
8.227401290513832 5.297819733684674 0.0
5.451235131977493 4.825706629991923 0.0
6.022070213762754 5.355923882747634 0.0
9.845674433677614 6.108401449483281 0.0
9.835067400944396 7.739582406783081 0.0
8.602026805792988 2.941372356914139 0.0
5.059869081004962 5.269480960018243 0.0
5.284714507903736 5.26496663762182 0.0
9.627110479149561 7.660076105040499 0.0
6.820001127809743 4.792514421153957 0.0
5.120512795059439 4.806607659110254 0.0
9.56933817216883 2.911464407429096 0.0
9.74091654291531 9.267545397628387 0.0
9.93006767325302 6.576784040838644 0.0
9.642486276936268 4.650227701598451 0.0
5.185183328569137 9.410919109238325 0.0
9.37052946854105 4.605636695802024 0.0
1.677077220416309 5.871167715901136 0.0
7.345783833404538 3.184020711886284 0.0
5.419239942654976 5.982692039856376 0.0
6.133318300188262 2.551919945731369 0.0
6.187291396343277 4.499077117404439 0.0
1.231465237822878 3.921479198315213 0.0
8.969849937139944 9.699215363213542 0.0
9.218303154263054 6.037447959776716 0.0
CELLS 4886 19544
3 1113 1356 1450
3 1402 231 1659
3 272 269 1414
3 396 394 1777
3 1451 945 1452
3 194 81 1801
3 1847 1501 2104
3 2024 2121 2479
3 1115 1113 1450
3 1124 1413 1844
3 1061 1955 2409
3 307 305 1645
3 1592 1369 1593
3 238 1501 1847
3 1955 1883 2409
3 1808 243 1910
3 1885 978 2362
3 1440 793 2092
3 189 1488 1608
3 353 350 1864
3 2007 2231 2232
3 307 1645 2493
3 1096 1760 2496
3 2178 874 2179
3 621 625 1595
3 1493 1480 1938
3 1655 1268 2137
3 1341 1410 2212
3 243 1808 2360
3 1902 1446 2516
3 1760 1096 1763
3 856 790 2180
3 2008 2046 2105
3 789 1809 2067
3 694 1543 1575
3 1127 1762 1953
3 1748 807 2228
3 1543 1308 1575
3 820 1872 2170
3 1417 954 1998
3 1369 1592 2386
3 272 1414 1787
3 329 333 1998
3 1544 1095 1545
3 2231 1490 2232
3 1342 1683 1790
3 374 377 1797
3 807 1678 2228
3 1665 198 2128
3 141 142 1620
3 325 322 1952
3 231 1402 1654
3 198 1665 2010
3 1890 1307 2387
3 208 1438 1619
3 2016 1970 2156
3 1436 212 2020
3 954 1417 2333
3 1736 1894 2244
3 1491 1750 2143
3 1677 1064 2146
3 1474 1258 1475
3 1500 233 1930
3 1446 2415 2516
3 1700 973 1800
3 2128 2270 2316
3 1316 1315 1593
3 1307 2341 2387
3 2258 1324 2328
3 1083 1507 1508
3 693 1095 1544
3 621 1595 1596
3 667 1571 1872
3 1932 1766 2061
3 393 391 2240
3 1342 1790 2400
3 252 1707 2234
3 931 978 1885
3 1430 1116 1704
3 1411 1109 1714
3 1478 1227 2440
3 1990 195 2297
3 1792 1167 1985
3 1682 444 1975
3 394 397 1777
3 1711 2028 2162
3 1574 856 2180
3 2008 1851 2046
3 736 1493 1938
3 1069 1060 1662
3 1458 455 1754
3 862 691 1705
3 1161 1642 2286
3 1699 1700 1800
3 447 516 1637
3 955 1482 1483
3 2024 206 2121
3 391 1773 2240
3 1072 1412 1893
3 212 1436 2350
3 1566 1365 1568
3 259 1441 1672
3 872 870 1764
3 330 328 1889
3 1539 1161 2286
3 1897 1898 2275
3 1434 1990 2297
3 1109 1411 1730
3 319 307 2493
3 1762 1761 1953
3 1369 1316 1593
3 1540 834 1832
3 1505 652 2442
3 1732 1655 2137
3 921 1712 2295
3 1872 1388 2170
3 1712 921 2125
3 2028 244 2162
3 1506 1570 1680
3 1569 368 1964
3 1571 667 2375
3 1587 2178 2179
3 196 1723 1737
3 524 2016 2156
3 1528 1250 1733
3 1115 1450 1973
3 1938 1480 1971
3 1809 1396 2067
3 1641 249 2299
3 1223 1258 1474
3 1365 1566 2120
3 1981 962 2316
3 1538 353 1864
3 455 1458 1756
3 152 233 1500
3 1116 1430 1703
3 817 652 1505
3 1347 2003 2004
3 1607 1958 2085
3 194 1801 2195
3 1410 1341 2351
3 223 1415 1710
3 197 1511 2346
3 2198 787 2225
3 81 82 1801
3 1438 208 1620
3 1444 522 1823
3 1511 197 1950
3 726 718 1567
3 1637 516 1739
3 1708 2337 2341
3 1280 1649 2124
3 2337 1395 2341
3 1327 1709 2315
3 1225 1227 1478
3 691 624 1705
3 476 2224 2305
3 830 832 2204
3 1750 1491 2403
3 1366 1897 2275
3 2345 1583 2352
3 2054 405 2110
3 1984 2172 2230
3 1846 2198 2225
3 1177 2042 2418
3 2121 1367 2479
3 1527 1531 1541
3 916 1039 1834
3 1413 1124 2467
3 1622 1503 1868
3 249 1641 2019
3 1805 405 2054
3 1761 1007 1953
3 1415 223 2395
3 960 1756 2203
3 368 1569 2135
3 1402 1659 2473
3 941 1433 2471
3 1267 1477 1501
3 260 2002 2265
3 1704 558 2077
3 2224 1886 2305
3 2053 1386 2199
3 1452 945 1952
3 1717 1611 1718
3 1682 1975 2230
3 1760 1762 2496
3 1481 203 2104
3 1264 1266 1670
3 142 236 1620
3 2133 1182 2179
3 1791 1602 2183
3 350 346 1864
3 1412 1072 2393
3 1281 1575 2255
3 1565 1948 2155
3 849 1449 1513
3 1958 396 2085
3 1339 1069 1662
3 834 1540 1917
3 269 267 1414
3 1268 1267 1501
3 1440 2092 2468
3 1399 1981 2316
3 1635 1636 2041
3 1454 252 2234
3 1451 1305 1890
3 1375 1883 1955
3 362 366 1786
3 1484 2410 2528
3 1449 849 1640
3 1267 1474 1477
3 200 1611 1717
3 1054 1581 1582
3 1350 1977 2253
3 190 1390 2118
3 788 1956 2193
3 1709 1327 1888
3 2233 2298 2413
3 1488 189 2355
3 478 1685 1714
3 230 1525 1690
3 1687 478 1688
3 427 429 1756
3 1570 1065 2476
3 1880 1133 1988
3 1649 656 2124
3 1537 209 1614
3 1134 1769 1986
3 1220 1268 1655
3 396 1777 2085
3 1167 1755 1985
3 2229 1744 2296
3 1575 1281 2287
3 127 240 1882
3 377 647 1797
3 954 329 1998
3 220 1697 1698
3 1342 1341 2212
3 1441 264 1672
3 1512 188 2433
3 763 2345 2352
3 1685 1411 1714
3 1805 1188 1951
3 1347 2004 2157
3 1054 1582 1667
3 1333 1617 1674
3 2217 73 2361
3 1539 1036 1917
3 1039 1292 1834
3 208 141 1620
3 1965 1964 2038
3 693 1544 1969
3 1453 239 2279
3 203 1481 2049
3 945 1451 1889
3 680 1459 2134
3 354 2147 2196
3 1405 1932 2061
3 1723 1722 1737
3 1748 1175 1927
3 1532 1528 1733
3 2057 1824 2154
3 1406 1659 1702
3 1948 1186 2155
3 210 1598 2114
3 1685 478 1687
3 1324 1325 2328
3 1526 1250 1527
3 165 166 1509
3 1493 736 2523
3 1526 1527 1541
3 1390 190 2417
3 522 1444 1998
3 1680 1570 1732
3 1017 1442 2525
3 374 1797 2430
3 1507 1083 2197
3 1756 960 2221
3 2270 1400 2316
3 2205 1452 2282
3 1074 1187 1888
3 2158 1245 2200
3 1442 1017 1684
3 864 1116 1703
3 1750 1751 2143
3 1456 516 1492
3 1677 2146 2149
3 2022 1339 2388
3 1602 258 2183
3 678 1594 1595
3 1245 1670 2200
3 972 830 2204
3 2143 983 2342
3 1268 1501 2226
3 1266 1461 1670
3 1487 222 2465
3 1382 2022 2388
3 58 59 1661
3 2147 1543 2196
3 1484 1485 2410
3 628 2053 2199
3 1906 1549 2259
3 364 362 1786
3 1339 2022 2247
3 1636 525 2041
3 625 678 1595
3 678 1593 1594
3 2212 1410 2222
3 1837 1865 2215
3 1699 1800 1801
3 866 864 1703
3 893 1472 1982
3 1735 1736 2244
3 1633 1255 1922
3 126 127 1882
3 681 867 1656
3 1351 1401 2363
3 11 228 1588
3 1127 1953 2454
3 265 266 267
3 1722 1122 1737
3 1389 1691 2069
3 1613 1610 1616
3 1227 1256 2440
3 429 455 1756
3 1535 1177 2418
3 322 324 1952
3 973 1700 1802
3 1964 368 2038
3 1176 1865 1866
3 1096 872 1764
3 1176 1866 1875
3 193 1839 1892
3 156 157 1441
3 615 617 1596
3 686 1520 2480
3 1409 2097 2305
3 2410 1151 2528
3 1427 2217 2361
3 440 1911 2314
3 1744 1743 2296
3 516 1456 1739
3 1939 589 2164
3 690 931 2150
3 1062 1579 1580
3 1054 1580 1581
3 955 1483 1716
3 1064 1677 2248
3 1956 1616 2193
3 1776 1893 2026
3 1398 1115 1973
3 2002 1453 2265
3 1541 1531 1542
3 216 2191 2536
3 1736 1326 1894
3 1065 994 1066
3 1598 2115 2175
3 2314 1911 2358
3 1433 941 2042
3 2115 1209 2175
3 717 1550 1551
3 188 1941 2433
3 267 1132 1414
3 771 1569 2064
3 1157 1545 1546
3 1231 1250 1526
3 1933 240 2181
3 222 1487 2025
3 1525 230 1765
3 1430 1704 2077
3 757 1744 2495
3 264 263 265
3 883 773 1917
3 739 2205 2282
3 1667 1582 2434
3 1744 757 2474
3 239 1453 2002
3 1441 259 2356
3 2005 1443 2012
3 254 1766 1932
3 1509 166 1679
3 1477 1475 1481
3 793 1440 2165
3 1385 1523 2377
3 1481 1475 2523
3 156 1441 2356
3 1066 1220 1655
3 945 325 1952
3 2094 2087 2134
3 1747 1175 1748
3 253 262 263
3 1327 1074 1888
3 718 715 1567
3 2046 1043 2105
3 240 1933 2399
3 1305 1307 1890
3 224 58 1661
3 1195 1566 2285
3 1590 1393 1749
3 1255 1230 1922
3 353 1538 2073
3 358 1999 2325
3 882 1802 2036
3 1024 1020 1604
3 333 522 1998
3 1401 1351 2414
3 1475 1258 1476
3 2310 786 2364
3 328 945 1889
3 807 1748 1927
3 825 724 1912
3 1742 263 2491
3 267 266 1132
3 2077 2102 2203
3 1431 1432 1860
3 1212 1957 2312
3 2097 476 2305
3 1132 1402 2473
3 717 713 1550
3 1746 693 1969
3 1372 1124 1844
3 1256 1541 2269
3 1977 1350 2274
3 2332 1978 2443
3 874 2133 2179
3 1983 1534 2171
3 1157 1544 1545
3 1230 1228 1922
3 1580 1579 1581
3 1565 806 1948
3 1416 1363 2413
3 1287 1995 2398
3 265 263 266
3 1534 1529 2171
3 1604 1834 2428
3 1255 1633 2509
3 1344 1643 1644
3 1332 1388 1571
3 1423 217 2217
3 2191 1057 2451
3 458 447 1637
3 1250 1233 1733
3 472 2212 2222
3 1175 1747 1840
3 1652 256 1653
3 1073 1347 1572
3 200 145 1609
3 683 640 1585
3 1116 862 1705
3 1221 1223 1474
3 1778 801 1803
3 1503 1622 2471
3 1475 1493 2523
3 464 680 2134
3 14 210 2114
3 579 1880 1988
3 1434 1435 1990
3 1447 2310 2364
3 275 274 276
3 2294 1871 2419
3 814 1068 1684
3 1172 1439 2273
3 273 272 274
3 1363 1416 2406
3 1220 1219 1221
3 1060 1656 1662
3 1099 1792 1985
3 2048 1198 2168
3 1241 1245 2323
3 699 723 1753
3 1640 1862 2070
3 910 1018 1584
3 1586 1067 1587
3 1656 867 1662
3 1067 686 2480
3 654 2242 2294
3 1593 1315 1594
3 1880 553 1974
3 236 1717 1718
3 617 621 1596
3 1723 196 2313
3 402 1877 2116
3 273 274 275
3 2202 1869 2252
3 1510 1358 1767
3 193 1892 2373
3 1188 1805 2054
3 1220 1221 1267
3 1066 1218 1219
3 1517 1097 1518
3 1677 1676 1858
3 686 277 1520
3 268 267 269
3 697 857 1592
3 220 1698 1699
3 1802 1700 2036
3 1612 1537 1614
3 929 817 994
3 228 12 2136
3 2110 2116 2482
3 1659 1658 1702
3 1611 1613 2280
3 1344 991 1643
3 683 1585 1604
3 1638 1358 2404
3 1485 1034 2410
3 2214 833 2424
3 271 272 273
3 1482 955 1962
3 1066 1219 1220
3 931 1885 2150
3 1613 1891 2280
3 1189 1589 2204
3 1566 1195 2120
3 726 1567 2490
3 1122 1722 1874
3 1494 319 2493
3 1671 259 1672
3 1267 1221 1474
3 603 528 1591
3 1664 2128 2316
3 1817 1924 2174
3 1626 1660 2111
3 1474 1475 1477
3 1023 1062 1580
3 1957 1599 2312
3 1764 1939 2164
3 1358 1950 2404
3 200 1609 1610
3 1431 1082 1432
3 1778 1803 2521
3 1830 1832 2075
3 1930 233 2369
3 1329 1482 1650
3 757 1959 2522
3 1239 1247 1597
3 758 1978 2332
3 1569 1290 2064
3 216 1694 2191
3 1453 1420 2265
3 1549 1906 2129
3 24 215 1674
3 19 235 1676
3 1621 1057 2191
3 1691 1389 2262
3 1617 1333 2192
3 929 994 1065
3 1769 1672 1986
3 1893 1412 2026
3 1609 1537 1612
3 271 269 272
3 1373 1438 1620
3 217 1423 2381
3 517 330 1889
3 1322 1055 1667
3 1974 553 2499
3 228 2136 2187
3 1589 1189 1788
3 1999 1577 2325
3 2110 405 2116
3 189 1608 1842
3 1055 1050 1667
3 739 1455 2205
3 1865 1176 2215
3 319 1494 2522
3 2474 757 2522
3 1484 227 1485
3 10 11 1588
3 723 809 1753
3 27 230 1689
3 1550 806 1565
3 1179 1180 1217
3 207 1617 2192
3 1433 1217 1502
3 1562 1556 1606
3 1379 2017 2018
3 1245 2158 2323
3 675 1097 1517
3 884 501 1599
3 1020 683 1604
3 1603 1095 1848
3 1001 2057 2154
3 1604 1585 1834
3 1610 1612 1616
3 1764 870 1939
3 2242 1871 2294
3 1669 1264 1670
3 1658 213 1702
3 1995 1646 2398
3 631 539 1600
3 1491 2143 2342
3 1801 1800 2195
3 1200 1199 1693
3 1535 940 1861
3 1534 758 2332
3 914 2258 2328
3 1588 228 2457
3 216 138 1694
3 151 152 1500
3 1133 1880 1974
3 1677 1858 2248
3 1294 1622 1868
3 875 1010 1767
3 1379 2018 2416
3 1279 2202 2252
3 182 256 1652
3 1592 857 2386
3 672 681 1656
3 615 1596 1824
3 1093 1487 1623
3 1823 522 2100
3 1245 1242 1669
3 1582 1581 1583
3 758 1534 2306
3 1975 1984 2230
3 1358 1510 1950
3 1663 1336 1665
3 2102 960 2203
3 366 1087 1786
3 1740 1490 2231
3 21 207 1709
3 145 146 1609
3 2339 765 2384
3 603 1591 1668
3 2081 199 2149
3 1540 1832 1879
3 1721 1723 1947
3 1754 455 1793
3 1751 1753 2119
3 882 1701 1807
3 1540 1539 1917
3 242 1695 1697
3 1521 354 2091
3 1363 2233 2413
3 1584 1018 1925
3 703 1067 1586
3 1177 1178 1179
3 795 916 1834
3 277 276 607
3 1571 1388 1872
3 22 23 1617
3 1097 823 1177
3 25 26 1624
3 419 418 1790
3 1728 1906 2259
3 440 1455 2261
3 1877 1318 2116
3 1488 1156 1608
3 1439 2130 2273
3 1889 1451 1890
3 1614 209 2389
3 1472 893 2094
3 675 821 823
3 23 24 1674
3 1788 1190 2183
3 917 941 1622
3 1763 1096 1764
3 1068 1442 1684
3 1034 1485 2173
3 2172 1533 2230
3 138 139 1694
3 1065 1570 2197
3 607 674 675
3 1536 1248 2268
3 229 135 1734
3 1437 1925 1926
3 680 510 1646
3 147 209 1537
3 26 27 1689
3 1627 705 2163
3 206 1651 2121
3 2409 1785 2462
3 1492 682 2447
3 1223 1225 1258
3 889 1772 2374
3 253 263 264
3 275 276 277
3 1455 739 2261
3 2022 1382 2176
3 150 227 1484
3 639 1019 1591
3 1449 1640 2070
3 1082 833 2214
3 1503 1502 1504
3 144 200 1717
3 1643 991 1713
3 1190 1791 2183
3 1538 1804 2073
3 1256 2269 2440
3 18 19 1676
3 521 531 2000
3 790 849 2180
3 1075 1329 1650
3 1087 1782 1785
3 1066 994 1218
3 270 269 271
3 682 1492 2494
3 185 252 1454
3 253 158 262
3 1629 1632 1633
3 200 1610 1611
3 1477 1481 2104
3 1623 1487 2465
3 1518 1097 1535
3 1414 1132 2460
3 1179 1217 1433
3 177 1506 1680
3 1392 1017 2525
3 1832 834 2075
3 675 823 1097
3 1459 2094 2134
3 1782 1087 1795
3 1838 1730 2372
3 1639 149 2528
3 1617 23 1674
3 2265 1420 2489
3 180 232 1859
3 1527 1250 1528
3 20 21 1709
3 1083 1508 2311
3 903 866 1703
3 1455 440 2314
3 1187 1858 1888
3 1659 1406 2473
3 1446 1902 2166
3 421 1951 2106
3 1598 210 2115
3 154 259 1671
3 1288 1835 2080
3 1832 1831 1879
3 1258 1225 1478
3 1024 1604 2117
3 1263 1429 1739
3 706 705 1627
3 1583 1581 2352
3 407 1805 1951
3 856 1574 2527
3 1701 882 2036
3 1624 26 1689
3 717 1551 1552
3 1385 2377 2391
3 2302 1745 2354
3 1572 1347 2157
3 1036 883 1917
3 1689 1690 1691
3 1664 1665 2128
3 1476 1479 1480
3 1751 2119 2143
3 815 814 1684
3 1790 889 2400
3 1606 1607 2085
3 265 267 268
3 418 889 1790
3 1522 1521 2091
3 135 136 1734
3 1726 1445 1729
3 647 1796 1797
3 1346 1453 2279
3 1293 1827 2117
3 1242 1244 1669
3 1853 1852 1854
3 889 2374 2400
3 1039 1038 1290
3 1524 628 2199
3 1331 1332 1571
3 1291 1290 1569
3 1475 1476 1493
3 1850 1852 1853
3 1490 1740 2456
3 1689 230 1690
3 1256 1526 1541
3 1704 1705 2167
3 1465 1470 1675
3 956 1073 1572
3 1613 1616 1956
3 916 917 1038
3 2014 1522 2091
3 1221 1222 1223
3 1999 763 2352
3 234 10 1588
3 1697 220 2335
3 1527 1528 1529
3 2298 1600 2413
3 1436 2020 2254
3 1642 1161 1678
3 1523 1385 2436
3 1730 1838 2426
3 795 796 916
3 713 711 1550
3 1456 1263 1739
3 999 1336 1663
3 1785 1784 2462
3 409 415 1783
3 607 675 1517
3 1229 1231 1526
3 1958 1855 2078
3 1589 1588 1590
3 1933 261 2380
3 762 1965 2038
3 1756 1458 2203
3 1776 597 1893
3 1794 1072 1893
3 188 1512 2266
3 1774 2339 2384
3 188 1908 1941
3 1010 1510 1767
3 2189 2285 2307
3 773 834 1917
3 1245 1669 1670
3 1248 1597 2268
3 146 1537 1609
3 818 910 1584
3 1641 1313 1651
3 1217 1745 2302
3 1065 1066 1655
3 1597 1247 2047
3 1360 2177 2376
3 1612 1615 1616
3 2126 867 2186
3 1019 683 1020
3 1747 892 1840
3 1092 1093 1623
3 261 1933 2181
3 400 424 1666
3 1516 1903 2377
3 1100 1392 1605
3 247 1738 1881
3 268 1134 1986
3 1177 823 1178
3 884 1599 1957
3 263 262 2491
3 806 1627 1948
3 1227 1229 1256
3 191 1729 2504
3 1636 1635 2502
3 1480 1479 1601
3 1721 1947 2498
3 1924 1146 2174
3 229 1734 1735
3 175 204 1725
3 1179 1178 1180
3 354 1521 2147
3 665 697 1592
3 640 646 1585
3 627 545 1636
3 1882 240 2399
3 1556 1555 1606
3 1373 1620 2394
3 1871 1071 2419
3 548 1628 1629
3 455 436 1793
3 974 1831 1841
3 1844 1413 2392
3 1612 1614 1615
3 209 1639 1937
3 1329 1330 1331
3 1823 2100 2142
3 1097 1177 1535
3 1021 1020 1022
3 825 1912 2455
3 913 1122 1874
3 400 1666 2113
3 1256 1229 1526
3 1419 1418 2450
3 1552 1551 1553
3 1850 1099 1852
3 1629 1631 1632
3 801 685 2029
3 1618 1619 1621
3 265 268 1986
3 1715 2165 2330
3 1531 1529 1534
3 1022 1024 1576
3 658 693 1746
3 703 686 1067
3 1062 1576 1577
3 1023 1022 1062
3 236 1718 2394
3 1688 502 1740
3 1501 1477 2104
3 213 165 1509
3 646 795 1585
3 196 1737 1738
3 379 679 1795
3 639 640 683
3 924 875 1767
3 1752 699 1753
3 207 2192 2315
3 627 1636 1660
3 1217 1180 1745
3 730 728 1833
3 528 561 1591
3 1444 1417 1998
3 252 186 1602
3 1729 1445 2504
3 460 502 1688
3 1418 946 1778
3 1203 1200 1693
3 548 470 1628
3 849 668 1640
3 646 785 795
3 607 276 674
3 14 15 210
3 147 148 209
3 478 460 1688
3 1709 207 2315
3 1157 1546 1608
3 1155 1731 1899
3 1524 1934 2390
3 1775 921 1876
3 1433 1502 1503
3 470 458 1628
3 1223 1224 1225
3 1291 1569 1964
3 871 1056 1826
3 1781 1783 1915
3 1587 1067 2300
3 916 1038 1039
3 1388 1387 1389
3 1611 1610 1613
3 1075 1328 1329
3 1039 1290 1291
3 1538 1265 1804
3 1184 1185 2163
3 597 598 1794
3 1450 1356 2421
3 1835 576 2080
3 1629 1628 1631
3 1331 1330 1332
3 561 639 1591
3 1476 1480 1493
3 705 703 1586
3 639 683 1019
3 1951 1188 2106
3 436 446 1793
3 1472 1297 2142
3 1332 1387 1388
3 1345 984 1720
3 1329 1328 1330
3 1050 1048 1667
3 150 151 227
3 11 12 228
3 557 541 2256
3 1831 974 1879
3 134 229 1766
3 1357 1358 1638
3 1336 1641 2299
3 1650 1482 1962
3 1591 1019 2512
3 1506 1507 1570
3 1803 801 2029
3 1178 823 1972
3 1552 1553 1554
3 1290 1038 1294
3 1028 1313 1641
3 1237 1239 1597
3 993 1017 1100
3 893 2087 2094
3 149 1484 2528
3 1768 1142 1949
3 9 234 1673
3 1554 1553 1555
3 668 632 1640
3 711 806 1550
3 1628 458 1637
3 1098 1829 1830
3 1482 1331 1483
3 531 1818 2000
3 435 419 1790
3 1156 1157 1608
3 1182 1184 2179
3 510 512 1646
3 1231 1233 1250
3 946 841 1778
3 1483 1331 1571
3 1459 680 2458
3 1166 1040 1210
3 892 1657 1820
3 1042 1445 1726
3 1019 1020 1021
3 749 805 1810
3 234 1588 1589
3 1695 242 1892
3 556 1853 2483
3 1018 1572 1573
3 1529 1528 1530
3 1606 1558 1607
3 1761 1759 2308
3 1396 1032 1921
3 1018 956 1572
3 689 1150 1416
3 1827 1293 2515
3 149 150 1484
3 1647 656 1648
3 1543 694 2196
3 399 409 1783
3 545 525 1636
3 268 269 270
3 715 713 717
3 1100 1017 1392
3 1657 892 1747
3 207 22 1617
3 1666 884 2249
3 1671 1672 1769
3 1554 1555 1556
3 146 147 1537
3 1081 1444 1822
3 711 709 806
3 1443 2005 2322
3 660 658 1746
3 1166 1458 1754
3 916 796 917
3 1056 1728 1826
3 1068 1069 1275
3 184 185 1454
3 158 159 262
3 2007 1687 2231
3 805 1708 1810
3 1672 264 1986
3 1561 1562 1563
3 978 1075 1650
3 1590 1588 2457
3 215 25 1624
3 1551 1550 1565
3 1073 1346 1347
3 857 818 1584
3 1648 656 1649
3 675 674 821
3 561 594 639
3 1731 529 1899
3 2303 1454 2535
3 981 903 1040
3 1630 1629 1633
3 993 877 1017
3 724 718 726
3 512 603 1646
3 1676 235 1858
3 814 1060 1068
3 715 717 1567
3 1796 647 1870
3 1715 1171 2165
3 678 1592 1593
3 644 613 1824
3 1690 1525 2145
3 1297 1822 1823
3 271 656 1647
3 1704 1116 1705
3 1225 1226 1227
3 1275 1069 1338
3 910 956 1018
3 1824 1596 2154
3 1403 1100 1605
3 1221 1219 1222
3 1068 1060 1069
3 1901 245 1949
3 1081 1055 1321
3 1751 563 1752
3 1021 1022 1023
3 672 638 681
3 1095 657 1848
3 1235 1237 1248
3 1561 1556 1562
3 1265 1259 1804
3 524 1819 2016
3 978 1650 2362
3 1492 516 2494
3 229 1735 2061
3 185 186 252
3 157 158 253
3 152 153 233
3 9 10 234
3 1527 1529 1531
3 1808 1344 2360
3 1062 1577 1579
3 1509 1679 1977
3 424 454 1666
3 637 638 672
3 981 1040 1166
3 1555 1558 1606
3 751 749 1810
3 1166 1210 1458
3 1651 1313 2121
3 15 16 2260
3 1633 1632 2509
3 2167 1705 2276
3 551 602 2045
3 697 818 857
3 364 1786 1883
3 832 1189 2204
3 1476 1478 1479
3 678 665 1592
3 213 1509 2096
3 1015 888 1124
3 1062 1022 1576
3 679 1782 1795
3 680 1646 1995
3 1101 1100 1403
3 1109 433 1714
3 1248 1237 1597
3 733 730 1833
3 1702 213 2096
3 499 498 1828
3 1418 1778 2521
3 637 600 638
3 1048 1046 1054
3 1577 1576 1578
3 814 766 1060
3 1279 2252 2292
3 474 470 548
3 199 18 1676
3 157 253 1441
3 1048 1054 1667
3 471 472 2290
3 625 665 678
3 795 785 796
3 1264 1265 1266
3 1437 1926 2350
3 1362 2048 2168
3 1394 2337 2371
3 454 884 1666
3 1022 1020 1024
3 751 1810 1923
3 1046 1023 1580
3 1807 1701 1931
3 1618 208 1619
3 566 588 689
3 1828 498 1829
3 501 509 1599
3 1118 780 1775
3 878 817 929
3 1510 1511 1950
3 1618 1621 1694
3 1052 1081 1822
3 1416 1150 1715
3 1239 1241 1247
3 1396 1921 2067
3 1751 1752 1753
3 1264 1259 1265
3 539 566 1600
3 1762 1127 2496
3 1673 1788 2183
3 1555 1557 1558
3 1052 1050 1055
3 725 724 825
3 1142 1770 1771
3 681 853 867
3 454 501 884
3 1346 1420 1453
3 932 1147 1770
3 1546 1545 1547
3 533 582 1818
3 1266 1337 1460
3 1872 820 2318
3 1117 1119 1713
3 1081 1321 1417
3 1253 1259 1264
3 1569 771 2135
3 1052 1055 1081
3 1181 1178 1972
3 709 706 1627
3 1073 1076 1346
3 1098 1828 1829
3 1382 1380 2176
3 1442 1275 1443
3 919 999 1663
3 1789 828 1855
3 877 815 1684
3 509 539 631
3 992 877 993
3 1266 1265 1337
3 2268 1498 2340
3 1130 1032 1396
3 1095 1603 2508
3 886 826 887
3 531 533 1818
3 1131 1400 1881
3 447 437 516
3 2460 1132 2473
3 940 1535 2418
3 768 1873 2037
3 1813 1869 1954
3 1627 2163 2488
3 1497 1495 1645
3 1198 1409 2168
3 724 726 1912
3 1869 987 1954
3 763 1999 2338
3 1010 1170 1374
3 984 976 1720
3 1470 1743 1744
3 689 588 1150
3 1901 1949 2359
3 1640 632 1862
3 274 272 1787
3 563 564 1752
3 994 817 1505
3 737 1807 1931
3 1770 1147 1771
3 1233 1235 1733
3 2450 1418 2521
3 414 410 1821
3 908 1099 1850
3 1227 1228 1229
3 1692 1203 1693
3 1625 216 2194
3 512 528 603
3 1377 1357 1638
3 1465 1464 1470
3 1360 1359 2177
3 1686 2007 2095
3 1336 1028 1641
3 1857 751 1923
3 1758 572 1759
3 553 541 557
3 1171 1715 1811
3 956 1003 1073
3 1467 1465 1675
3 719 718 724
3 1509 1977 2096
3 1734 1625 1736
3 1503 1504 1868
3 592 597 1776
3 180 181 232
3 162 163 231
3 2308 1759 2370
3 1357 1114 1358
3 875 946 1010
3 509 631 1599
3 17 18 199
3 144 145 200
3 1099 906 1792
3 1469 1467 1494
3 605 589 1939
3 1208 1205 1211
3 354 344 2091
3 692 782 804
3 1010 946 1170
3 1463 1462 1464
3 716 715 718
3 714 713 715
3 271 273 656
3 139 1618 1694
3 549 277 686
3 673 672 766
3 1378 1377 1379
3 2007 868 2095
3 999 1028 1336
3 1208 1211 1447
3 601 545 627
3 1119 1643 1713
3 1332 1333 1387
3 910 912 956
3 520 521 2000
3 828 1789 1819
3 277 607 1520
3 1338 1339 2247
3 818 819 910
3 767 766 814
3 712 711 713
3 1494 1467 1675
3 639 594 640
3 2044 557 2256
3 235 20 1709
3 1620 236 2394
3 804 919 962
3 1862 702 2070
3 681 852 853
3 1559 1556 1561
3 1622 941 2471
3 2165 1440 2330
3 612 644 692
3 697 698 818
3 1903 1516 1994
3 371 379 1795
3 428 426 2138
3 1290 1294 2064
3 1384 1904 2432
3 566 689 1600
3 471 452 472
3 1092 1091 1093
3 1002 1131 1719
3 1090 1089 1091
3 875 841 946
3 1758 1760 1763
3 1562 1606 2085
3 1833 1830 2075
3 178 179 214
3 164 165 213
3 769 923 1815
3 692 644 782
3 804 782 919
3 182 183 256
3 160 161 257
3 1329 1331 1482
3 962 1663 1664
3 1177 1179 2042
3 403 405 1805
3 1461 1460 1462
3 140 208 1618
3 1859 232 1860
3 274 1787 2099
3 1381 2126 2186
3 1558 1560 1789
3 430 428 682
3 452 435 1683
3 1487 1156 1488
3 1470 1464 1743
3 597 1794 1893
3 1244 1253 1669
3 962 919 1663
3 258 8 1673
3 1087 1785 1786
3 970 1042 1726
3 199 1677 2149
3 1664 1663 1665
3 1229 1230 1231
3 991 827 1713
3 792 1603 1848
3 1822 1444 1823
3 665 666 697
3 19 20 235
3 142 143 236
3 728 1098 1833
3 532 530 1898
3 1015 1124 1372
3 1546 1547 1548
3 1851 1850 1853
3 1877 393 2240
3 923 1105 1815
3 1090 1091 1092
3 687 686 703
3 1683 435 1790
3 887 826 1961
3 684 663 1089
3 426 1934 2138
3 464 510 680
3 853 854 855
3 568 572 1758
3 1376 1357 1377
3 1205 1203 1692
3 1607 1789 1855
3 710 709 711
3 780 781 1775
3 1434 1103 1435
3 876 815 877
3 766 672 1656
3 1393 1590 2457
3 684 1089 1090
3 530 890 1898
3 926 1920 1943
3 696 414 1821
3 1563 1562 1777
3 1054 1046 1580
3 1398 1973 1974
3 137 216 1625
3 1210 1040 1430
3 1750 563 1751
3 2010 1665 2299
3 1510 1374 1511
3 1777 1562 2085
3 1707 252 1791
3 1932 1404 1933
3 459 438 1814
3 139 140 1618
3 1093 1156 1487
3 231 163 1658
3 699 722 723
3 1545 1095 2508
3 598 612 1794
3 579 554 1880
3 1941 1908 2401
3 1231 1232 1233
3 1831 1829 1841
3 1037 1383 1799
3 177 178 1506
3 636 600 637
3 1036 1539 2286
3 1356 1114 1357
3 1523 1516 2377
3 704 703 705
3 403 402 405
3 648 792 1848
3 723 756 808
3 1388 1389 2170
3 933 932 1770
3 223 1710 1711
3 1779 399 1783
3 1223 1222 1224
3 1028 1029 1313
3 257 161 1654
3 418 412 421
3 734 882 1807
3 693 657 1095
3 1368 1370 1436
3 136 137 1625
3 688 652 817
3 1075 1327 1328
3 540 479 1813
3 398 395 402
3 548 1629 1630
3 574 591 699
3 1469 1494 1495
3 1041 1598 2175
3 167 168 202
3 175 176 204
3 2045 2046 2201
3 186 187 1602
3 886 887 888
3 1253 1254 1259
3 8 9 1673
3 792 655 810
3 843 1145 1960
3 1180 1349 1745
3 1165 1345 1512
3 708 706 709
3 136 1625 1734
3 21 22 207
3 140 141 208
3 625 626 665
3 1093 1094 1156
3 1585 795 1834
3 1117 1713 1806
3 599 579 600
3 810 871 1826
3 1047 1046 1048
3 1292 1291 1293
3 161 162 1654
3 199 1676 1677
3 1260 1282 1804
3 1005 1142 1768
3 1233 1234 1235
3 792 810 922
3 1122 1719 1737
3 976 985 1720
3 1278 1279 2292
3 2390 1934 2531
3 1436 1437 2350
3 270 271 1647
3 1199 966 1846
3 1683 1342 2212
3 656 273 2124
3 699 591 722
3 1977 1139 2096
3 1738 1719 1881
3 1722 985 1874
3 1797 1448 1798
3 162 231 1654
3 632 604 1862
3 252 1602 1791
3 1051 1050 1052
3 1045 1023 1046
3 648 655 792
3 993 1100 1101
3 1321 1055 1322
3 806 709 1627
3 904 903 981
3 1220 1267 1268
3 648 605 655
3 1737 1719 1738
3 385 399 1779
3 506 499 1828
3 1132 266 1402
3 1170 1418 1419
3 1323 2302 2354
3 24 25 215
3 137 138 216
3 721 965 1919
3 1787 1414 2460
3 778 1117 1806
3 723 722 756
3 407 403 1805
3 564 574 1752
3 1049 1048 1050
3 842 841 875
3 1608 1546 1842
3 809 808 899
3 1517 1519 1520
3 1530 1532 1533
3 889 421 1772
3 913 1002 1122
3 1314 1316 1367
3 1017 877 1684
3 841 802 1778
3 1235 1236 1237
3 751 1857 1900
3 1114 924 1767
3 1344 1644 2360
3 1895 1394 2371
3 1518 1535 1861
3 1758 1759 1760
3 1122 1002 1719
3 546 563 1750
3 1056 1726 1727
3 663 660 1746
3 621 622 625
3 1720 985 1721
3 1857 1843 1900
3 808 756 913
3 1056 970 1726
3 27 28 230
3 134 135 229
3 908 906 1099
3 163 164 1658
3 1727 1726 1729
3 7 8 258
3 154 155 259
3 1101 1403 1404
3 808 913 1874
3 1260 1269 1282
3 1389 1387 2262
3 1297 1053 1822
3 1555 1553 1557
3 1463 1464 1465
3 230 28 1765
3 1237 1238 1239
3 554 553 1880
3 775 778 1806
3 985 899 1874
3 1270 1524 2199
3 489 1820 1936
3 692 1072 1794
3 1472 2142 2272
3 1845 496 1929
3 438 431 1814
3 613 615 1824
3 1241 1242 1245
3 1783 415 1915
3 1192 2081 2149
3 178 214 1506
3 1816 988 1817
3 1760 1759 1761
3 1103 1092 1623
3 1512 1345 1661
3 1876 921 2295
3 1165 984 1345
3 978 1074 1075
3 1239 1240 1241
3 542 541 553
3 813 988 1816
3 1148 984 1165
3 871 970 1056
3 472 452 1683
3 1207 1796 1870
3 1167 1166 1754
3 1296 1053 1297
3 966 964 1846
3 976 899 985
3 982 976 984
3 702 1815 2015
3 900 899 976
3 1143 995 1206
3 1576 1024 1827
3 1235 1248 1733
3 1558 1557 1560
3 943 995 1143
3 1920 1144 1943
3 1471 2115 2477
3 29 30 255
3 132 133 254
3 1630 1633 1634
3 1225 1224 1226
3 1925 1573 1926
3 1211 1205 1692
3 725 825 826
3 1113 924 1114
3 600 579 1988
3 717 1552 1567
3 1820 1657 1936
3 674 276 2099
3 395 393 1877
3 572 543 1897
3 1575 1308 2255
3 999 1000 1028
3 1118 1775 1876
3 1797 1798 2430
3 526 546 559
3 867 853 2186
3 1142 1771 1949
3 1068 1275 1442
3 679 385 1779
3 1607 1558 1789
3 580 568 1758
3 1244 1252 1253
3 1760 1761 1762
3 398 402 403
3 1476 1258 1478
3 418 421 889
3 1771 1147 1839
3 164 213 1658
3 1720 1721 2267
3 1668 1591 2512
3 1042 1128 1445
3 1098 1830 1833
3 1102 1092 1103
3 2249 884 2466
3 1104 1103 1434
3 410 416 1821
3 514 513 541
3 580 1758 1763
3 637 673 1741
3 1913 936 1914
3 1394 1395 2337
3 919 920 999
3 577 554 579
3 2111 1660 2263
3 231 1658 1659
3 612 613 644
3 568 543 572
3 770 775 1806
3 1445 1128 1446
3 1546 1548 1842
3 448 460 478
3 810 870 871
3 1789 1560 1819
3 1154 1082 1431
3 873 973 1802
3 379 385 679
3 837 850 921
3 1461 1462 1463
3 1346 1076 1420
3 1088 1344 1808
3 2125 1143 2353
3 931 977 978
3 882 772 1802
3 29 255 1765
3 849 1513 2180
3 1713 827 1806
3 1130 1396 1397
3 681 638 852
3 1417 1321 1873
3 1654 1402 2530
3 502 526 1740
3 1124 888 2177
3 1266 1460 1461
3 515 1175 1840
3 1253 1264 1669
3 479 466 1813
3 1727 1729 1757
3 379 380 385
3 1971 1480 2514
3 1637 1739 2459
3 1207 1205 1208
3 529 519 1899
3 1129 1845 1929
3 224 1661 2267
3 192 1856 2361
3 732 734 1807
3 1184 2163 2435
3 1119 1120 1353
3 415 414 431
3 719 724 725
3 559 546 1750
3 871 872 970
3 1038 917 1622
3 574 699 1752
3 166 167 1679
3 1117 1118 1119
3 1409 1196 2035
3 617 619 621
3 1172 1173 1439
3 1191 1005 1768
3 664 663 684
3 494 493 1841
3 890 529 1731
3 840 802 841
3 493 974 1841
3 385 386 399
3 679 1779 1780
3 371 376 379
3 416 433 1109
3 670 769 1815
3 902 866 903
3 1780 1779 1781
3 480 515 1840
3 970 971 1042
3 433 448 1714
3 28 29 1765
3 1005 949 1142
3 778 780 1117
3 959 1037 1799
3 1073 1003 1076
3 535 532 1898
3 1119 1118 1120
3 658 657 693
3 1378 1379 1380
3 1397 1396 1809
3 1610 1609 1612
3 1819 1560 2016
3 1837 952 1865
3 1719 1131 1881
3 1131 1399 1400
3 1352 1138 2058
3 399 406 409
3 548 1630 2041
3 1275 1338 2251
3 582 1816 1818
3 1835 1836 2144
3 993 1101 1980
3 1699 1698 1700
3 2407 364 2505
3 1189 1190 1788
3 1117 780 1118
3 1830 1829 1831
3 637 672 673
3 692 804 1072
3 1204 1203 1205
3 1374 1170 2139
3 612 692 1794
3 1642 1408 2286
3 723 808 809
3 450 459 1812
3 409 410 414
3 802 801 1778
3 1853 1854 2483
3 1042 1127 1128
3 1199 1846 2225
3 1147 990 1273
3 1383 1384 2432
3 432 431 438
3 1353 1120 1390
3 1093 1091 1094
3 2020 250 2254
3 148 149 1639
3 606 605 648
3 1970 2016 2422
3 2201 2046 2327
3 475 471 513
3 412 407 1951
3 1991 246 2139
3 727 695 728
3 1673 234 1788
3 1554 1556 1559
3 1089 663 1746
3 1846 964 2056
3 923 991 1088
3 409 406 410
3 729 728 730
3 1424 1427 1856
3 1473 1911 2407
3 1376 1377 1378
3 1010 1374 1510
3 853 852 854
3 366 369 1087
3 772 873 1802
3 1219 1218 1626
3 1766 229 2061
3 1088 991 1344
3 922 810 1826
3 518 506 695
3 405 402 2116
3 962 1664 2316
3 913 942 1002
3 932 990 1147
3 629 813 1816
3 876 877 992
3 399 386 406
3 932 845 990
3 1002 1123 1131
3 843 996 1145
3 781 837 1775
3 262 2304 2491
3 431 696 1814
3 1273 1695 1892
3 731 730 732
3 737 732 1807
3 439 438 450
3 1829 498 1841
3 800 685 801
3 767 814 815
3 1060 766 1656
3 673 766 767
3 1403 1605 1882
3 716 718 719
3 1338 1069 1339
3 847 752 1843
3 864 862 1116
3 2302 443 2519
3 923 827 991
3 526 559 1740
3 1911 1473 2358
3 1085 1310 1867
3 809 899 900
3 1227 1226 1228
3 729 730 731
3 1436 1370 1437
3 731 732 737
3 769 827 923
3 456 452 471
3 1433 1503 2471
3 1435 1103 1623
3 385 380 386
3 1141 1787 2460
3 1354 1088 1808
3 657 649 1848
3 415 431 432
3 484 892 1820
3 727 728 729
3 855 854 1450
3 1721 1722 1723
3 1643 1353 1644
3 1145 1916 1960
3 1421 1191 1422
3 466 1812 1813
3 943 944 995
3 1356 1357 1376
3 714 715 716
3 1156 1094 1157
3 598 611 612
3 631 1600 2298
3 590 589 605
3 965 969 1919
3 416 1109 1821
3 242 1697 2335
3 1548 1547 1549
3 550 573 584
3 584 604 632
3 409 414 415
3 712 713 714
3 642 670 702
3 818 698 819
3 1006 1005 1191
3 1624 1689 1691
3 169 170 237
3 173 174 238
3 956 912 1003
3 937 936 1913
3 1317 1025 1875
3 515 540 550
3 973 1799 1800
3 973 959 1799
3 518 695 727
3 910 819 912
3 584 573 604
3 1170 946 1418
3 173 238 1847
3 550 540 573
3 982 984 1148
3 900 976 982
3 441 435 452
3 448 478 1714
3 1849 1648 2173
3 1631 1628 1637
3 1830 1831 1832
3 1383 1216 1384
3 734 772 882
3 949 933 1770
3 1332 1330 1333
3 574 575 591
3 1105 1088 1354
3 702 670 1815
3 498 494 1841
3 827 770 1806
3 873 959 973
3 1390 1391 1415
3 450 438 459
3 950 949 1005
3 351 362 364
3 1313 1029 1314
3 432 438 439
3 837 838 850
3 1273 1274 1695
3 850 851 943
3 911 952 1837
3 1259 1260 1804
3 566 587 588
3 1037 1216 1383
3 1337 1265 1538
3 1087 369 1795
3 810 655 870
3 1559 1561 1566
3 1147 1273 1839
3 732 733 734
3 1662 867 2126
3 890 1731 2241
3 1854 1852 2397
3 515 479 540
3 451 450 466
3 697 666 698
3 1367 1316 1368
3 662 660 663
3 365 355 694
3 1358 1114 1767
3 379 376 380
3 1796 1448 1797
3 179 180 1859
3 790 668 849
3 569 568 580
3 690 860 931
3 466 450 1812
3 431 414 696
3 1973 1133 1974
3 651 649 657
3 467 466 479
3 1288 1289 1835
3 264 265 1986
3 1302 1303 1304
3 592 596 597
3 1873 1321 2037
3 544 543 568
3 275 277 549
3 209 1937 2389
3 539 565 566
3 1485 227 1486
3 2384 2190 2408
3 1781 1779 1783
3 480 479 515
3 689 1416 2413
3 1108 1161 1539
3 1867 1310 1895
3 1300 1301 1302
3 1695 1696 1697
3 633 632 668
3 1304 1451 1452
3 988 911 1837
3 168 169 1724
3 969 1012 1172
3 582 629 1816
3 1843 752 1900
3 629 812 813
3 710 711 712
3 1782 1780 1784
3 536 535 543
3 1089 1746 1969
3 1108 1107 1161
3 1514 1426 1856
3 486 484 1820
3 369 371 1795
3 1817 988 1924
3 493 609 974
3 1422 1191 2023
3 1426 1424 1856
3 842 875 924
3 922 1826 2259
3 989 1361 1886
3 928 1070 1288
3 669 668 790
3 1113 1114 1356
3 1027 847 1843
3 728 695 1098
3 734 735 772
3 975 1107 1108
3 955 859 1962
3 813 911 988
3 1208 1448 1796
3 1101 1405 1980
3 602 676 2045
3 586 581 589
3 546 547 563
3 493 491 609
3 628 1524 2390
3 348 344 354
3 1298 1299 1300
3 509 538 539
3 974 609 975
3 813 891 911
3 871 870 872
3 1355 1354 1423
3 489 486 1820
3 778 779 780
3 1025 1176 1875
3 772 773 873
3 803 1743 2347
3 167 202 1679
3 873 883 959
3 1483 1571 2375
3 427 1756 2221
3 540 1813 1954
3 1202 1200 1203
3 959 1035 1037
3 837 921 1775
3 1304 1305 1451
3 1799 1383 2195
3 604 642 1862
3 1470 1744 2474
3 1854 2397 2453
3 1282 1269 1386
3 1573 1572 2157
3 472 2222 2290
3 1307 1708 2341
3 769 770 827
3 1037 1215 1216
3 791 790 856
3 1053 1052 1822
3 1056 1727 1728
3 1341 1138 1352
3 1300 1299 1301
3 1814 696 1838
3 1198 1196 1409
3 492 491 493
3 439 450 451
3 1171 858 2132
3 1259 1254 1260
3 665 626 666
3 970 872 971
3 258 1602 2357
3 1296 1297 1472
3 490 489 491
3 516 437 2494
3 1298 1027 1299
3 846 845 932
3 501 508 509
3 460 461 502
3 448 449 460
3 482 480 1840
3 1229 1228 1230
3 604 641 642
3 1424 1423 1427
3 502 503 526
3 1028 1000 1029
3 935 933 949
3 1084 1085 1867
3 2028 1711 2353
3 1513 1426 1514
3 892 482 1840
3 852 638 1988
3 402 395 1877
3 738 737 845
3 413 412 418
3 1119 1353 1643
3 526 527 546
3 280 279 281
3 1731 1155 2123
3 1042 971 1127
3 1208 1447 1448
3 433 434 448
3 262 159 2304
3 184 1454 2303
3 1051 1052 1053
3 1816 1817 1818
3 1081 1417 1444
3 781 836 837
3 911 951 952
3 1090 1092 1102
3 202 168 1724
3 1085 1309 1310
3 408 407 412
3 1337 1538 1864
3 1515 1514 1516
3 530 529 890
3 1517 1518 1519
3 549 686 687
3 923 1088 1105
3 404 403 407
3 1835 1289 1836
3 1314 1367 2121
3 1380 1379 2416
3 670 671 769
3 899 808 1874
3 1040 903 1703
3 1596 1595 2154
3 1496 1495 1497
3 636 637 1741
3 1377 1638 2288
3 1288 1070 1289
3 1072 804 1981
3 1129 1334 1845
3 1865 1084 1866
3 792 922 1603
3 1253 1252 1254
3 981 1167 1792
3 1302 1301 1303
3 1641 1651 2019
3 952 953 1084
3 1813 1812 1869
3 732 730 733
3 975 1106 1107
3 1142 949 1770
3 981 1166 1167
3 840 841 842
3 451 466 467
3 1273 990 1274
3 1049 1050 1051
3 1473 2407 2505
3 968 966 1199
3 642 643 670
3 1310 1309 1311
3 422 419 435
3 1063 833 1082
3 919 782 920
3 911 891 951
3 1084 953 1085
3 1763 1764 2164
3 1498 1497 1682
3 515 550 1175
3 1079 937 1913
3 642 702 1862
3 845 737 1931
3 1394 1311 1395
3 1395 1521 1522
3 467 479 480
3 1755 1754 1793
3 1231 1230 1232
3 1557 1553 2030
3 1624 1691 2262
3 584 632 633
3 1094 1091 1969
3 708 709 710
3 1948 1627 2488
3 952 951 953
3 1102 1103 1104
3 1047 1048 1049
3 1310 1311 1394
3 1852 1099 1985
3 143 144 1717
3 813 812 891
3 1944 1044 1945
3 1105 1354 1355
3 1300 1302 1455
3 1914 936 1940
3 1415 1391 1710
3 1299 1027 1843
3 952 1084 1865
3 1695 1274 1696
3 776 774 1928
3 282 281 283
3 2003 1347 2279
3 1206 995 1499
3 1164 1685 1686
3 1551 1565 2030
3 969 1172 1919
3 633 668 669
3 734 733 735
3 1373 1372 1438
3 599 600 636
3 1431 1860 2487
3 1579 1577 1999
3 484 482 892
3 917 940 941
3 2144 1836 2169
3 1866 1084 1867
3 1110 1747 1748
3 998 1171 1811
3 1390 1120 1391
3 644 1824 2057
3 1362 1961 2048
3 944 1283 1825
3 1086 1027 1298
3 679 1780 1782
3 974 975 1879
3 507 506 518
3 1121 1079 1401
3 775 777 778
3 1965 762 2349
3 1045 1046 1047
3 1772 421 2106
3 16 17 2081
3 416 417 433
3 921 850 2125
3 1607 1855 1958
3 649 648 1848
3 1241 1240 1242
3 2012 1443 2251
3 926 928 1920
3 1487 1488 2025
3 1006 1191 1421
3 1355 1423 1424
3 1133 852 1988
3 591 592 1776
3 1299 1843 1857
3 1085 1308 1309
3 490 491 492
3 958 694 1575
3 1384 1216 1385
3 741 915 1878
3 1233 1232 1234
3 669 790 791
3 481 480 482
3 687 703 704
3 492 493 494
3 1634 1633 1922
3 1697 1696 1698
3 1721 985 1722
3 1839 1273 1892
3 772 735 773
3 488 486 489
3 950 1005 1006
3 1513 1514 1515
3 454 500 501
3 873 773 883
3 284 283 285
3 2185 1505 2442
3 959 883 1035
3 543 535 1897
3 1904 1384 2093
3 800 801 802
3 1037 1035 1215
3 1293 1964 1965
3 1239 1238 1240
3 943 1143 2125
3 1782 1784 1785
3 913 756 942
3 488 490 1884
3 1590 1749 2501
3 1235 1234 1236
3 791 856 1408
3 702 2015 2070
3 1108 1539 1540
3 1021 1023 1045
3 695 506 1828
3 1530 1528 1532
3 488 489 490
3 1621 1619 2161
3 704 705 706
3 1304 1303 1305
3 558 1704 2167
3 625 622 626
3 542 553 554
3 604 573 641
3 664 684 685
3 564 571 574
3 1108 1540 1879
3 1856 1427 2361
3 880 1025 1129
3 1395 1311 1521
3 1466 1465 1467
3 915 495 1884
3 1515 1516 1523
3 1237 1236 1238
3 606 648 649
3 999 920 1000
3 676 829 1043
3 2100 794 2142
3 227 151 1500
3 577 579 599
3 153 154 1671
3 1175 550 1927
3 1014 888 1015
3 286 285 287
3 1649 1280 2427
3 1725 204 2137
3 975 609 1106
3 1129 1317 1334
3 1109 1730 2426
3 1468 1467 1469
3 1131 1123 1399
3 1215 2235 2378
3 1976 1149 1989
3 397 395 398
3 746 743 1878
3 1041 1343 1598
3 975 1108 1879
3 741 495 915
3 1167 1754 1755
3 288 287 289
3 743 741 1878
3 1274 990 1931
3 1506 214 1507
3 857 1584 2277
3 2341 1522 2387
3 846 932 933
3 1107 1106 1110
3 584 633 1927
3 290 289 291
3 722 591 1776
3 1544 1094 1969
3 1135 270 1647
3 935 949 950
3 1920 1288 2080
3 754 1896 2108
3 1693 1199 2225
3 292 291 293
3 394 393 395
3 745 743 746
3 1002 942 1123
3 731 737 738
3 294 293 295
3 1018 1573 1925
3 296 295 297
3 298 297 299
3 321 322 325
3 317 320 321
3 314 315 317
3 312 313 314
3 310 311 312
3 308 309 310
3 1898 890 2275
3 306 307 308
3 304 305 306
3 1401 1079 1913
3 300 299 301
3 302 303 304
3 300 301 302
3 302 301 303
3 491 489 1936
3 298 299 300
3 304 303 305
3 306 305 307
3 308 307 309
3 310 309 311
3 312 311 313
3 314 313 315
3 317 315 320
3 321 320 322
3 1301 1299 1857
3 514 541 542
3 296 297 298
3 850 838 851
3 1310 1394 1895
3 294 295 296
3 590 605 606
3 292 293 294
3 651 657 658
3 290 291 292
3 1207 1208 1796
3 835 1976 1989
3 621 619 622
3 746 1878 1896
3 481 482 483
3 1026 847 1027
3 1335 1207 1870
3 1661 59 2266
3 727 729 1155
3 288 289 290
3 1058 776 1928
3 662 663 664
3 495 488 1884
3 1959 319 2522
3 943 851 944
3 1293 1291 1964
3 534 532 535
3 640 645 646
3 2280 1014 2385
3 286 287 288
3 591 575 592
3 521 519 529
3 13 14 2114
3 780 779 781
3 918 908 1850
3 837 836 838
3 209 148 1639
3 754 748 1896
3 745 746 747
3 769 671 770
3 929 1065 2197
3 1278 1058 1279
3 483 482 484
3 1564 1557 2030
3 633 807 1927
3 392 391 393
3 1057 1621 2161
3 569 580 581
3 284 285 286
3 876 992 1894
3 497 494 498
3 1630 1635 2041
3 982 1148 1918
3 612 611 613
3 700 634 1044
3 822 674 2099
3 880 1129 1929
3 432 439 654
3 1039 1291 1292
3 1164 1686 1989
3 1129 1025 1317
3 738 845 846
3 582 583 629
3 278 6 279
3 544 568 569
3 1701 1274 1931
3 747 749 751
3 1085 953 1308
3 928 930 1070
3 747 748 749
3 1421 1422 2415
3 902 903 904
3 1309 1308 1543
3 642 641 643
3 904 981 1792
3 646 784 785
3 536 543 544
3 1204 1205 1207
3 365 694 958
3 71 72 217
3 88 89 1901
3 87 88 193
3 101 102 189
3 85 86 242
3 99 100 241
3 74 75 192
3 91 92 219
3 94 95 191
3 83 84 220
3 97 98 221
3 77 78 218
3 80 81 194
3 89 90 245
3 62 63 244
3 60 61 188
3 64 65 223
3 67 68 190
3 90 91 1909
3 98 99 1905
3 61 62 1908
3 69 70 243
3 68 69 1907
3 70 71 1910
3 410 411 416
3 586 589 590
3 685 684 2029
3 390 389 391
3 1715 1150 1811
3 1924 1837 2215
3 282 283 284
3 496 497 1929
3 233 1671 1769
3 627 2185 2442
3 1567 1552 2062
3 629 630 812
3 424 453 454
3 583 562 1942
3 749 750 805
3 744 743 745
3 1897 535 1898
3 467 480 481
3 504 759 880
3 670 643 671
3 89 245 1901
3 193 88 1901
3 221 98 1905
3 245 90 1909
3 91 219 1909
3 62 244 1908
3 188 61 1908
3 99 241 1905
3 190 68 1907
3 71 217 1910
3 69 243 1907
3 243 70 1910
3 505 499 506
3 475 513 514
3 1945 1044 2071
3 1712 2125 2353
3 339 343 440
3 989 1360 1361
3 764 869 1152
3 778 777 779
3 1686 1685 1687
3 742 741 743
3 979 989 1886
3 729 731 1887
3 926 927 928
3 1305 1306 1307
3 1838 1278 2292
3 747 746 748
3 181 182 1652
3 1886 1361 2305
3 1595 1594 2486
3 597 596 598
3 928 1288 1920
3 1970 824 2156
3 1425 1424 1426
3 497 504 1929
3 748 746 1896
3 745 747 1900
3 998 858 1171
3 563 547 564
3 1155 729 1887
3 634 583 1942
3 1439 1173 1440
3 1026 1027 1086
3 79 80 1904
3 1533 1532 1536
3 1449 1426 1513
3 1106 609 1936
3 1318 1013 1319
3 1098 695 1828
3 492 494 496
3 750 748 754
3 731 738 1887
3 2415 1422 2516
3 533 562 582
3 988 1837 1924
3 1216 1215 1863
3 534 535 536
3 747 751 1900
3 1753 809 2119
3 1183 824 1970
3 740 495 741
3 80 194 1904
3 893 383 2087
3 655 605 1939
3 1884 2034 2082
3 1301 1857 1923
3 1307 1306 1708
3 752 745 1900
3 750 754 755
3 76 77 1903
3 2090 2347 2365
3 255 30 2159
3 132 254 2160
3 448 434 449
3 753 848 926
3 1075 1074 1327
3 487 488 495
3 377 381 647
3 483 484 485
3 755 754 2148
3 1584 1925 2277
3 1186 1183 1970
3 951 891 1281
3 485 484 486
3 546 527 547
3 133 134 1766
3 1786 1785 2409
3 280 281 282
3 460 449 461
3 744 745 752
3 77 218 1903
3 983 1918 2342
3 1708 1306 1810
3 1389 2069 2170
3 487 486 488
3 641 573 1954
3 507 518 519
3 502 461 503
3 519 518 1899
3 1202 1203 1204
3 821 897 1972
3 92 93 1902
3 521 529 530
3 749 748 750
3 2176 1380 2416
3 885 826 886
3 485 486 487
3 371 372 376
3 1289 1070 1871
3 1110 1657 1747
3 753 926 1943
3 700 1044 1944
3 880 881 1025
3 496 1845 2034
3 1072 1981 2393
3 462 464 2134
3 1949 1771 2359
3 1044 634 1942
3 550 584 1927
3 1390 1415 2118
3 526 503 527
3 990 845 1931
3 1009 1213 1214
3 740 742 1144
3 219 92 1902
3 727 1155 1899
3 369 370 371
3 623 690 2150
3 1279 1058 1928
3 1408 2235 2286
3 487 495 740
3 979 1886 2086
3 1305 1303 1306
3 421 412 1951
3 843 844 996
3 633 669 807
3 518 727 1899
3 826 825 1961
3 1657 1106 1936
3 1172 1012 1173
3 740 741 742
3 433 417 434
3 505 506 507
3 1333 1674 2437
3 742 743 744
3 469 458 470
3 1381 1380 1382
3 1293 1965 2515
3 1554 1559 2062
3 553 557 2499
3 1774 389 2339
3 497 498 499
3 483 485 576
3 740 1144 1935
3 773 735 834
3 366 367 369
3 1120 1118 1876
3 1515 1523 1574
3 1319 1013 2039
3 1303 1301 1923
3 457 447 458
3 561 593 594
3 1355 1424 1425
3 609 491 1936
3 204 1732 2137
3 791 1408 1642
3 995 944 1825
3 456 471 475
3 1692 1693 2239
3 580 1763 2164
3 1292 1293 2117
3 441 452 456
3 388 384 389
3 823 821 1972
3 504 880 1929
3 176 177 1680
3 1070 1071 1871
3 15 2260 2477
3 362 363 366
3 2178 2300 2449
3 1035 883 1036
3 2285 1563 2307
3 978 977 1074
3 1090 1102 2029
3 1810 1306 1923
3 496 494 497
3 1306 1303 1923
3 432 654 1915
3 934 933 935
3 356 355 365
3 398 403 404
3 635 701 843
3 1110 1106 1657
3 574 571 575
3 1025 881 1176
3 386 380 786
3 415 432 1915
3 343 347 1911
3 1070 930 1071
3 1688 1740 2231
3 1385 1216 1863
3 1696 1274 1701
3 1645 305 2317
3 880 759 881
3 926 848 927
3 1427 1423 2217
3 1339 1662 2388
3 770 774 775
3 1263 1257 1428
3 1337 1864 2412
3 349 348 355
3 2267 1721 2498
3 753 752 847
3 1375 1086 1473
3 900 982 983
3 332 335 739
3 429 428 430
3 744 752 753
3 1171 2132 2165
3 1425 1426 1449
3 987 641 1954
3 1883 1786 2409
3 427 426 428
3 928 927 930
3 1815 1105 2015
3 1206 1499 1941
3 410 406 411
3 573 540 1954
3 497 499 504
3 528 560 561
3 1933 1404 2399
3 1091 1089 1969
3 1804 1282 2073
3 504 505 759
3 963 924 1113
3 1711 1710 1712
3 881 759 1146
3 968 1199 1200
3 351 352 362
3 848 847 1026
3 521 530 531
3 1884 490 2034
3 1277 957 1966
3 1349 1350 2329
3 676 1043 2045
3 997 1159 1286
3 517 1889 1890
3 781 835 836
3 944 948 1283
3 722 1776 2026
3 507 519 520
3 2040 1352 2058
3 1276 957 1277
3 446 437 447
3 931 860 977
3 361 359 765
3 1248 1536 2534
3 512 523 528
3 408 412 413
3 1368 1369 1370
3 451 2169 2223
3 192 75 1994
3 942 756 2026
3 345 344 348
3 764 1152 1963
3 413 418 419
3 1286 1773 1774
3 770 671 774
3 275 549 2124
3 1497 1645 2461
3 1982 1472 2272
3 422 435 441
3 281 279 736
3 1134 270 1135
3 582 562 583
3 1421 2415 2454
3 485 487 1935
3 2300 1067 2480
3 1578 1576 1827
3 930 927 1061
3 1026 1086 1375
3 922 2259 2379
3 1391 1120 1876
3 1495 1494 2493
3 404 407 408
3 879 2178 2449
3 1700 1698 2036
3 607 1517 1520
3 753 847 848
3 416 411 417
3 1144 742 1943
3 775 776 777
3 754 2108 2148
3 1006 1421 1953
3 585 581 586
3 531 530 532
3 235 1709 1888
3 520 519 521
3 1180 1181 1349
3 1146 759 1967
3 708 710 1921
3 1350 2253 2329
3 436 430 437
3 504 499 505
3 643 641 987
3 336 330 517
3 811 1059 1149
3 1164 1411 1685
3 846 933 934
3 635 843 1960
3 983 982 1918
3 971 872 1096
3 1149 1163 1164
3 169 237 1724
3 1314 1315 1316
3 629 583 630
3 891 812 1916
3 462 463 464
3 487 740 1935
3 798 2084 2189
3 1814 1838 2292
3 1284 1489 1491
3 340 336 2014
3 1670 1461 2200
3 920 782 2057
3 890 2241 2275
3 510 511 512
3 278 279 280
3 839 802 840
3 1858 235 1888
3 1698 1696 2036
3 104 105 222
3 57 58 224
3 1185 1183 1186
3 588 587 623
3 638 600 1988
3 1282 1386 2245
3 811 776 1058
3 816 815 876
3 2034 1845 2082
3 761 636 1741
3 566 565 587
3 174 175 1725
3 347 350 351
3 1469 1495 1496
3 1059 1058 1278
3 811 1149 1976
3 576 485 1935
3 659 658 660
3 859 1153 1962
3 76 1903 1994
3 1821 1109 2426
3 1294 1038 1622
3 733 1833 2075
3 992 993 1980
3 1566 1561 2285
3 525 474 2041
3 464 465 510
3 343 346 347
3 360 893 1982
3 650 649 651
3 896 608 936
3 950 1006 1007
3 1508 1859 1860
3 539 538 565
3 440 343 1911
3 341 340 344
3 221 1905 1906
3 1297 1823 2142
3 759 505 1967
3 1295 1053 1296
3 473 470 474
3 1463 1465 1466
3 1143 1206 2028
3 799 685 800
3 1210 2077 2203
3 509 508 538
3 492 496 2034
3 1553 1551 2030
3 1260 1261 1269
3 1430 1040 1703
3 586 590 1940
3 838 836 868
3 1705 624 2276
3 1749 972 2501
3 742 744 1943
3 804 962 1981
3 1367 1368 2254
3 531 532 533
3 337 336 340
3 1157 1094 1544
3 536 544 1158
3 812 630 1960
3 781 779 835
3 56 57 1947
3 630 583 634
3 1405 1404 1932
3 1281 891 1916
3 339 342 343
3 1411 1163 1730
3 322 323 324
3 344 340 2091
3 1735 1734 1736
3 75 76 1994
3 430 682 2494
3 1907 243 2360
3 589 581 2164
3 694 355 2196
3 744 753 1943
3 775 774 776
3 1210 1430 2077
3 335 338 339
3 1102 1803 2029
3 1078 937 1079
3 870 655 1939
3 505 507 1967
3 357 360 1982
3 1896 1878 2101
3 326 325 328
3 934 935 957
3 585 608 895
3 333 330 336
3 1270 1272 1524
3 688 817 878
3 507 520 1967
3 1428 1257 2074
3 1818 1817 2000
3 896 937 1077
3 934 957 1111
3 329 328 330
3 1499 995 1825
3 944 851 948
3 387 445 462
3 1678 1161 2228
3 777 776 811
3 313 311 757
3 324 331 332
3 848 1026 1955
3 1312 998 1811
3 1321 1322 2037
3 1080 1079 1121
3 1105 1355 2015
3 1645 2317 2461
3 1559 1568 2062
3 332 334 335
3 501 500 508
3 321 325 326
3 394 395 397
3 322 320 323
3 1529 1530 2171
3 1137 797 1138
3 811 1058 1059
3 661 660 662
3 569 581 585
3 183 4 2303
3 5 160 2304
3 1340 1138 1341
3 1660 1626 2185
3 1743 1464 2347
3 1026 1375 1955
3 1149 1059 1163
3 1736 1625 2194
3 1322 1667 2434
3 311 309 1959
3 309 307 319
3 894 700 1944
3 533 534 562
3 1276 1277 1366
3 2190 1706 2408
3 533 532 534
3 1214 1213 1410
3 1164 1163 1411
3 843 701 844
3 1009 1214 2055
3 234 1589 1788
3 2000 1817 2174
3 317 321 2050
3 328 325 945
3 392 393 394
3 588 623 2089
3 1162 958 1681
3 1078 1080 1136
3 927 848 1955
3 1496 1497 1498
3 390 391 392
3 1061 927 1955
3 1283 948 1284
3 635 634 700
3 1244 1251 1252
3 218 78 2093
3 756 722 2026
3 1071 1784 2419
3 1218 1505 2185
3 1284 948 1285
3 1489 1285 1490
3 918 1850 1851
3 684 1090 2029
3 1759 572 2537
3 1691 1690 2446
3 1979 1158 2071
3 606 649 650
3 2045 1043 2046
3 103 104 2025
3 630 634 635
3 360 383 893
3 406 386 2043
3 1909 219 2023
3 1111 957 1276
3 1925 1437 2277
3 1536 2268 2340
3 854 852 1133
3 233 153 1671
3 651 658 659
3 2099 1787 2368
3 1033 1032 1130
3 1015 1372 1373
3 1412 942 2026
3 253 264 1441
3 1531 1534 2332
3 701 700 894
3 106 107 1990
3 2048 1961 2455
3 276 274 2099
3 738 846 1968
3 1325 925 1326
3 896 936 937
3 585 586 608
3 1450 854 1973
3 1361 1360 1362
3 1045 1668 2512
3 303 301 444
3 996 844 997
3 79 1904 2093
3 1989 1686 2095
3 1928 774 2033
3 1942 562 1979
3 287 285 316
3 935 950 1966
3 1466 1467 1468
3 1242 1243 1244
3 1887 738 1968
3 2115 210 2477
3 878 929 1083
3 1326 1736 2194
3 886 888 1014
3 895 608 896
3 289 287 1978
3 821 822 897
3 936 608 1940
3 613 614 615
3 51 52 1996
3 417 411 1160
3 1149 1164 1989
3 386 786 2043
3 285 283 1971
3 1309 1543 2147
3 375 373 2053
3 371 370 372
3 779 777 1976
3 1286 1159 1773
3 2177 887 2376
3 1560 1557 1564
3 1403 1882 2399
3 1727 1757 2246
3 279 6 2049
3 1619 1438 2438
3 291 289 758
3 1781 1915 2294
3 425 401 426
3 349 355 356
3 66 67 2118
3 474 548 2041
3 1686 1687 2007
3 1262 1456 1457
3 1123 942 1412
3 1916 812 1960
3 1355 1425 2015
3 735 733 2075
3 1861 879 2449
3 1284 1285 1489
3 490 492 2034
3 366 363 367
3 980 578 2051
3 906 904 1792
3 534 536 1979
3 842 924 963
3 2051 578 2083
3 1077 937 1078
3 1102 1104 1803
3 894 1944 1946
3 398 404 2060
3 1007 1006 1953
3 369 367 370
3 348 354 2196
3 1078 1079 1080
3 1378 1380 1381
3 1568 1365 2439
3 608 586 1940
3 598 610 611
3 760 636 761
3 869 1137 1351
3 671 643 2033
3 1661 1345 2267
3 938 914 1057
3 783 761 914
3 576 1835 2144
3 388 389 390
3 297 295 318
3 454 453 500
3 1906 1728 2246
3 1439 1440 2468
3 1159 1013 1318
3 764 797 869
3 236 143 1717
3 782 644 2057
3 592 595 596
3 1542 2332 2443
3 1521 1311 2147
3 345 348 349
3 1304 1452 2205
3 1644 1907 2360
3 2146 1125 2149
3 997 844 1013
3 628 375 2053
3 299 297 1984
3 957 935 1966
3 664 685 799
3 301 299 1975
3 362 352 363
3 777 811 1976
3 1942 1979 2071
3 1001 920 2057
3 312 314 768
3 1552 1554 2062
3 615 616 617
3 357 1982 2076
3 800 802 839
3 774 671 2033
3 1749 1169 2105
3 365 958 1162
3 617 618 619
3 283 281 1938
3 1351 1772 2414
3 1525 1765 2489
3 846 934 1968
3 635 700 701
3 555 554 577
3 536 1158 1979
3 1101 1404 1405
3 630 635 1960
3 1811 1150 2089
3 2113 1666 2249
3 172 173 1847
3 107 108 195
3 54 55 196
3 1191 1768 2023
3 1455 1302 2205
3 115 116 2017
3 1387 1333 2437
3 659 661 764
3 1080 1121 1188
3 50 51 2011
3 411 406 2043
3 295 293 1983
3 643 987 2033
3 707 706 708
3 129 130 261
3 32 33 260
3 2159 260 2265
3 449 434 567
3 1314 1029 1315
3 917 796 940
3 378 375 628
3 108 109 1991
3 2370 1759 2537
3 341 344 345
3 997 1013 1159
3 544 569 1993
3 950 1007 1966
3 477 474 525
3 351 350 352
3 1696 1701 2036
3 334 331 803
3 1137 1138 1340
3 562 534 1979
3 109 110 246
3 52 53 247
3 1368 1316 1369
3 659 660 661
3 33 34 2002
3 123 124 2005
3 835 779 1976
3 851 838 1992
3 1530 1533 2172
3 1668 1045 2348
3 1162 1681 1706
3 342 338 468
3 298 300 358
3 765 359 2065
3 725 826 885
3 35 36 2003
3 46 47 2019
3 38 39 2006
3 336 517 2014
3 934 1111 1968
3 116 117 2018
3 650 651 1963
3 223 1711 2162
3 640 594 645
3 1333 1330 2192
3 104 222 2025
3 1603 922 2379
3 963 1113 1115
3 2084 1193 2189
3 564 570 571
3 36 37 2004
3 57 224 1947
3 1542 1601 2269
3 122 123 2012
3 1000 920 1001
3 127 128 240
3 34 35 239
3 383 387 2087
3 1161 1107 2228
3 1781 2294 2419
3 1201 1200 1202
3 124 125 225
3 37 38 226
3 1340 1341 1342
3 869 797 1137
3 839 840 1008
3 1158 544 1993
3 1326 925 1894
3 352 350 353
3 326 329 954
3 1864 2344 2412
3 836 835 2095
3 1051 1053 1295
3 1031 720 1032
3 503 461 787
3 1407 1112 2044
3 661 662 2058
3 838 868 1992
3 112 113 197
3 49 50 198
3 1359 980 1413
3 121 122 211
3 40 41 212
3 48 49 2010
3 113 114 2009
3 1741 673 2131
3 41 42 2020
3 120 121 2013
3 1409 2035 2097
3 1511 1374 2506
3 114 115 248
3 47 48 249
3 42 43 250
3 119 120 251
3 171 6 201
3 6 172 203
3 585 895 1993
3 43 44 2024
3 118 119 2021
3 905 904 906
3 764 661 797
3 337 340 341
3 1413 980 2051
3 117 118 205
3 44 45 206
3 347 346 350
3 1420 1076 1525
3 324 323 331
3 434 417 2031
3 965 967 969
3 716 719 788
3 1260 1254 1261
3 2053 373 2103
3 2069 2068 2170
3 326 328 329
3 1706 996 2408
3 273 275 2124
3 969 1011 1012
3 590 606 2001
3 1718 1611 2280
3 1914 1940 2001
3 915 1884 2082
3 329 330 333
3 620 859 955
3 2168 1409 2305
3 296 298 1997
3 915 2082 2101
3 339 338 342
3 1218 994 1505
3 333 336 337
3 266 263 1742
3 1873 768 2127
3 244 63 2162
3 64 223 2162
3 343 342 346
3 914 761 2258
3 310 312 1987
3 799 800 2055
3 302 304 763
3 1559 1566 1568
3 1598 1343 2114
3 592 575 595
3 341 345 794
3 189 1842 2220
3 767 815 816
3 1003 912 1004
3 839 1008 1009
3 1263 1428 1429
3 564 547 570
3 1845 1334 2082
3 332 331 334
3 901 866 902
3 651 659 1963
3 1009 1112 1213
3 335 334 338
3 569 585 1993
3 1665 1336 2299
3 1945 2071 2153
3 863 862 864
3 907 906 908
3 1849 1486 1930
3 1935 1144 2080
3 967 966 968
3 809 900 2119
3 865 864 866
3 835 1989 2095
3 190 1907 2417
3 333 337 522
3 1110 1748 2228
3 1193 1194 1195
3 94 191 2166
3 473 1854 2453
3 1769 1134 2369
3 948 851 1992
3 237 170 2216
3 420 419 422
3 1448 1447 2364
3 483 576 2144
3 721 1919 2032
3 885 886 1891
3 613 611 614
3 886 1014 1891
3 1160 411 2043
3 1918 1283 2342
3 1651 206 2485
3 1242 1240 1243
3 598 596 610
3 1295 1296 1459
3 1185 1186 1948
3 1425 1449 2070
3 294 296 762
3 1285 948 1992
3 925 876 1894
3 712 714 789
3 603 1668 2398
3 1940 590 2001
3 721 570 964
3 834 735 2075
3 1144 1920 2080
3 2263 1635 2511
3 1204 1207 1335
3 2235 1408 2378
3 965 964 966
3 1990 1435 2218
3 397 398 2060
3 1138 797 2058
3 1787 1141 2368
3 2068 820 2170
3 360 359 361
3 387 462 2087
3 1524 1272 1934
3 819 698 820
3 1197 1196 1198
3 1662 2126 2388
3 78 79 2093
3 1150 588 2089
3 1269 1261 1270
3 1878 915 2101
3 451 467 2169
3 2262 1387 2437
3 1009 1008 1112
3 757 311 1959
3 897 898 1139
3 1854 473 2483
3 2015 1425 2070
3 2082 1334 2101
3 963 1115 1174
3 1047 1049 1287
3 1194 423 1196
3 321 326 2050
3 417 1160 2031
3 854 1133 1973
3 1201 1212 1348
3 705 1586 2163
3 309 319 1959
3 1353 1390 2417
3 427 428 429
3 357 356 359
3 606 650 2001
3 549 1280 2124
3 1213 1112 1407
3 256 2303 2535
3 356 365 2065
3 662 664 2040
3 701 894 2039
3 1325 1371 2451
3 666 626 667
3 1902 93 2166
3 1236 1234 1246
3 800 839 2055
3 1869 1812 2252
3 1197 1364 1365
3 576 1935 2080
3 404 408 798
3 1678 807 2529
3 1560 1564 2016
3 1319 2039 2122
3 425 426 427
3 349 356 357
3 308 310 327
3 1716 622 2484
3 1801 82 2289
3 1768 1949 2420
3 2006 1926 2507
3 351 364 2407
3 420 423 1193
3 659 764 1963
3 292 294 2038
3 840 842 2027
3 736 279 2049
3 372 373 374
3 461 449 2052
3 2189 1195 2285
3 1174 1115 1398
3 367 363 961
3 909 908 918
3 1738 247 2402
3 1007 1761 2308
3 288 290 2135
3 422 441 2035
3 623 624 690
3 537 525 545
3 1953 1421 2454
3 1887 1968 2123
3 861 691 862
3 654 439 2223
3 1136 1080 2054
3 1312 1811 2089
3 575 571 2032
3 383 361 384
3 968 1200 1201
3 797 661 2058
3 1423 1354 2381
3 1180 1178 1181
3 1513 1515 2180
3 72 73 2217
3 462 445 463
3 12 13 2136
3 457 458 469
3 542 554 555
3 599 636 760
3 254 133 1766
3 1130 1397 1937
3 404 798 2060
3 1044 1942 2071
3 690 691 860
3 357 359 360
3 1008 2027 2152
3 1232 1230 1255
3 372 370 373
3 850 943 2125
3 1457 1456 1492
3 1952 324 2282
3 155 2 2356
3 0 7 2357
3 2017 1379 2288
3 918 1851 2008
3 195 1991 2517
3 2090 803 2347
3 1244 1243 1251
3 290 292 368
3 1432 1082 2214
3 1008 840 2027
3 1743 803 2296
3 1013 844 2039
3 365 1162 2065
3 1594 1315 2184
3 387 384 388
3 1508 1860 2311
3 547 527 2056
3 2005 225 2322
3 314 317 2127
3 1853 556 2327
3 201 6 278
3 1907 1644 2417
3 1896 2101 2108
3 646 645 784
3 538 508 558
3 374 375 377
3 1630 1634 1635
3 1579 1999 2352
3 1647 1648 1849
3 1313 1314 2121
3 1179 1433 2042
3 844 701 2039
3 1252 1251 2098
3 816 876 925
3 1922 1228 2281
3 392 394 396
3 1915 654 2294
3 1652 1653 2487
3 429 430 436
3 456 475 476
3 1605 1392 2510
3 126 1882 2284
3 1784 1780 2419
3 500 453 960
3 377 378 381
3 2178 1587 2300
3 1222 1219 1626
3 413 419 420
3 381 382 400
3 2169 1836 2223
3 1906 1905 2129
3 616 614 793
3 1170 1419 2139
3 101 189 2220
3 241 100 2220
3 1968 1111 2123
3 567 434 2031
3 615 614 616
3 1032 720 1921
3 682 428 2138
3 469 470 473
3 339 440 2261
3 1501 238 2226
3 1154 1431 1653
3 446 447 457
3 1251 1243 1257
3 2229 315 2495
3 1201 1202 1212
3 785 784 879
3 464 463 465
3 66 2118 2395
3 324 332 2282
3 286 288 771
3 17 199 2081
3 571 570 721
3 611 610 2092
3 617 616 618
3 1542 1531 2332
3 400 401 424
3 1325 1326 1371
3 1140 1406 1702
3 1323 443 2302
3 1926 1573 2507
3 436 437 446
3 1262 1457 2098
3 67 190 2118
3 1518 1861 2449
3 989 1359 1360
3 1063 1082 1154
3 1757 96 2526
3 969 967 1011
3 868 836 2095
3 1215 1035 2235
3 96 1757 2309
3 261 2160 2380
3 1381 1382 2126
3 1468 1469 2182
3 1334 1317 2108
3 861 863 1064
3 1270 1261 1271
3 360 361 383
3 287 316 1978
3 1856 192 2367
3 1905 241 2129
3 1615 1809 2425
3 528 523 560
3 979 980 989
3 662 2040 2058
3 721 964 965
3 170 171 2216
3 664 799 2040
3 512 511 523
3 1201 1348 2107
3 620 618 858
3 758 289 1978
3 859 858 998
3 424 425 453
3 1616 1615 2193
3 444 301 1975
3 561 560 593
3 965 966 967
3 1798 376 2430
3 340 2014 2091
3 510 465 511
3 107 195 1990
3 1080 1188 2054
3 1153 998 1312
3 1226 1224 1249
3 1012 1011 1363
3 902 904 905
3 842 963 2027
3 268 270 1134
3 865 901 1125
3 2077 558 2102
3 282 284 442
3 1977 1679 2253
3 1496 1498 2047
3 284 286 2063
3 281 736 1938
3 2132 793 2165
3 1674 215 2437
3 2078 1855 2411
3 839 1009 2055
3 1182 824 1183
3 1168 947 1169
3 1289 1871 2242
3 316 285 1971
3 1270 1271 1272
3 1755 1793 2264
3 51 1996 2011
3 383 384 387
3 1146 1924 2215
3 1279 1928 2202
3 619 618 620
3 1194 1196 1197
3 555 578 979
3 1937 1639 2528
3 1262 1257 1263
3 389 384 2339
3 2251 1338 2464
3 1155 1887 2123
3 1151 1937 2528
3 465 463 828
3 1318 1319 2116
3 1687 1688 2231
3 326 954 2050
3 297 318 1984
3 1308 953 2255
3 1846 2056 2198
3 320 315 2229
3 1254 1252 2059
3 760 761 783
3 951 1281 2255
3 1459 1296 2094
3 2288 1638 2470
3 1975 299 1984
3 52 247 1996
3 468 338 2090
3 2140 1511 2506
3 1125 1126 1192
3 593 824 1182
3 720 708 1921
3 704 706 707
3 623 587 624
3 2044 1112 2152
3 1393 1169 1749
3 900 983 2119
3 783 914 938
3 255 2265 2489
3 2039 894 2122
3 317 2050 2127
3 1866 1867 2513
3 374 373 375
3 429 436 455
3 387 388 445
3 1193 423 1194
3 555 577 578
3 1074 977 1187
3 449 567 2052
3 1197 1198 1364
3 2154 1595 2486
3 1486 1849 2173
3 318 295 1983
3 939 1016 1844
3 131 132 2160
3 30 31 2159
3 881 1146 2215
3 1294 1868 2238
3 1300 1455 2314
3 1365 1364 1912
3 783 938 939
3 2061 1735 2441
3 551 545 601
3 2194 216 2536
3 1251 1257 1262
3 888 887 2177
3 1364 1198 2048
3 1498 1682 2340
3 1589 1590 2501
3 60 188 2266
3 1401 1913 2324
3 195 108 1991
3 420 422 423
3 1675 1470 2474
3 258 1673 2183
3 2161 1619 2438
3 1296 1472 2094
3 1808 1910 2381
3 334 803 2090
3 1490 1285 2232
3 523 511 524
3 1240 1238 2074
3 1184 1183 1185
3 39 40 2151
3 473 474 477
3 1461 1463 2200
3 2072 353 2073
3 861 862 863
3 1206 1941 2401
3 958 1575 2287
3 614 611 2092
3 110 111 2140
3 1136 2054 2110
3 645 594 2133
3 260 33 2002
3 673 767 2131
3 989 980 1359
3 1741 2131 2258
3 1317 1875 2148
3 894 1946 2122
3 863 864 865
3 787 461 2052
3 857 2277 2386
3 109 246 1991
3 2017 116 2018
3 1182 1183 1184
3 377 375 378
3 816 925 1324
3 865 866 901
3 1262 1263 1456
3 359 356 2065
3 2129 241 2472
3 283 1938 1971
3 1458 1210 2203
3 1076 1003 2145
3 196 1738 2402
3 1033 1130 1151
3 1188 1121 2106
3 1140 1702 2096
3 549 687 1280
3 1694 1621 2191
3 861 1064 2112
3 1548 1549 2129
3 1784 1071 2462
3 714 716 2066
3 1961 825 2455
3 1447 1211 2250
3 979 578 980
3 905 907 1209
3 381 378 382
3 457 469 552
3 595 575 2032
3 408 413 2084
3 481 483 2144
3 1745 1349 2293
3 1980 1405 2441
3 198 50 2011
3 248 115 2017
3 912 819 2068
3 620 858 859
3 707 708 720
3 821 674 822
3 514 542 2086
3 400 382 401
3 123 2005 2012
3 1772 1351 2374
3 34 239 2002
3 768 314 2127
3 2003 36 2004
3 280 282 2079
3 124 225 2005
3 596 595 2130
3 593 560 824
3 1504 1502 2519
3 239 35 2003
3 1311 1309 2147
3 1318 1877 2240
3 1860 1432 2311
3 1416 1715 2330
3 859 998 1153
3 352 353 2072
3 312 768 1987
3 2027 1174 2152
3 226 38 2006
3 1827 1024 2117
3 1710 1391 2295
3 690 624 691
3 37 226 2004
3 1153 1312 1885
3 853 855 2186
3 1892 242 2373
3 1967 520 2174
3 939 938 1016
3 47 249 2019
3 388 390 2078
3 1991 2139 2517
3 905 906 907
3 571 721 2032
3 1196 423 2035
3 1324 925 1325
3 1151 1130 1937
3 363 352 2072
3 345 349 2076
3 1031 1032 1033
3 214 179 1859
3 211 122 2012
3 602 601 652
3 117 205 2018
3 710 712 2067
3 1602 187 2357
3 520 2000 2174
3 85 242 2335
3 220 84 2335
3 381 400 2113
3 1586 1587 2435
3 424 401 425
3 963 1174 2027
3 860 691 861
3 610 596 2130
3 1958 2078 2431
3 570 547 2056
3 237 2216 2354
3 1211 1692 2219
3 298 358 1997
3 909 947 1041
3 441 456 2097
3 1135 1647 1849
3 1601 1542 2443
3 197 113 2009
3 49 198 2010
3 1911 347 2407
3 1729 191 2309
3 212 41 2020
3 121 211 2013
3 222 105 2218
3 1125 901 1126
3 114 248 2009
3 249 48 2010
3 42 250 2020
3 251 120 2013
3 233 1769 2369
3 1870 647 2113
3 794 345 2076
3 250 43 2024
3 119 251 2021
3 901 902 2141
3 964 570 2056
3 739 335 2261
3 2108 1317 2148
3 577 599 2083
3 205 118 2021
3 44 206 2024
3 1247 1241 2323
3 1894 992 2244
3 6 203 2049
3 1642 1678 2529
3 1417 1873 2333
3 1422 2023 2516
3 341 794 2100
3 73 74 2361
3 1234 1232 2088
3 1261 1254 2059
3 896 1077 2257
3 1921 710 2067
3 125 126 2284
3 220 1699 2289
3 159 5 2304
3 4 184 2303
3 2059 1252 2098
3 1003 1004 2145
3 2328 1325 2451
3 1486 227 1500
3 63 64 2162
3 2081 1192 2260
3 508 500 2102
3 667 1872 2318
3 338 334 2090
3 423 422 2035
3 1192 1126 1471
3 907 908 909
3 1330 1328 2192
3 1972 897 2500
3 2443 316 2514
3 242 86 2373
3 87 193 2373
3 420 1193 2084
3 1473 1086 2358
3 1987 768 2037
3 522 337 2100
3 627 1660 2185
3 1793 446 2264
3 1405 2061 2441
3 1502 1217 2302
3 171 201 2216
3 1158 1993 2153
3 1197 1365 2120
3 1712 1710 2295
3 1121 1401 2414
3 93 94 2166
3 653 652 688
3 622 1716 2452
3 1345 1720 2267
3 477 537 556
3 128 129 2181
3 2331 1295 2458
3 784 645 874
3 1269 1270 2199
3 189 102 2355
3 1041 1168 1343
3 246 110 2140
3 477 525 537
3 755 1895 2371
3 1947 1723 2313
3 1134 1135 2369
3 223 65 2395
3 968 1201 2107
3 1577 1578 2325
3 210 15 2477
3 961 363 2072
3 1581 1579 2352
3 349 357 2076
3 337 341 2100
3 305 303 2317
3 370 367 2103
3 762 296 1997
3 581 580 2164
3 1278 1838 2372
3 1548 2129 2472
3 594 593 2133
3 2021 251 2022
3 2047 1247 2182
3 967 968 2107
3 1169 947 2008
3 481 2144 2169
3 793 614 2092
3 1910 217 2381
3 1251 1262 2098
3 716 788 2066
3 2101 1334 2108
3 2006 39 2151
3 1603 2379 2508
3 1926 2006 2151
3 96 97 2526
3 750 755 2371
3 789 714 2066
3 909 918 947
3 1993 895 2153
3 106 1990 2218
3 1243 1240 2074
3 832 986 1189
3 1283 1284 2342
3 2297 195 2517
3 1043 829 2326
3 767 816 2131
3 602 653 676
3 1004 912 2068
3 2086 1886 2224
3 1124 2177 2467
3 426 401 2531
3 707 720 1030
3 1000 1001 2184
3 1315 1029 2184
3 467 481 2169
3 541 513 2256
3 647 381 2113
3 225 2284 2510
3 2 156 2356
3 187 0 2357
3 40 212 2151
3 2245 1386 2383
3 676 677 829
3 1004 2068 2069
3 1860 232 2487
3 1031 1033 1034
3 829 830 972
3 996 997 2408
3 1195 1194 2120
3 987 1869 2202
3 1410 1213 2222
3 819 820 2068
3 1485 1486 2173
3 1564 2030 2155
3 807 669 2529
3 129 261 2181
3 1525 1076 2145
3 578 577 2083
3 327 310 1987
3 1083 929 2197
3 2131 1324 2258
3 798 408 2084
3 1838 696 2426
3 1486 1500 1930
3 1946 1944 2291
3 2257 1077 2291
3 1512 1661 2266
3 445 388 2078
3 1192 1471 2260
3 2118 1415 2395
3 1466 1468 2158
3 830 677 831
3 211 2012 2251
3 652 601 2442
3 537 545 551
3 558 508 2102
3 198 2011 2128
3 1718 2280 2385
3 500 960 2102
3 1168 1169 1393
3 1127 971 2496
3 95 96 2309
3 2030 1565 2155
3 1919 1172 2273
3 977 860 2112
3 240 128 2181
3 294 762 2038
3 1800 1799 2195
3 712 789 2067
3 972 1749 2326
3 472 1683 2212
3 874 645 2133
3 551 2045 2201
3 2105 1043 2326
3 1957 1212 2301
3 1514 1856 2367
3 565 538 2167
3 373 370 2103
3 355 348 2196
3 1934 1272 2138
3 1934 426 2531
3 1881 1400 2481
3 2046 1851 2327
3 367 961 2103
3 1963 1152 2206
3 201 278 443
3 3 131 2444
3 31 1 2445
3 2035 441 2097
3 503 787 2198
3 1135 1849 1930
3 1534 1983 2306
3 2089 623 2150
3 687 704 2109
3 869 1351 2363
3 1302 1304 2205
3 955 1716 2484
3 1030 720 1031
3 1159 1318 2240
3 1228 1226 2281
3 947 918 2008
3 413 420 2084
3 785 879 2532
3 1041 947 1168
3 1468 2182 2323
3 1246 1234 2088
3 1730 1163 2372
3 542 555 2086
3 1599 631 2312
3 1146 1967 2174
3 1078 1136 2343
3 1515 1574 2180
3 2336 885 2469
3 1257 1243 2074
3 1347 1346 2279
3 2001 650 2206
3 1480 1601 2514
3 1029 1000 2184
3 1956 788 2336
3 1271 1261 2059
3 130 3 2444
3 1 32 2445
3 1570 1507 2197
3 1232 1255 2088
3 791 1642 2529
3 1601 1479 2269
3 1361 1362 2168
3 1634 1922 2281
3 765 2065 2190
3 2071 1158 2153
3 1699 1801 2289
3 832 831 833
3 1864 346 2344
3 456 476 2097
3 1855 828 2411
3 2065 1162 2190
3 1125 1192 2149
3 599 760 2083
3 361 765 2339
3 1731 2123 2241
3 1349 1181 1350
3 1443 1275 2251
3 1819 524 2429
3 1021 1045 2512
3 858 618 2132
3 1999 358 2338
3 368 292 2038
3 290 368 2135
3 803 331 2296
3 1112 1008 2152
3 56 1947 2313
3 555 979 2086
3 1469 1496 2182
3 1011 967 2107
3 248 2017 2288
3 1809 789 2425
3 960 453 2221
3 538 558 2167
3 1858 1187 2248
3 2246 1757 2526
3 902 905 2141
3 1851 1853 2327
3 1224 1222 2111
3 771 288 2135
3 1945 2153 2257
3 1420 1525 2489
3 1399 1123 2393
3 103 2025 2355
3 897 822 898
3 1861 940 2532
3 865 1125 2146
3 1675 2474 2522
3 1573 2157 2507
3 1632 1631 2382
3 551 601 602
3 527 503 2198
3 1708 805 2337
3 1059 1278 2372
3 2056 527 2198
3 860 861 2112
3 1668 2348 2398
3 255 2159 2265
3 1541 1542 2269
3 1428 2074 2227
3 1582 1583 2321
3 389 1774 2503
3 2004 226 2157
3 1777 397 2405
3 1368 1436 2254
3 1061 2409 2462
3 1071 930 2462
3 1126 901 2141
3 1194 1197 2120
3 1452 1952 2282
3 2116 1319 2482
3 105 106 2218
3 1981 1399 2393
3 2119 983 2143
3 444 1682 2461
3 2173 1648 2463
3 616 793 2132
3 1791 1190 2334
3 1826 1728 2259
3 602 652 653
3 1834 1292 2428
3 556 2201 2327
3 1014 1015 2385
3 1995 1287 2331
3 1193 1195 2189
3 816 1324 2131
3 879 1861 2532
3 593 1182 2133
3 1402 266 1742
3 2216 1323 2354
3 1660 1636 2502
3 620 955 2484
3 1162 1706 2190
3 1870 2113 2249
3 204 1680 1732
3 1909 2023 2420
3 217 72 2217
3 376 372 2430
3 905 1209 2141
3 1378 1381 2283
3 1236 1246 2227
3 286 771 2063
3 1635 2263 2502
3 100 101 2220
3 1139 898 1140
3 2114 1343 2136
3 442 284 2063
3 1772 2106 2414
3 1985 1755 2533
3 2192 1328 2315
3 1064 863 2146
3 1631 1637 2459
3 736 2049 2523
3 221 1906 2246
3 318 1983 2171
3 1496 2047 2182
3 1374 2139 2506
3 196 55 2313
3 2087 462 2134
3 676 653 677
3 2304 257 2491
3 1401 2324 2363
3 829 677 830
3 654 2223 2242
3 1187 977 2112
3 1463 1466 2200
3 2023 219 2516
3 1176 881 2215
3 513 471 2290
3 1812 459 2252
3 1386 1269 2199
3 291 758 2306
3 618 616 2132
3 278 280 2210
3 83 220 2289
3 82 83 2289
3 938 1057 2161
3 1189 986 1190
3 788 719 2336
3 1914 2001 2206
3 232 181 1652
3 1567 2062 2490
3 313 757 2495
3 622 619 2484
3 688 878 1320
3 1222 1626 2111
3 282 442 2079
3 1169 2008 2105
3 1966 1007 2308
3 2040 799 2237
3 1744 2229 2495
3 986 833 1063
3 2284 1605 2510
3 887 1961 2376
3 215 1624 2262
3 830 831 832
3 476 475 2224
3 439 451 2223
3 1932 1933 2380
3 2227 1246 2366
3 1212 1202 2301
3 1107 1110 2228
3 249 2010 2299
3 1983 293 2306
3 2055 1214 2237
3 1438 1372 2478
3 824 560 2156
3 2320 1866 2513
3 1351 1137 2374
3 868 2007 2232
3 2063 771 2064
3 1507 214 1508
3 1728 1727 2246
3 1045 1047 2348
3 1139 1140 2096
3 1648 1649 2463
3 1502 2302 2519
3 704 707 2109
3 2343 1136 2396
3 650 1963 2206
3 2153 895 2257
3 396 1958 2431
3 1379 1377 2288
3 2115 1471 2319
3 2033 987 2202
3 2239 1693 2518
3 2025 1488 2355
3 1209 2115 2319
3 523 524 2156
3 783 939 2243
3 376 1798 2497
3 2066 788 2193
3 1984 318 2172
3 425 427 2221
3 203 172 1847
3 446 457 2264
3 1312 2089 2150
3 2138 1272 2211
3 897 1139 2274
3 828 1819 2429
3 1249 1224 2111
3 666 667 2318
3 1371 1326 2194
3 2433 1499 2475
3 1272 1271 2211
3 1367 2254 2479
3 1386 2053 2383
3 2074 1238 2227
3 755 2148 2320
3 2117 1604 2428
3 475 514 2224
3 228 2187 2457
3 1868 1504 2520
3 1626 1218 2185
3 2123 1111 2241
3 1287 1049 2331
3 1280 687 2109
3 459 1814 2292
3 54 196 2402
3 863 865 2146
3 204 176 1680
3 514 2086 2224
3 1646 603 2398
3 112 197 2346
3 358 300 2338
3 1140 898 1141
3 1204 1335 2301
3 1016 2161 2438
3 909 1041 2175
3 1681 2448 2492
3 2252 459 2292
3 1992 868 2232
3 1035 1036 2235
3 1051 1295 2331
3 1836 1289 2242
3 1508 214 1859
3 247 53 2402
3 1016 938 2161
3 1408 856 2378
3 1466 2158 2200
3 725 885 2336
3 855 1450 2421
3 2023 1768 2420
3 1238 1236 2227
3 1679 202 2253
3 2107 1348 2233
3 1653 1431 2487
3 1946 2291 2343
3 2253 202 2329
3 1885 1312 2150
3 378 628 2390
3 2195 1383 2432
3 1520 1519 2480
3 1532 1733 2534
3 308 327 2278
3 953 951 2255
3 1213 1407 2222
3 1561 1563 2285
3 302 763 2338
3 1928 2033 2202
3 763 304 2345
3 832 833 986
3 1352 2040 2237
3 247 1881 2481
3 560 523 2156
3 335 339 2261
3 346 342 2344
3 201 443 1323
3 2301 1335 2466
3 323 320 2229
3 1136 2110 2396
3 1139 1977 2274
3 1809 1615 2423
3 1707 1791 2334
3 46 2019 2485
3 2064 1294 2238
3 1950 197 2404
3 2021 2022 2176
3 1949 245 2420
3 2044 2152 2207
3 1063 1154 1707
3 1012 1363 2406
3 280 2079 2210
3 2237 1214 2351
3 820 698 2318
3 1140 1141 1406
3 205 2021 2176
3 2043 786 2310
3 2145 1004 2446
3 707 1030 2109
3 1406 2460 2473
3 2137 1268 2226
3 16 2081 2260
3 567 2031 2219
3 2112 1064 2248
3 206 45 2485
3 2347 1462 2365
3 1650 1962 2362
3 453 425 2221
3 1209 907 2175
3 1111 1276 2241
3 2448 1145 2492
3 2051 2083 2243
3 59 60 2266
3 1402 1742 2530
3 831 677 2209
3 624 587 2276
3 238 174 1725
3 1011 2107 2233
3 468 2365 2412
3 2337 805 2371
3 254 1932 2380
3 1174 1398 2207
3 2140 111 2346
3 1381 2186 2283
3 1987 2037 2188
3 1740 559 2456
3 1773 391 2503
3 1335 1870 2249
3 1945 2257 2291
3 828 463 2411
3 1246 2088 2208
3 2060 798 2307
3 1773 1159 2240
3 1187 2112 2248
3 1352 2237 2351
3 2037 1322 2188
3 1941 1499 2433
3 2322 225 2510
3 1031 1034 2236
3 327 2188 2321
3 595 2032 2273
3 1464 1462 2347
3 1285 1992 2232
3 799 2055 2237
3 443 278 2210
3 784 874 2178
3 392 396 2431
3 191 95 2309
3 879 784 2178
3 524 511 2429
3 2128 2011 2270
3 895 896 2257
3 2206 1152 2324
3 318 2171 2172
3 2259 1549 2379
3 1214 1410 2351
3 306 308 2278
3 2022 251 2247
3 1757 1729 2309
3 1283 1918 2524
3 996 1706 2492
3 557 2044 2207
3 1798 1448 2364
3 1447 2250 2310
3 559 1750 2403
3 1363 1011 2233
3 1343 1168 2187
3 1407 2044 2256
3 1462 1460 2365
3 1995 2331 2458
3 327 1987 2188
3 2160 254 2380
3 1681 958 2287
3 2031 1160 2250
3 1600 689 2413
3 2219 1692 2239
3 1494 1675 2522
3 1281 1916 2448
3 907 909 2175
3 565 2167 2276
3 2241 1276 2275
3 1978 316 2443
3 2151 212 2350
3 203 1847 2104
3 2049 1481 2523
3 1961 1362 2376
3 2187 1393 2457
3 940 796 2532
3 2293 1349 2329
3 572 1897 2537
3 332 739 2282
3 2052 567 2239
3 1437 1370 2277
3 567 2219 2239
3 667 626 2452
3 1914 2206 2324
3 2243 939 2392
3 2136 1343 2187
3 257 1654 2530
3 1376 1378 2283
3 2076 1982 2272
3 2083 760 2243
3 1944 1945 2291
3 1771 1839 2359
3 1404 1403 2399
3 1875 1866 2320
3 1460 1337 2412
3 760 783 2243
3 1276 1366 2275
3 1428 2227 2366
3 1882 1605 2284
3 1739 1429 2459
3 2321 2188 2434
3 1328 1327 2315
3 798 2189 2307
3 2152 1174 2207
3 2182 1247 2323
3 1516 1514 2367
3 293 291 2306
3 556 537 2201
3 1298 1300 2314
3 1400 1399 2316
3 1649 2236 2463
3 833 831 2424
3 2127 2050 2333
3 1057 914 2328
3 1839 193 2359
3 761 1741 2258
3 1186 1970 2422
3 1429 2366 2382
3 2211 1271 2271
3 1733 1248 2534
3 13 2114 2136
3 2078 390 2431
3 1533 1536 2340
3 1690 2145 2446
3 1277 2308 2370
3 1168 1393 2187
3 1597 2047 2268
3 587 565 2276
3 1908 244 2401
3 225 125 2284
3 610 2130 2468
3 1749 2105 2326
3 1913 1914 2324
3 2366 2208 2382
3 1391 1876 2295
3 457 552 2264
3 653 688 2209
3 1601 2443 2514
3 682 2138 2211
3 992 1980 2244
3 55 56 2313
3 1645 1495 2493
3 473 477 2483
3 202 1724 2329
3 465 828 2429
3 1277 1966 2308
3 1416 2330 2406
3 1912 1364 2455
3 1716 1483 2375
3 2019 1651 2485
3 1725 2137 2226
3 201 1323 2216
3 878 1083 2213
3 2072 2073 2245
3 1563 1777 2405
3 244 2028 2401
3 2016 1564 2422
3 1682 1497 2461
3 1962 1153 2362
3 1298 2314 2358
3 1384 1385 2391
3 688 1320 2209
3 1587 2179 2435
3 786 380 2497
3 1395 1522 2341
3 2032 1919 2273
3 251 2013 2247
3 2219 2031 2250
3 2397 552 2453
3 1765 255 2489
3 2475 1825 2524
3 1202 1204 2301
3 445 2078 2411
3 323 2229 2296
3 1286 2384 2408
3 537 551 2201
3 1724 237 2293
3 84 85 2335
3 1471 1126 2319
3 1635 1634 2511
3 300 302 2338
3 698 666 2318
3 1030 1031 2236
3 2098 1457 2271
3 696 1821 2426
3 1457 1492 2447
3 1956 2336 2469
3 331 323 2296
3 1284 1491 2342
3 2011 1996 2270
3 256 183 2303
3 160 257 2304
3 2204 1589 2501
3 1891 1014 2280
3 719 725 2336
3 1354 1808 2381
3 437 430 2494
3 2377 218 2391
3 2211 2271 2447
3 1407 2256 2290
3 2365 1460 2412
3 2047 1498 2268
3 1825 1283 2524
3 1499 1825 2475
3 1226 1249 2281
3 2051 2243 2392
3 2250 1160 2310
3 111 112 2346
3 304 306 2345
3 1341 1352 2351
3 2166 191 2504
3 2223 1836 2242
3 1996 247 2481
3 1049 1051 2331
3 1086 1298 2358
3 2130 595 2273
3 1249 2111 2263
3 680 1995 2458
3 1511 2140 2346
3 102 103 2355
3 469 473 2453
3 961 2072 2245
3 2073 1282 2245
3 1442 1443 2525
3 74 192 2361
3 2163 1586 2435
3 1519 1518 2449
3 897 2274 2500
3 303 444 2317
3 1615 1614 2423
3 197 2009 2404
3 1634 2281 2511
3 1780 1781 2419
3 1435 1623 2465
3 1286 1774 2384
3 384 361 2339
3 193 1901 2359
3 1165 2433 2475
3 2277 1370 2386
3 677 653 2209
3 1994 1516 2367
3 1479 1478 2440
3 1165 1512 2433
3 1644 1353 2417
3 1711 1712 2353
3 2193 1615 2425
3 1613 1956 2469
3 1440 1173 2330
3 2269 1479 2440
3 222 2218 2465
3 391 389 2503
3 306 2278 2345
3 468 2090 2365
3 221 2246 2526
3 1445 1446 2504
3 939 1844 2392
3 86 87 2373
3 1429 1428 2366
3 2053 2103 2383
3 1348 1212 2312
3 805 750 2371
3 997 1286 2408
3 1152 869 2363
3 2063 2064 2238
3 192 1994 2367
3 1160 2043 2310
3 1926 2151 2350
3 2059 2098 2271
3 1897 1366 2537
3 215 2262 2437
3 1655 1732 2476
3 2415 1128 2454
3 1320 2213 2214
3 7 258 2357
3 259 155 2356
3 2171 1530 2172
3 347 351 2407
3 1077 1078 2343
3 239 2003 2279
3 1446 1128 2415
3 1034 1033 2410
3 601 627 2442
3 1154 1653 2234
3 397 2060 2405
3 2142 794 2272
3 442 2063 2238
3 1863 1215 2378
3 794 2076 2272
3 1883 1375 2505
3 1320 878 2213
3 342 468 2344
3 1903 218 2377
3 380 376 2497
3 1549 1547 2379
3 1148 1165 2475
3 2157 226 2507
3 829 972 2326
3 884 1957 2466
3 2291 1077 2343
3 65 66 2395
3 787 2052 2518
3 2298 1348 2312
3 1946 2343 2396
3 1653 256 2535
3 1842 1548 2472
3 1957 2301 2466
3 1366 1277 2370
3 2213 1432 2214
3 961 2245 2383
3 218 2093 2391
3 1376 2283 2421
3 1873 2127 2333
3 1019 1021 2512
3 1128 1127 2454
3 1104 1434 2450
3 2130 1439 2468
3 2396 2110 2482
3 2186 855 2283
3 1724 2293 2329
3 1163 1059 2372
3 1614 2389 2423
3 53 54 2402
3 1063 1707 2334
3 2283 855 2421
3 1385 1863 2436
3 364 1883 2505
3 517 1890 2387
3 1145 996 2492
3 1047 1287 2348
3 2148 1875 2320
3 205 2176 2416
3 1372 1844 2478
3 1211 2219 2250
3 1141 898 2368
3 245 1909 2420
3 2278 327 2321
3 2389 1397 2423
3 2256 513 2290
3 559 2403 2456
3 1137 1340 2374
3 2093 1384 2391
3 1918 1148 2524
3 1030 2236 2427
3 1867 1895 2513
3 2014 517 2387
3 2271 1457 2447
3 1143 2028 2353
3 1904 194 2432
3 1148 2475 2524
3 1574 1523 2436
3 2213 1083 2311
3 1997 358 2325
3 2139 246 2506
3 1370 1369 2386
3 1271 2059 2271
3 1034 2173 2463
3 1123 1412 2393
3 1578 1827 2515
3 2209 1320 2424
3 2079 1504 2210
3 1361 2168 2305
3 1491 1489 2403
3 238 1725 2226
3 1190 986 2334
3 1547 1545 2508
3 1891 1613 2469
3 1153 1885 2362
3 2208 1632 2382
3 2287 1281 2448
3 1356 1376 2421
3 1965 2349 2515
3 2155 1186 2422
3 1522 2014 2387
3 2158 1468 2323
3 2050 954 2333
3 1397 1809 2423
3 1362 1360 2376
3 1852 1985 2397
3 2069 1691 2446
3 789 2066 2425
3 1895 755 2513
3 1707 1154 2234
3 372 374 2430
3 2225 787 2518
3 2028 1206 2401
3 986 1063 2334
3 1912 726 2439
3 1340 1342 2400
3 1916 1145 2448
3 2236 1649 2427
3 2374 1340 2400
3 2222 1407 2290
3 2324 1152 2363
3 241 2220 2472
3 765 2190 2384
3 2375 667 2452
3 2330 1173 2406
3 1181 1972 2500
3 2126 1382 2388
3 1173 1012 2406
3 315 313 2495
3 1015 1373 2385
3 97 221 2526
3 1937 1397 2389
3 930 1061 2462
3 971 1096 2496
3 45 46 2485
3 669 791 2529
3 1104 2450 2521
3 382 378 2390
3 2191 1371 2536
3 2235 1036 2286
3 831 2209 2424
3 762 1997 2349
3 2379 1547 2508
3 2177 1359 2467
3 2403 1489 2456
3 796 785 2532
3 219 1902 2516
3 1519 2300 2480
3 1065 1655 2476
3 1375 1473 2505
3 1489 1490 2456
3 390 392 2431
3 2247 2013 2464
3 1135 1930 2369
3 2278 1583 2345
3 626 622 2452
3 631 2298 2312
3 2233 1348 2298
3 1398 1974 2499
3 1706 1681 2492
3 261 130 2444
3 32 260 2445
3 822 2099 2368
3 1365 1912 2439
3 941 940 2418
3 1446 2166 2504
3 2106 1121 2414
3 2300 1519 2449
3 1803 1104 2521
3 1732 1570 2476
3 1413 2051 2392
3 2122 1946 2396
3 2238 1868 2520
3 477 556 2483
3 2397 1985 2533
3 463 445 2411
3 2163 1185 2488
3 1126 2141 2319
3 1755 2264 2533
3 972 2204 2501
3 2230 1533 2340
3 1774 1773 2503
3 1997 2325 2349
3 1004 2069 2446
3 2159 31 2445
3 131 2160 2444
3 1371 2191 2451
3 1001 2154 2486
3 1682 2230 2340
3 2103 961 2383
3 1033 1151 2410
3 382 2390 2531
3 1504 2079 2520
3 1583 2278 2321
3 511 465 2429
3 250 2024 2479
3 2208 2088 2509
3 619 620 2484
3 1246 2208 2366
3 2141 1209 2319
3 1359 1413 2467
3 1295 1459 2458
3 2218 1435 2465
3 2281 1249 2511
3 2293 237 2354
3 2207 1398 2499
3 1564 2155 2422
3 552 469 2453
3 1947 224 2498
3 2062 1568 2490
3 2018 205 2416
3 260 2159 2445
3 2160 261 2444
3 2092 610 2468
3 194 2195 2432
3 1432 2213 2311
3 211 2251 2464
3 2378 856 2527
3 1536 1532 2534
3 2364 786 2497
3 2438 1438 2478
3 1185 1948 2488
3 2042 941 2418
3 1582 2321 2434
3 885 1891 2469
3 1364 2048 2455
3 1693 2225 2518
3 401 382 2531
3 1338 2247 2464
3 442 2238 2520
3 1292 2117 2428
3 2274 1350 2500
3 2066 2193 2425
3 2179 1184 2435
3 898 822 2368
3 2436 1863 2527
3 1844 1016 2478
3 2184 1001 2486
3 557 2207 2499
3 2013 211 2464
3 2254 250 2479
3 1350 1181 2500
3 2009 248 2470
3 246 2140 2506
3 1574 2436 2527
3 2139 1419 2517
3 316 1971 2514
3 1319 2122 2482
3 226 2006 2507
3 1400 2270 2481
3 1681 2287 2448
3 2325 1578 2349
3 232 1652 2487
3 1320 2214 2424
3 1632 2208 2509
3 248 2288 2470
3 1406 1141 2460
3 2188 1322 2434
3 2244 1980 2441
3 2088 1255 2509
3 1280 2109 2427
3 2060 2307 2405
3 2236 1034 2463
3 1745 2293 2354
3 2122 2396 2482
3 2109 1030 2427
3 2307 1563 2405
3 1429 2382 2459
3 224 2267 2498
3 682 2211 2447
3 2079 442 2520
3 2348 1287 2398
3 2220 1842 2472
3 1335 2249 2466
3 1249 2263 2511
3 443 2210 2519
3 2385 1373 2394
3 1594 2184 2486
3 2052 2239 2518
3 1568 2439 2490
3 2349 1578 2515
3 2344 468 2412
3 2270 1996 2481
3 1735 2244 2441
3 2260 1471 2477
3 2210 1504 2519
3 1434 2297 2450
3 2297 1419 2450
3 2263 1660 2502
3 2404 2009 2470
3 1718 2385 2394
3 1371 2194 2536
3 2317 444 2461
3 1443 2322 2525
3 1716 2375 2452
3 1863 2378 2527
3 2439 726 2490
3 1057 2328 2451
3 1638 2404 2470
3 1454 2234 2535
3 755 2320 2513
3 2234 1653 2535
3 2264 552 2533
3 1419 2297 2517
3 1392 2322 2510
3 552 2397 2533
3 1798 2364 2497
3 2322 1392 2525
3 2382 1631 2459
3 1016 2438 2478
3 1366 2370 2537
3 1742 2491 2530
3 2491 257 2530
CELL_TYPES 4886
5
5
5
5
5
5
5
5
5
5
5
5
5
5
5
5
5
5
5
5
5
5
5
5
5
5
5
5
5
5
5
5
5
5
5
5
5
5
5
5
5
5
5
5
5
5
5
5
5
5
5
5
5
5
5
5
5
5
5
5
5
5
5
5
5
5
5
5
5
5
5
5
5
5
5
5
5
5
5
5
5
5
5
5
5
5
5
5
5
5
5
5
5
5
5
5
5
5
5
5
5
5
5
5
5
5
5
5
5
5
5
5
5
5
5
5
5
5
5
5
5
5
5
5
5
5
5
5
5
5
5
5
5
5
5
5
5
5
5
5
5
5
5
5
5
5
5
5
5
5
5
5
5
5
5
5
5
5
5
5
5
5
5
5
5
5
5
5
5
5
5
5
5
5
5
5
5
5
5
5
5
5
5
5
5
5
5
5
5
5
5
5
5
5
5
5
5
5
5
5
5
5
5
5
5
5
5
5
5
5
5
5
5
5
5
5
5
5
5
5
5
5
5
5
5
5
5
5
5
5
5
5
5
5
5
5
5
5
5
5
5
5
5
5
5
5
5
5
5
5
5
5
5
5
5
5
5
5
5
5
5
5
5
5
5
5
5
5
5
5
5
5
5
5
5
5
5
5
5
5
5
5
5
5
5
5
5
5
5
5
5
5
5
5
5
5
5
5
5
5
5
5
5
5
5
5
5
5
5
5
5
5
5
5
5
5
5
5
5
5
5
5
5
5
5
5
5
5
5
5
5
5
5
5
5
5
5
5
5
5
5
5
5
5
5
5
5
5
5
5
5
5
5
5
5
5
5
5
5
5
5
5
5
5
5
5
5
5
5
5
5
5
5
5
5
5
5
5
5
5
5
5
5
5
5
5
5
5
5
5
5
5
5
5
5
5
5
5
5
5
5
5
5
5
5
5
5
5
5
5
5
5
5
5
5
5
5
5
5
5
5
5
5
5
5
5
5
5
5
5
5
5
5
5
5
5
5
5
5
5
5
5
5
5
5
5
5
5
5
5
5
5
5
5
5
5
5
5
5
5
5
5
5
5
5
5
5
5
5
5
5
5
5
5
5
5
5
5
5
5
5
5
5
5
5
5
5
5
5
5
5
5
5
5
5
5
5
5
5
5
5
5
5
5
5
5
5
5
5
5
5
5
5
5
5
5
5
5
5
5
5
5
5
5
5
5
5
5
5
5
5
5
5
5
5
5
5
5
5
5
5
5
5
5
5
5
5
5
5
5
5
5
5
5
5
5
5
5
5
5
5
5
5
5
5
5
5
5
5
5
5
5
5
5
5
5
5
5
5
5
5
5
5
5
5
5
5
5
5
5
5
5
5
5
5
5
5
5
5
5
5
5
5
5
5
5
5
5
5
5
5
5
5
5
5
5
5
5
5
5
5
5
5
5
5
5
5
5
5
5
5
5
5
5
5
5
5
5
5
5
5
5
5
5
5
5
5
5
5
5
5
5
5
5
5
5
5
5
5
5
5
5
5
5
5
5
5
5
5
5
5
5
5
5
5
5
5
5
5
5
5
5
5
5
5
5
5
5
5
5
5
5
5
5
5
5
5
5
5
5
5
5
5
5
5
5
5
5
5
5
5
5
5
5
5
5
5
5
5
5
5
5
5
5
5
5
5
5
5
5
5
5
5
5
5
5
5
5
5
5
5
5
5
5
5
5
5
5
5
5
5
5
5
5
5
5
5
5
5
5
5
5
5
5
5
5
5
5
5
5
5
5
5
5
5
5
5
5
5
5
5
5
5
5
5
5
5
5
5
5
5
5
5
5
5
5
5
5
5
5
5
5
5
5
5
5
5
5
5
5
5
5
5
5
5
5
5
5
5
5
5
5
5
5
5
5
5
5
5
5
5
5
5
5
5
5
5
5
5
5
5
5
5
5
5
5
5
5
5
5
5
5
5
5
5
5
5
5
5
5
5
5
5
5
5
5
5
5
5
5
5
5
5
5
5
5
5
5
5
5
5
5
5
5
5
5
5
5
5
5
5
5
5
5
5
5
5
5
5
5
5
5
5
5
5
5
5
5
5
5
5
5
5
5
5
5
5
5
5
5
5
5
5
5
5
5
5
5
5
5
5
5
5
5
5
5
5
5
5
5
5
5
5
5
5
5
5
5
5
5
5
5
5
5
5
5
5
5
5
5
5
5
5
5
5
5
5
5
5
5
5
5
5
5
5
5
5
5
5
5
5
5
5
5
5
5
5
5
5
5
5
5
5
5
5
5
5
5
5
5
5
5
5
5
5
5
5
5
5
5
5
5
5
5
5
5
5
5
5
5
5
5
5
5
5
5
5
5
5
5
5
5
5
5
5
5
5
5
5
5
5
5
5
5
5
5
5
5
5
5
5
5
5
5
5
5
5
5
5
5
5
5
5
5
5
5
5
5
5
5
5
5
5
5
5
5
5
5
5
5
5
5
5
5
5
5
5
5
5
5
5
5
5
5
5
5
5
5
5
5
5
5
5
5
5
5
5
5
5
5
5
5
5
5
5
5
5
5
5
5
5
5
5
5
5
5
5
5
5
5
5
5
5
5
5
5
5
5
5
5
5
5
5
5
5
5
5
5
5
5
5
5
5
5
5
5
5
5
5
5
5
5
5
5
5
5
5
5
5
5
5
5
5
5
5
5
5
5
5
5
5
5
5
5
5
5
5
5
5
5
5
5
5
5
5
5
5
5
5
5
5
5
5
5
5
5
5
5
5
5
5
5
5
5
5
5
5
5
5
5
5
5
5
5
5
5
5
5
5
5
5
5
5
5
5
5
5
5
5
5
5
5
5
5
5
5
5
5
5
5
5
5
5
5
5
5
5
5
5
5
5
5
5
5
5
5
5
5
5
5
5
5
5
5
5
5
5
5
5
5
5
5
5
5
5
5
5
5
5
5
5
5
5
5
5
5
5
5
5
5
5
5
5
5
5
5
5
5
5
5
5
5
5
5
5
5
5
5
5
5
5
5
5
5
5
5
5
5
5
5
5
5
5
5
5
5
5
5
5
5
5
5
5
5
5
5
5
5
5
5
5
5
5
5
5
5
5
5
5
5
5
5
5
5
5
5
5
5
5
5
5
5
5
5
5
5
5
5
5
5
5
5
5
5
5
5
5
5
5
5
5
5
5
5
5
5
5
5
5
5
5
5
5
5
5
5
5
5
5
5
5
5
5
5
5
5
5
5
5
5
5
5
5
5
5
5
5
5
5
5
5
5
5
5
5
5
5
5
5
5
5
5
5
5
5
5
5
5
5
5
5
5
5
5
5
5
5
5
5
5
5
5
5
5
5
5
5
5
5
5
5
5
5
5
5
5
5
5
5
5
5
5
5
5
5
5
5
5
5
5
5
5
5
5
5
5
5
5
5
5
5
5
5
5
5
5
5
5
5
5
5
5
5
5
5
5
5
5
5
5
5
5
5
5
5
5
5
5
5
5
5
5
5
5
5
5
5
5
5
5
5
5
5
5
5
5
5
5
5
5
5
5
5
5
5
5
5
5
5
5
5
5
5
5
5
5
5
5
5
5
5
5
5
5
5
5
5
5
5
5
5
5
5
5
5
5
5
5
5
5
5
5
5
5
5
5
5
5
5
5
5
5
5
5
5
5
5
5
5
5
5
5
5
5
5
5
5
5
5
5
5
5
5
5
5
5
5
5
5
5
5
5
5
5
5
5
5
5
5
5
5
5
5
5
5
5
5
5
5
5
5
5
5
5
5
5
5
5
5
5
5
5
5
5
5
5
5
5
5
5
5
5
5
5
5
5
5
5
5
5
5
5
5
5
5
5
5
5
5
5
5
5
5
5
5
5
5
5
5
5
5
5
5
5
5
5
5
5
5
5
5
5
5
5
5
5
5
5
5
5
5
5
5
5
5
5
5
5
5
5
5
5
5
5
5
5
5
5
5
5
5
5
5
5
5
5
5
5
5
5
5
5
5
5
5
5
5
5
5
5
5
5
5
5
5
5
5
5
5
5
5
5
5
5
5
5
5
5
5
5
5
5
5
5
5
5
5
5
5
5
5
5
5
5
5
5
5
5
5
5
5
5
5
5
5
5
5
5
5
5
5
5
5
5
5
5
5
5
5
5
5
5
5
5
5
5
5
5
5
5
5
5
5
5
5
5
5
5
5
5
5
5
5
5
5
5
5
5
5
5
5
5
5
5
5
5
5
5
5
5
5
5
5
5
5
5
5
5
5
5
5
5
5
5
5
5
5
5
5
5
5
5
5
5
5
5
5
5
5
5
5
5
5
5
5
5
5
5
5
5
5
5
5
5
5
5
5
5
5
5
5
5
5
5
5
5
5
5
5
5
5
5
5
5
5
5
5
5
5
5
5
5
5
5
5
5
5
5
5
5
5
5
5
5
5
5
5
5
5
5
5
5
5
5
5
5
5
5
5
5
5
5
5
5
5
5
5
5
5
5
5
5
5
5
5
5
5
5
5
5
5
5
5
5
5
5
5
5
5
5
5
5
5
5
5
5
5
5
5
5
5
5
5
5
5
5
5
5
5
5
5
5
5
5
5
5
5
5
5
5
5
5
5
5
5
5
5
5
5
5
5
5
5
5
5
5
5
5
5
5
5
5
5
5
5
5
5
5
5
5
5
5
5
5
5
5
5
5
5
5
5
5
5
5
5
5
5
5
5
5
5
5
5
5
5
5
5
5
5
5
5
5
5
5
5
5
5
5
5
5
5
5
5
5
5
5
5
5
5
5
5
5
5
5
5
5
5
5
5
5
5
5
5
5
5
5
5
5
5
5
5
5
5
5
5
5
5
5
5
5
5
5
5
5
5
5
5
5
5
5
5
5
5
5
5
5
5
5
5
5
5
5
5
5
5
5
5
5
5
5
5
5
5
5
5
5
5
5
5
5
5
5
5
5
5
5
5
5
5
5
5
5
5
5
5
5
5
5
5
5
5
5
5
5
5
5
5
5
5
5
5
5
5
5
5
5
5
5
5
5
5
5
5
5
5
5
5
5
5
5
5
5
5
5
5
5
5
5
5
5
5
5
5
5
5
5
5
5
5
5
5
5
5
5
5
5
5
5
5
5
5
5
5
5
5
5
5
5
5
5
5
5
5
5
5
5
5
5
5
5
5
5
5
5
5
5
5
5
5
5
5
5
5
5
5
5
5
5
5
5
5
5
5
5
5
5
5
5
5
5
5
5
5
5
5
5
5
5
5
5
5
5
5
5
5
5
5
5
5
5
5
5
5
5
5
5
5
5
5
5
5
5
5
5
5
5
5
5
5
5
5
5
5
5
5
5
5
5
5
5
5
5
5
5
5
5
5
5
5
5
5
5
5
5
5
5
5
5
5
5
5
5
5
5
5
5
5
5
5
5
5
5
5
5
5
5
5
5
5
5
5
5
5
5
5
5
5
5
5
5
5
5
5
5
5
5
5
5
5
5
5
5
5
5
5
5
5
5
5
5
5
5
5
5
5
5
5
5
5
5
5
5
5
5
5
5
5
5
5
5
5
5
5
5
5
5
5
5
5
5
5
5
5
5
5
5
5
5
5
5
5
5
5
5
5
5
5
5
5
5
5
5
5
5
5
5
5
5
5
5
5
5
5
5
5
5
5
5
5
5
5
5
5
5
5
5
5
5
5
5
5
5
5
5
5
5
5
5
5
5
5
5
5
5
5
5
5
5
5
5
5
5
5
5
5
5
5
5
5
5
5
5
5
5
5
5
5
5
5
5
5
5
5
5
5
5
5
5
5
5
5
5
5
5
5
5
5
5
5
5
5
5
5
5
5
5
5
5
5
5
5
5
5
5
5
5
5
5
5
5
5
5
5
5
5
5
5
5
5
5
5
5
5
5
5
5
5
5
5
5
5
5
5
5
5
5
5
5
5
5
5
5
5
5
5
5
5
5
5
5
5
5
5
5
5
5
5
5
5
5
5
5
5
5
5
5
5
5
5
5
5
5
5
5
5
5
5
5
5
5
5
5
5
5
5
5
5
5
5
5
5
5
5
5
5
5
5
5
5
5
5
5
5
5
5
5
5
5
5
5
5
5
5
5
5
5
5
5
5
5
5
5
5
5
5
5
5
5
5
5
5
5
5
5
5
5
5
5
5
5
5
5
5
5
5
5
5
5
5
5
5
5
5
5
5
5
5
5
5
5
5
5
5
5
5
5
5
5
5
5
5
5
5
5
5
5
5
5
5
5
5
5
5
5
5
5
5
5
5
5
5
5
5
5
5
5
5
5
5
5
5
5
5
5
5
5
5
5
5
5
5
5
5
5
5
5
5
5
5
5
5
5
5
5
5
5
5
5
5
5
5
5
5
5
5
5
5
5
5
5
5
5
5
5
5
5
5
5
5
5
5
5
5
5
5
5
5
5
5
5
5
5
5
5
5
5
5
5
5
5
5
5
5
5
5
5
5
5
5
5
5
5
5
5
5
5
5
5
5
5
5
5
5
5
5
5
5
5
5
5
5
5
5
5
5
5
5
5
5
5
5
5
5
5
5
5
5
5
5
5
5
5
5
5
5
5
5
5
5
5
5
5
5
5
5
5
5
5
5
5
5
5
5
5
5
5
5
5
5
5
5
5
5
5
5
5
5
5
5
5
5
5
5
5
5
5
5
5
5
5
5
5
5
5
5
5
5
5
5
5
5
5
5
5
5
5
5
5
5
5
5
5
5
5
5
5
5
5
5
5
5
5
5
5
5
5
5
5
5
5
5
5
5
5
5
5
5
5
5
5
5
5
5
5
5
5
5
5
5
5
5
5
5
5
5
5
5
5
5
5
5
5
5
5
5
5
5
5
5
5
5
5
5
5
5
5
5
5
5
5
5
5
5
5
5
5
5
5
5
5
5
5
5
5
5
5
5
5
5
5
5
5
5
5
5
5
5
5
5
5
5
5
5
5
5
5
5
5
5
5
5
5
5
5
5
5
5
5
5
5
5
5
5
5
5
5
5
5
5
5
5
5
5
5
5
5
5
5
5
5
5
5
5
5
5
5
5
5
5
5
5
5
5
5
5
5
5
5
5
5
5
5
5
5
5
5
5
5
5
5
5
5
5
5
5
5
5
5
5
5
5
5
5
5
5
5
5
5
5
5
5
5
5
5
5
5
5
5
5
5
5
5
5
5
5
5
5
5
5
5
5
5
5
5
5
5
5
5
5
5
5
5
5
5
5
5
5
5
5
5
5
5
5
5
5
5
5
5
5
5
5
5
5
5
5
5
5
5
5
5
5
5
5
5
5
5
5
5
5
5
5
5
5
5
5
5
5
5
5
5
5
5
5
5
5
5
5
5
5
5
5
5
5
5
5
5
5
5
5
5
5
5
5
5
5
5
5
5
5
5
5
5
5
5
5
5
5
5
5
5
5
5
5
5
5
5
5
5
5
5
5
5
5
5
5
5
5
5
5
5
5
5
5
5
5
5
5
5
5
5
5
5
5
5
5
5
5
5
5
5
5
5
5
5
5
5
5
5
5
5
5
5
5
5
5
5
5
5
5
5
5
5
5
5
5
5
5
5
5
5
5
5
5
5
5
5
5
5
5
5
5
5
5
5
5
5
5
5
5
5
5
5
5
5
5
5
5
5
5
5
5
5
5
5
5
5
5
5
5
5
5
5
5
5
5
5
5
5
5
5
5
5
5
5
5
5
5
5
5
5
5
5
5
5
5
5
5
5
5
5
5
5
5
5
5
5
5
5
5
5
5
5
5
5
5
5
5
5
5
5
5
5
5
5
5
5
5
5
5
5
5
5
5
5
5
5
5
5
5
5
5
5
5
5
5
5
5
5
5
5
5
5
5
5
5
5
5
5
5
5
5
5
5
5
5
5
5
5
5
5
5
5
5
5
5
5
5
5
5
5
5
5
5
5
5
5
5
5
5
5
5
5
5
5
5
5
5
5
5
5
5
5
5
5
5
5
5
5
5
5
5
5
5
5
5
5
5
5
5
5
5
5
5
5
5
5
5
5
5
5
5
5
5
5
5
5
5
5
5
5
5
5
5
5
5
5
5
5
5
5
5
5
5
5
5
5
5
5
5
5
5
5
5
5
5
5
5
5
5
5
5
5
5
5
5
5
5
5
5
5
5
5
5
5
5
5
5
5
5
5
5
5
5
5
5
5
5
5
5
5
5
5
5
5
5
5
5
5
5
5
5
5
5
5
5
5
5
5
5
5
5
5
5
5
5
5
5
5
5
5
5
5
5
5
5
5
5
5
5
5
5
5
5
5
5
5
5
5
5
5
5
5
5
5
5
5
5
5
5
5
5
5
5
5
5
5
5
5
5
5
5
5
5
5
5
5
5
5
5
5
5
5
5
5
5
5
5
5
5
5
5
5
5
5
5
5
5
5
5
5
5
5
5
5
5
5
5
5
5
5
5
5
5
5
5
5
5
5
5
5
5
5
5
5
5
5
5
5
5
5
5
5
5
5
5
5
5
5
5
5
5
5
5
5
5
5
5
5
5
5
5
5
5
5
5
5
5
5
5
5
5
5
5
5
5
5
5
5
5
5
5
5
5
5
5
5
5
5
5
5
5
5
5
5
5
5
5
5
5
5
5
5
5
5
5
5
5
5
5
5
5
5
5
5
5
5
5
5
5
5
5
5
5
5
5
5
5
5
5
5
5
5
5
5
5
5
5
5
5
5
5
5
5
5
5
5
5
5
5
5
5
5
5
5
5
5
5
5
5
5
5
5
5
5
5
5
5
5
5
5
5
5
5
5
5
5
5
5
5
5
5
5
5
5
5
5
5
5
5
5
5
5
5
5
5
5
5
5
5
5
5
5
5
5
5
5
5
5
5
5
5
5
5
5
5
5
5
5
5
5
5
5
5
5
5
5
5
5
5
5
5
5
5
5
5
5
5
5
5
5
5
5
5
5
5
5
5
5
5
5
5
5
5
5
5
5
5
5
5
5
5
5
5
5
5
5
5
5
5
5
5
5
5
5
5
5
5
5
5
5
5
5
5
5
5
5
5
5
5
5
5
5
5
5
5
5
5
5
5
5
5
5
5
5
5
5
5
5
5
5
5
5
5
5
5
5
5
5
5
5
5
5
5
5
5
5
5
5
5
5
5
5
5
5
5
5
5
5
5
5
5
5
5
5
5
5
5
5
5
5
5
5
5
5
5
5
5
5
5
5
5
5
5
5
5
5
5
5
5
5
5
5
5
5
5
5
5
5
5
5
5
5
5
5
5
5
5
5
5
5
5
5
5
5
5
5
5
5
5
5
5
5
5
5
5
5
5
5
5
5
5
5
5
5
5
5
5
5
5
5
5
5
5
5
5
5
5
5
5
5
5
5
5
5
5
5
5
5
5
5
5
5
5
5
5
5
5
5
5
5
5
5
5
5
5
5
5
5
5
5
5
5
5
5
5
5
5
5
5
5
5
5
5
5
5
5
5
5
5
5
5
5
5
5
5
5
5
5
5
5
5
5
5
5
5
5
5
5
5
5
5
5
5
5
5
5
5
5
5
5
5
5
5
5
5
5
5
5
5
5
5
5
5
5
5
5
5
5
5
5
5
5
5
5
5
5
5
5
5
5
5
5
5
5
5
5
5
5
5
5
5
5
5
5
5
5
5
5
5
5
5
5
5
5
5
5
5
5
5
5
5
5
5
5
5
5
5
5
5
5
5
5
5
5
5
5
5
5
5
5
5
5
5
5
5
5
5
5
5
5
5
5
5
5
5
5
5
5
5
5
5
5
5
5
5
5
5
5
5
5
5
5
5
5
5
5
5
5
5
5
5
5
5
5
5
5
5
5
5
5
5
5
5
5
5
5
5
5
5
5
5
5
5
5
5
5
5
5
5
5
5
5
5
5
5
5
5
5
5
5
5
5
5
5
5
5
5
5
5
5
5
5
5
5
5
5
5
5
5
5
5
5
5
5
5
5
5
5
5
5
5
5
5
5
5
5
5
5
5
5
5
5
5
5
5
5
5
5
5
5
5
5
5
5
5
5
5
5
5
5
5
5
5
5
5
5
5
5
5
5
5
5
5
5
5
5
5
5
5
5
5
5
5
5
5
5
5
5
5
5
5
5
5
5
5
5
5
5
5
5
5
5
5
5
5
5
5
5
5
5
5
5
5
5
5
5
5
5
5
5
5
5
5
5
5
5
5
5
5
5
5
5
5
5
5
5
5
5
5
5
5
5
5
5
5
5
5
5
5
5
5
5
5
5
5
5
5
5
5
5
5
5
5
5
5
5
5
5
5
5
5
5
5
5
5
5
5
5
5
5
5
5
5
5
5
5
5
5
5
5
5
5
5
5
5
5
5
5
5
5
5
5
5
5
5
5
5
5
5
5
5
5
5
5
5
5
5
5
5
5
5
5
5
5
5
5
5
5
5
5
5
5
5
5
5
5
5
5
5
5
5
5
5
5
5
5
5
5
5
5
5
5
5
5
5
5
5
5
5
5
5
5
5
5
5
5
5
5
5
5
5
5
5
5
5
5
5
5
5
5
5
5
5
5
5
5
5
5
5
5
5
5
5
5
5
5
5
5
5
5
5
5
5
5
5
5
5
5
5
5
5
5
5
5
5
5
5
5
5
5
5
5
5
5
5
5
5
5
5
5
5
5
5
5
5
5
5
5
5
5
5
5
5
5
5
5
5
5
5
5
5
5
5
5
5
5
5
5
5
5
5
5
5
5
5
5
5
5
5
5
5
5
5
5
5
5
5
5
5
5
5
5
5
5
5
5
5
5
5
5
5
5
5
5
5
5
5
5
5
5
5
5
5
5
5
5
5
5
5
5
5
5
5
5
5
5
5
5
5
5
5
5
5
5
5
5
5
5
5
5
5
5
5
5
5
5
5
5
5
5
5
5
5
5
5
5
5
5
5
5
5
5
5
5
5
5
5
5
5
5
5
5
5
5
5
5
5
5
5
5
5
5
5
5
5
5
5
5
5
5
5
5
5
5
5
5
5
5
5
5
5
5
5
5
5
5
5
5
5
5
5
5
5
5
5
5
5
5
5
5
5
5
5
5
5
5
POINT_DATA 2538
VECTORS disp float
1.6710362112211795e-11 4.091349547104954e-11 0.0
3.345682920292403e-11 -9.09157201506983e-11 0.0
0.003799999988226441 3.008758739270375e-11 0.0
0.0037999999644921507 -9.763828351768421e-11 0.0
0.0012556697599333845 0.0005162471530636628 0.0
0.002748371815746902 0.0002760625905654239 0.0
0.0018696519631330923 0.00010593235122446164 0.0
4.070720374459516e-12 2.5717792200496634e-12 0.0
7.767217734902893e-12 8.972375571855888e-12 0.0
6.912625157439604e-12 5.214223732125217e-12 0.0
6.631194960441552e-12 4.798242022579724e-12 0.0
6.04142223293159e-12 3.4493347230633607e-12 0.0
5.5610888340734506e-12 2.3456721338774276e-12 0.0
5.1157816768946915e-12 1.251855179280784e-12 0.0
4.771806917480741e-12 9.066206222069913e-14 0.0
4.12628328804435e-12 -1.1827912378997386e-12 0.0
4.3784103641529055e-12 -2.343247620087586e-12 0.0
4.215496536880775e-12 -3.711612687830401e-12 0.0
4.269469300250289e-12 -5.186435109409105e-12 0.0
4.457588901464157e-12 -6.670149644994895e-12 0.0
4.460045041951845e-12 -8.050341216893323e-12 0.0
4.7869178425886264e-12 -9.709497994108279e-12 0.0
4.827565578835354e-12 -1.1073696230835156e-11 0.0
5.141438764646757e-12 -1.2707165773839815e-11 0.0
5.298261138486644e-12 -1.4532615899091615e-11 0.0
5.5600427745813135e-12 -1.6262140687112867e-11 0.0
5.874911227457783e-12 -1.835361097082796e-11 0.0
6.280817825524038e-12 -2.0712026203097868e-11 0.0
6.972925967551796e-12 -2.3621623662924326e-11 0.0
7.071832248564324e-12 -2.6730630587436635e-11 0.0
9.714615314659574e-12 -3.4067800862809286e-11 0.0
4.401005600794063e-12 -3.095868809196353e-11 0.0
4.78509842785264e-5 -6.198265999754815e-5 0.0
8.297540005046537e-5 -0.00010654599505792868 0.0
0.00011700981005825123 -0.00014528160924043244 0.0
0.0001495385598807861 -0.00018040999168576318 0.0
0.00018100341651228858 -0.00021303170892616053 0.0
0.00021203954853303051 -0.00024400200969949565 0.0
0.00024315768761272701 -0.00027343963661458017 0.0
0.00027406445626895423 -0.00030159305461716903 0.0
0.00030503163323886053 -0.0003287244950951651 0.0
0.00033613899046565685 -0.0003548329061102298 0.0
0.0003674012027126671 -0.0003801476263113466 0.0
0.0003990597576117529 -0.0004046710013524826 0.0
0.0004308758575211085 -0.00042840424527295533 0.0
0.0004630055813313462 -0.0004515309735965387 0.0
0.0004956436692955309 -0.0004739982083151966 0.0
0.0005284360925150692 -0.0004957852060749076 0.0
0.0005616141342469312 -0.000517023520691515 0.0
0.00059517020333252 -0.0005376043050678348 0.0
0.0006290757271730393 -0.0005576473502519135 0.0
0.0006633483235565896 -0.0005771455114729674 0.0
0.0006980308465346991 -0.0005961000607516692 0.0
0.0007330393589485736 -0.000614499418867433 0.0
0.0007685865548372914 -0.0006324253132610896 0.0
0.0008043278748438794 -0.0006497770814470872 0.0
0.000840655461424399 -0.0006666413224111347 0.0
0.0008771476270213819 -0.0006829319226576992 0.0
0.0009140889050815496 -0.0006987458505237694 0.0
0.0009513241817870399 -0.000713977271251108 0.0
0.00098907271514498 -0.0007287495811061067 0.0
0.0010269593638007099 -0.000742977795294287 0.0
0.0010653576129064722 -0.0007567268649503361 0.0
0.0011040275750637638 -0.0007698968425504246 0.0
0.0011430678997749898 -0.000782571508009461 0.0
0.0011823369933468086 -0.0007946908758511013 0.0
0.001222073305549802 -0.0008063152741279799 0.0
0.0012619207487116859 -0.0008173455490668578 0.0
0.0013021241691341134 -0.0008278498413394446 0.0
0.0013425331772107234 -0.0008377321580597314 0.0
0.0013832208403929088 -0.0008470184733496349 0.0
0.0014241242429688492 -0.0008558040966282146 0.0
0.0014652072513141987 -0.0008639244158336067 0.0
0.0015065704760207875 -0.0008715398889114985 0.0
0.0015481391008322486 -0.0008785179851519108 0.0
0.0015898214709157022 -0.0008849808299347772 0.0
0.0016317147785365163 -0.0008907511577164119 0.0
0.0016735870971481652 -0.0008959841959826577 0.0
0.0017156632579293396 -0.0009006385547947689 0.0
0.00175775365005808 -0.0009046373142578923 0.0
0.00179989699301366 -0.0009081151178078317 0.0
0.0018421913105927787 -0.0009109346704980148 0.0
0.0018841289863794114 -0.0009130132087370877 0.0
0.001926467414088945 -0.0009145973292692717 0.0
0.0019679759931790666 -0.000915427440312762 0.0
0.0020099108356161424 -0.0009156853506821829 0.0
0.0020499572195019555 -0.0009148503300406452 0.0
0.002091431718829179 -0.0009134910221297107 0.0
0.002131397998473634 -0.0009114902978793998 0.0
0.0021711209360156026 -0.0009083266171740106 0.0
0.002210727935234584 -0.0009045605705425969 0.0
0.0022502002287187696 -0.0008993279098224771 0.0
0.002289444514596282 -0.000893326933759003 0.0
0.0023287786305089013 -0.0008859706490151653 0.0
0.0023685277917369785 -0.0008777549249000305 0.0
0.0024082262501337044 -0.0008681180865145937 0.0
0.002448462587709757 -0.0008575763158141307 0.0
0.0024888675906545215 -0.0008462192426600717 0.0
0.002529019718180296 -0.0008339614134923149 0.0
0.0025693204367629847 -0.000821110207190728 0.0
0.002609740552149714 -0.0008075184101373024 0.0
0.0026501413175045326 -0.0007932248922116499 0.0
0.002690237087432708 -0.0007783778631819295 0.0
0.0027304710439410955 -0.0007628053453609754 0.0
0.0027702892773395537 -0.0007466462787760526 0.0
0.0028099098160794572 -0.0007300465888320471 0.0
0.0028494991703150886 -0.0007127359651250276 0.0
0.0028886205831647007 -0.0006949624371092476 0.0
0.00292759471534046 -0.0006766230269485931 0.0
0.0029662489138954375 -0.0006577309692209249 0.0
0.003004755485938928 -0.0006382789011087795 0.0
0.0030429840417528567 -0.0006181944573989376 0.0
0.003080950890365635 -0.0005975109267954668 0.0
0.003118460520479994 -0.0005762902492351486 0.0
0.0031557943697680425 -0.0005544913282115556 0.0
0.003192934042682041 -0.0005320236885167511 0.0
0.0032297086059161566 -0.0005089241929720102 0.0
0.003266308903310181 -0.0004852232849039833 0.0
0.0033028514790187447 -0.0004607255800192728 0.0
0.003339066042084439 -0.0004354648826986431 0.0
0.003375035917464314 -0.00040949284924934453 0.0
0.0034110792791651225 -0.00038264111005894896 0.0
0.003447175857125514 -0.0003547619393175599 0.0
0.0034831178864479463 -0.00032579820436787763 0.0
0.0035190030601263207 -0.00029571122453742125 0.0
0.0035551296304470728 -0.0002642275789060465 0.0
0.003591940895983679 -0.00023097481480033525 0.0
0.003628955440064943 -0.00019571995740203397 0.0
0.0036665976508495402 -0.00015764348561897326 0.0
0.0037065500978318397 -0.0001153976456431483 0.0
0.0037475661065175334 -6.683411542823426e-5 0.0
0.003799999994992725 -2.9515163726474195e-11 0.0
0.0037999999892921327 -3.2687702648925915e-11 0.0
0.003799999992528493 -2.2255308189148995e-11 0.0
0.00379999999255268 -1.96191872607082e-11 0.0
0.0037999999930840734 -1.653165142813587e-11 0.0
0.003799999993426319 -1.4259948748960764e-11 0.0
0.003799999993567857 -1.2534520473896697e-11 0.0
0.0037999999938178562 -1.098467869177787e-11 0.0
0.003799999993909574 -9.559244150432632e-12 0.0
0.0037999999940845626 -8.18139268049154e-12 0.0
0.0037999999943494262 -7.068124335823461e-12 0.0
0.00379999999440084 -5.627132251279918e-12 0.0
0.003799999994550756 -4.5471386134990455e-12 0.0
0.0037999999946770843 -3.281405650517698e-12 0.0
0.003799999994737224 -2.068855954049714e-12 0.0
0.003799999994738759 -7.695840482059243e-13 0.0
0.0037999999947782685 5.21257844949295e-13 0.0
0.003799999994292508 1.9951270740735946e-12 0.0
0.0037999999946533767 3.1941601781078136e-12 0.0
0.003799999993837855 4.738237521913201e-12 0.0
0.003799999993836168 5.7634691801649406e-12 0.0
0.0037999999935414445 6.888299238070454e-12 0.0
0.0037999999937753668 7.1918193251215075e-12 0.0
0.0037999999936913138 9.762737900482328e-12 0.0
0.0037999999967179305 4.278501097612594e-12 0.0
0.0035163732738506294 0.0001889602068040047 0.0
0.003272006280241996 0.0002746538472904252 0.0
0.0030527084938464957 0.000301612252868901 0.0
0.0028678749181593947 0.0002940329459012448 0.0
0.0027418289645473578 0.00015939144509673979 0.0
0.0027219280182744997 0.00010006717729438186 0.0
0.0026760412122290335 7.623254696357938e-5 0.0
0.002621658294668531 7.219210794319154e-5 0.0
0.0025591187733981103 7.832046061292058e-5 0.0
0.002492779757559829 8.624091681176243e-5 0.0
0.0024235432549377964 9.405382100303628e-5 0.0
0.0023523875039726666 0.00010282392557173017 0.0
0.002277831541690484 0.00010989469263014542 0.0
0.0021991558358879205 0.00011458976236300986 0.0
0.002112406502584308 0.0001164113641215826 0.0
0.0020092155598037107 0.00011649531307335057 0.0
0.001740427209425528 0.00014498344005441885 0.0
0.0016494127847094158 0.0001581067836672807 0.0
0.0015744887472735356 0.0001641287697619371 0.0
0.0015093838786342424 0.00016846843432528663 0.0
0.0014505703240255384 0.00017260225882990038 0.0
0.0013975435424437412 0.0001774626265523815 0.0
0.0013500602831966297 0.00018438399474985016 0.0
0.001309767862236099 0.0001949744127053602 0.0
0.001278447301826092 0.00021407704236516616 0.0
0.0012572126578916667 0.00024579461742563685 0.0
0.001251346754418012 0.0003010921457997063 0.0
0.0012515129883836553 0.0003847278886896357 0.0
0.001113373019401379 0.0005288704244934392 0.0
0.0009072358042691588 0.000499816393974546 0.0
0.000633640979359047 0.0004095627381177532 0.0
0.00033626149846141616 0.0002667545378007819 0.0
0.0009963941830375426 -0.0006980246206648818 0.0
0.0026821116502221787 -0.0007412839314476486 0.0
0.0012736954108787824 -0.000789474875319785 0.0
0.0023950832095205408 -0.0008352286366847689 0.0
0.0015678165586306685 -0.0008507789252156286 0.0
0.0021081128644479504 -0.0008749471452555714 0.0
0.001819925994092873 -0.0008763471258002157 0.0
0.0029228186825042786 -0.0006454376644860012 0.0
0.0007809437031415526 -0.0006114365182373693 0.0
0.003104850742870132 -0.0005504923836661588 0.0
0.0006056104461290725 -0.00052020271045007 0.0
6.251977901652444e-5 -1.145386928419216e-5 0.0
0.0037352090368361845 -1.041467996067584e-5 0.0
0.002027814562132615 0.00013512348082773474 0.0
0.002323027739333443 0.0001265248154933193 0.0
0.0017113662969929974 0.00014930597662945395 0.0
0.00146042569837574 0.00018525565444281664 0.0
0.0032936483439214076 -0.00044032380618025494 0.0
0.00044634479461672246 -0.00042055014650641464 0.0
4.3837041969149734e-5 -2.0669151446736375e-5 0.0
0.0037542058327666066 -1.7578053894290703e-5 0.0
0.003707953062062446 2.7436568059699035e-6 0.0
8.367450766208687e-5 3.019888677624923e-6 0.0
0.0034391323569209686 -0.00033614304087896765 0.0
0.00031452278574596983 -0.0003171998828251961 0.0
0.0025288516914867692 0.00010941941607463157 0.0
0.0012996246569727135 0.00020229650119739587 0.0
3.304706016444239e-5 -2.2328531017209144e-5 0.0
0.003763515975713423 -1.997742962999066e-5 0.0
0.0014435710557866366 -0.0008279700539559456 0.0
0.0016924585204854937 -0.0008664803397763262 0.0
0.0022732013958240674 -0.0008584522617794869 0.0
0.0019500888482207996 -0.00087858472326382 0.0
0.002517544066792301 -0.000800146401366081 0.0
0.002795142975602142 -0.0007016959321955572 0.0
0.001163091072644967 -0.0007576185626952948 0.0
0.0008890876598771025 -0.000661115153287075 0.0
0.003542999739748931 -0.00025271660448430847 0.0
0.0002195069911363889 -0.00023514767377232046 0.0
0.003682529434318319 2.31383137502598e-5 0.0
0.00010552482031202939 1.837009087048632e-5 0.0
0.0037695762308838877 -2.2778806144615083e-5 0.0
3.077214510315087e-5 -2.7220505643391653e-5 0.0
0.002655885042238971 0.000100193243830545 0.0
0.001215893354847547 0.00023653189795980943 0.0
0.0036347821815227964 4.31685727550081e-5 0.0
0.00014868594681108127 3.6821806087538616e-5 0.0
5.275032960498082e-5 -1.7371499139425464e-5 0.0
0.0037445723764996707 -1.5220496917724369e-5 0.0
0.0021758731064483172 0.0001359962378563537 0.0
0.0015834537868119672 0.0001771218878200025 0.0
0.0001217354392777541 -0.00013596735788516147 0.0
0.0036629546336343897 -0.00014281600226065047 0.0
0.002596188024480383 -0.0007775121382420022 0.0
0.0020300864837625382 -0.0008802599512653615 0.0
0.0013637445357100443 -0.0008105336682038752 0.0
0.0010778669364864466 -0.0007322272456131313 0.0
0.0021934835448009617 -0.0008676773738143914 0.0
0.002993865184370123 -0.0006112322782921659 0.0
0.0007105083740838778 -0.000575729652716792 0.0
0.0031833627620305107 -0.0005084242997056737 0.0
0.0005347362772284589 -0.0004763730006417335 0.0
0.0003767238508416263 -0.0003677928435299853 0.0
0.0033666906260133344 -0.00038940540208214574 0.0
0.0007536921386424421 0.0002755084721316052 0.0
0.003148369299789454 0.00019730932925010844 0.0
0.003770301259657306 -2.7400855263685328e-5 0.0
2.6768351430575347e-5 -2.7851898223320394e-5 0.0
0.0011768808583369644 0.000326781021099138 0.0
0.002763504372047566 0.00013878850491126564 0.0
0.00017115688647282573 5.859321879927239e-5 0.0
0.003629914169741879 5.53668165654667e-5 0.0
5.319791796105837e-5 -6.101195017386312e-5 0.0
0.003739082171831193 -6.520502122073117e-5 0.0
0.002949817252486029 0.0002112681154595693 0.0
0.003009818023713467 0.00017522319065259407 0.0
0.003246873765732622 0.00014402576517040037 0.0
0.0031108933796640294 0.00015235324222870455 0.0
0.0029275096405096575 0.0001615271430823623 0.0
0.002994016112883819 0.00015944246996243096 0.0
0.0031695591054106014 0.00014041433431060256 0.0
0.003060221131497424 0.00015106029597490448 0.0
0.0032257416087943876 0.0001264884622070101 0.0
0.003125236374887742 0.00013542560518894076 0.0
0.002970091164428314 0.0001560473836212929 0.0
0.0030300774307778795 0.0001388948148457446 0.0
0.0028966937023111594 0.00015525057560644375 0.0
0.0029454264101544474 0.00013639228275988332 0.0
0.0028241365147367633 0.00015029436339948055 0.0
0.0028681882842690482 0.00012785636210622226 0.0
0.0019804778131172675 9.024167472899298e-5 0.0
0.0018645671733993402 7.141639271794782e-5 0.0
0.001954687563854283 6.218248931981542e-5 0.0
0.0018605280339734486 4.863469746812879e-5 0.0
0.0019395128345303786 4.0742220434386724e-5 0.0
0.0018583315518577812 3.0276726184050968e-5 0.0
0.0019296860940569759 2.253233823043736e-5 0.0
0.0018561414624100778 1.336893015627683e-5 0.0
0.0019224960657600286 5.993832908004805e-6 0.0
0.001854240041746751 -2.371888705280471e-6 0.0
0.0019170093219229754 -9.346568014648458e-6 0.0
0.0018527055428106517 -1.7198794342911062e-5 0.0
0.0019127249852138638 -2.4295050967395472e-5 0.0
0.0018530642797142266 -3.1658611809756056e-5 0.0
0.0019093369738772958 -3.871413467129771e-5 0.0
0.0018519118841327953 -4.587534989667538e-5 0.0
0.001906234858248741 -5.2818104740008606e-5 0.0
0.0018489761144923934 -5.9861118543118926e-5 0.0
0.0019031670176745668 -6.678424233893348e-5 0.0
0.00184742558439805 -7.367418051812557e-5 0.0
0.0019005639021392917 -8.070265483255633e-5 0.0
0.001846117947954856 -8.74906101462367e-5 0.0
0.0018964541673557277 -9.454593740419523e-5 0.0
0.0018445030433596142 -0.00010139480840538483 0.0
0.0018939071372201933 -0.00010851463179609198 0.0
0.0018438737365667642 -0.00011507076344900197 0.0
0.001891681205689935 -0.00012258945588498342 0.0
0.0018399370592894913 -0.00012832497117939583 0.0
0.0018889239424880386 -0.00013677060155314796 0.0
0.001826373816401755 -0.00014272262521494388 0.0
0.0018895128468179856 -0.00015143044268871945 0.0
0.0018367078533381817 -0.0001583153990997046 0.0
0.0018869887450358679 -0.00016616914432982432 0.0
0.0018370240489780723 -0.00017344191616152643 0.0
0.0018852881148201136 -0.0001813411705079738 0.0
0.0018387263160155802 -0.0001887350680195303 0.0
0.0018833807546738016 -0.00019677549103654793 0.0
0.0018380419301776457 -0.00020458967860601305 0.0
0.0017918909596737417 6.565691438772946e-6 0.0
0.0018814373484724088 -0.00021264982270471835 0.0
0.0017930485759294246 -6.588583591993304e-5 0.0
0.0017793510971430553 -0.00015429251556708573 0.0
0.0018336695700240607 -0.0002206235991819831 0.0
0.0018791364088306343 -0.00022893975502788095 0.0
0.0018293614335421345 -0.0002376692554080211 0.0
0.0017846584549167587 -0.00022777562939028056 0.0
0.0017791387937114269 -0.0002456502729999641 0.0
0.0018749693762654407 -0.0002466628916637143 0.0
0.0019253710123222718 -0.00023730225734266562 0.0
0.0019350132372910778 -0.0001583259817657461 0.0
0.0019214901377168007 -0.00025554601956599715 0.0
0.0019749631913676367 -0.0002444191409724507 0.0
0.0019693204830620176 -0.0002643581167803259 0.0
0.0017349152289688498 -0.00023527608470757155 0.0
0.0017311949048103813 -0.000252806710924376 0.0
0.00202443065066058 -0.00025223531169543456 0.0
0.0016841535537953584 -0.00024185142280048848 0.0
0.0016833157302306493 -0.00026024438903633193 0.0
0.002019683728622715 -0.000272423715611938 0.0
0.002073035220293191 -0.00026121953700745406 0.0
0.0016330379303537007 -0.0002485289631978039 0.0
0.001630999836423379 -0.0002674708707444843 0.0
0.0020694287933584223 -0.00028129525230264165 0.0
0.0021242520006672966 -0.0002694034540325791 0.0
0.0015821299004323954 -0.0002551766769294836 0.0
0.0015796139052732638 -0.0002752503253461049 0.0
0.0021204881712915016 -0.00029053509231634887 0.0
0.0021767523893889227 -0.0002774500204922499 0.0
0.0015316110582810952 -0.00026075810005331973 0.0
0.001525727003691567 -0.0002814438983614491 0.0
0.0021736566410589008 -0.0002991361869931849 0.0
0.0022301998966882696 -0.0002852894925824838 0.0
0.0014760871403399788 -0.0002663161320072372 0.0
0.0014715210956177764 -0.0002881788385467684 0.0
0.0014190072707081748 -0.00027315408865825165 0.0
0.0014233237939100575 -0.00025000500149714705 0.0
0.0021121389161699133 -0.0003113805743516781 0.0
0.002226814514098079 -0.0003078441536012674 0.0
0.00228445818787118 -0.0002929721298897923 0.0
0.0022887738922567425 -0.00026981727042827314 0.0
0.0019474805328166154 -8.814811266693098e-5 0.0
0.0023451936450919115 -0.0002770573299637326 0.0
0.0023499875950054486 -0.00025302688309039427 0.0
0.002408191240387289 -0.00025947585177420976 0.0
0.0014188535045766644 -0.0002967721382891457 0.0
0.0013640175863827411 -0.0002792057816685766 0.0
0.0014703810062776657 -0.0003116659052614557 0.0
0.0022793835897564666 -0.0003167257397265316 0.0
0.0013645371506395385 -0.00030343766162298116 0.0
0.0013090815156758832 -0.0002845233512403466 0.0
0.001970024637093806 -3.0255962043814815e-5 0.0
0.0013094249242501012 -0.00030824584432848355 0.0
0.0012540697348696211 -0.00028901236367142333 0.0
0.0012545977164782193 -0.0003133082281453584 0.0
0.0011999984455346824 -0.00029229535791661386 0.0
0.0011982728434939696 -0.0002686022469859875 0.0
0.001140998329726149 -0.00027252565306329124 0.0
0.0011401182516799528 -0.0002475028824239709 0.0
0.001194039668850828 -0.00031628993265200986 0.0
0.0010786437960732212 -0.0002516849103153098 0.0
0.0010773090557402003 -0.000226059136193279 0.0
0.0012555886813329523 -0.00033900487375438315 0.0
0.0012040923109203105 -0.00034399366720836404 0.0
0.0010172969267562108 -0.00022823482344736039 0.0
0.0010139315630840996 -0.00020326280420345454 0.0
0.002414639785398904 -0.0002351415287814886 0.0
0.0024751586230700143 -0.00024123231465674795 0.0
0.0012564650898037727 -0.00036502316629533706 0.0
0.001205613541636717 -0.0003698390759628427 0.0
0.002482318253533363 -0.00021614044816836697 0.0
0.0025457326876210146 -0.0002223993149309278 0.0
0.002535878791042892 -0.00024990572185532906 0.0
0.002606881670621524 -0.00022953472561028409 0.0
0.0025981194873207366 -0.00025767658260594984 0.0
0.002669157550004798 -0.00023510100450346673 0.0
0.0026638764528950374 -0.0002629717538053357 0.0
0.0027372418476266196 -0.000237472516001803 0.0
0.00272575870002733 -0.0002659362896838019 0.0
0.0027425283725724904 -0.00021075600381250962 0.0
0.0028001853327561882 -0.00024082296503242495 0.0
0.0027847929705314615 -0.0002691377218221815 0.0
0.0012579331637405191 -0.0003915269447463883 0.0
0.0009507393301707348 -0.00020479169443648923 0.0
0.0009461847946034567 -0.00017944030220467687 0.0
0.002716516428183159 -0.0002950617191513743 0.0
0.0027731933384265153 -0.0002977583334664269 0.0
0.002840355622416772 -0.0002714042603160789 0.0
0.0027097318387049383 -0.00032472167616824703 0.0
0.0012082766728601314 -0.0003964985216891552 0.0
0.0028288146588683464 -0.00029949787996296103 0.0
0.0028944804221500394 -0.0002724344119352272 0.0
0.0012592783356364613 -0.00041877531515696956 0.0
0.0012105598513364214 -0.0004239223929613727 0.0
0.0011603504283661098 -0.0004007550757843483 0.0
0.002882296561734374 -0.00030005033521099595 0.0
0.0029471539064100973 -0.00027197539958212757 0.0
0.001260473802292031 -0.00044685525311079693 0.0
0.0013086885354436553 -0.00044129360171152624 0.0
0.0011631891723294192 -0.00042839590276674844 0.0
0.0011134177242539713 -0.00040446293263552476 0.0
0.0029328503969286816 -0.0002996129159893968 0.0
0.0029991903724979506 -0.0002703903733754014 0.0
0.0030127523203198787 -0.00024367854199732177 0.0
0.002867733268262464 -0.00032893128802756385 0.0
0.003064949129339964 -0.00024112715982128657 0.0
0.003080222671634693 -0.00021511473926487504 0.0
0.0008792070875860552 -0.0001808223631960692 0.0
0.0008782137276193324 -0.0001546829082454319 0.0
0.0009586289735913183 -0.00015476214766645902 0.0
0.0008748206137105657 -0.00012893279947610972 0.0
0.0009521607456562164 -0.00012510919313195432 0.0
0.0008706964671562356 -0.0001018888644503209 0.0
0.0009460533951792142 -9.658683509770288e-5 0.0
0.0013097527864810734 -0.00046965680383971326 0.0
0.0013568094792579695 -0.00046352982775477034 0.0
0.001116562631834356 -0.000432319292802946 0.0
0.0010672341499013839 -0.0004075520216746075 0.0
0.0030504270461209704 -0.0002677893225029643 0.0
0.0008747087094957373 -7.478483966310282e-5 0.0
0.0009461446291408425 -6.815268012849212e-5 0.0
0.001357902715786319 -0.0004919354728256755 0.0
0.0014038657734911004 -0.00048563075683104144 0.0
0.0016378152782205644 -0.0002858102049916884 0.0
0.003115627344041646 -0.00023766379557339413 0.0
0.002003610518969508 3.572903281191461e-5 0.0
0.0020852714985572004 0.00012368185039629692 0.0
0.0017925022978228454 -0.00010766099700343742 0.0
0.0025501453741009366 -0.00019669898648934036 0.0
0.0008684075625435367 -4.564600853675851e-5 0.0
0.0009519330365027358 -3.838436399441186e-5 0.0
0.0010708136269308411 -0.0004356061979706791 0.0
0.0010221730703908736 -0.00041019573602899337 0.0
0.0014056202734700379 -0.0005141879474055401 0.0
0.0014512227985948346 -0.0005075617785597354 0.0
0.003099748867554902 -0.00026401146148600444 0.0
0.0008086088030790036 -0.00015612451054240569 0.0
0.0008118179369286197 -0.0001823701967782177 0.0
0.0007850650095089664 -7.814507379057796e-5 0.0
0.0031646625799959284 -0.00023315929125278332 0.0
0.0008681189387914729 -1.7455610557429774e-5 0.0
0.000952426950270495 -7.535523736062845e-6 0.0
0.0013603304603941315 -0.0005212344089084876 0.0
0.0010263951850431057 -0.00043863000997400027 0.0
0.0009779966132791602 -0.00041214753721921234 0.0
0.002486946190226039 -0.00019096899107197486 0.0
0.0025577520107474007 -0.0001707296056994285 0.0
0.0024907629162443006 -0.00016512958560894211 0.0
0.002565583295084049 -0.00014461173455889212 0.0
0.0014523265134777823 -0.000536016840460107 0.0
0.0014983611176076928 -0.0005283013682209915 0.0
0.0015867524258555152 -0.00023719882383544354 0.0
0.0008676381594827782 1.0370763919831093e-5 0.0
0.0009500931405242638 2.2708039092464312e-5 0.0
0.0031491289869010307 -0.00025869066928757887 0.0
0.0030905194676479407 -0.00028740331935016793 0.0
0.0008491792991902926 4.018522272237507e-5 0.0
0.0009449065358103356 5.403768087631083e-5 0.0
0.003211947004360036 -0.00022802699459351558 0.0
0.0032205658276002946 -0.00020891847148863708 0.0
0.0008595698290088297 6.860978191772202e-5 0.0
0.0010733854656878978 -0.00046687381924266885 0.0
0.001498684486043645 -0.0005575420086628602 0.0
0.0015444024339860839 -0.000548599424183636 0.0
0.0015447707322301123 -0.000519614438633407 0.0
0.001590761086998623 -0.0005392085908195397 0.0
0.00159161507212193 -0.0005105624686157168 0.0
0.0016378381645239706 -0.000529367158995203 0.0
0.0016390124403511477 -0.000500675829795069 0.0
0.0016859416028867935 -0.000518944663863466 0.0
0.0016875657365564972 -0.0004903797757332834 0.0
0.0017348826574326583 -0.0005078202286551239 0.0
0.0017331913952302908 -0.0005371309514455829 0.0
0.0017819159211137823 -0.000525233753838112 0.0
0.0017799315596794543 -0.0005550107348258114 0.0
0.0018284479584551165 -0.0005423111505265713 0.0
0.0018258640699663122 -0.0005726058605928635 0.0
0.0018747862655011454 -0.0005590177061759432 0.0
0.0017371049692221751 -0.00047947013195675294 0.0
0.0018774645239458749 -0.0005288206410721956 0.0
0.0019244480918665246 -0.0005445565442910505 0.0
0.001921039803350362 -0.0005757806889258803 0.0
0.001971334330209361 -0.000560505309675668 0.0
0.0007398257283498592 -0.00015658125054571401 0.0
0.0007427635633663095 -0.00018249417055420363 0.0
0.000982544493941896 -0.00044066982214433225 0.0
0.0009350950478126709 -0.0004137231741900139 0.0
0.001975365227186205 -0.0005295267905842018 0.0
0.002022258827376467 -0.0005442805577723193 0.0
0.002017504965178738 -0.0005759106334298964 0.0
0.0020693521549264046 -0.0005586285019145485 0.0
0.0006726257783186844 -0.00015606516873107438 0.0
0.0006756836894866581 -0.00018122837199950669 0.0
0.002494998422787102 -0.00013825863560699338 0.0
0.0025747332850070484 -0.00011773153613852048 0.0
0.002501724873893549 -0.0001113051353801579 0.0
0.003197963167092055 -0.0002517588550007947 0.0
0.003258373867803043 -0.00022154786689097315 0.0
0.0015444996011928374 -0.0005787329676738573 0.0
0.0010364117342760279 -6.620235570819948e-5 0.0
0.0019672096679065176 -0.0002827656161265414 0.0
0.0020638083437156183 -0.0005908341998990855 0.0
0.0021158296141392634 -0.0005725711503174358 0.0
0.0021204566068590736 -0.0005403654063227649 0.0
0.002167902574278363 -0.000553037331164329 0.0
0.002079329572521703 -0.00023996083937711529 0.0
0.0025882594321850385 -8.998789074233515e-5 0.0
0.0026560858027582465 -0.00010128431289177537 0.0
0.0009470917998824212 8.536089054849283e-5 0.0
0.0009394745549927739 -0.00044200563599836013 0.0
0.0008929228237505069 -0.00041449216500414883 0.0
0.0025105948887770503 -8.329805594419185e-5 0.0
0.002161989095330173 -0.0005861366660135093 0.0
0.0022149384750707736 -0.0005661588697597531 0.0
0.0022208318369111996 -0.0005330904477983903 0.0
0.0022689894076839317 -0.0005454740648856273 0.0
0.0022759939614748564 -0.0005132942471047852 0.0
0.002323406562653432 -0.0005239693561878934 0.0
0.0023152955697297657 -0.0005565178908625477 0.0
0.002369188306262974 -0.0005337465914066227 0.0
0.000857342089724795 9.510516470877307e-5 0.0
0.0006075723183675103 -0.0001544189443991145 0.0
0.0006103518088456281 -0.0001783811637355755 0.0
0.0015001884909009416 -0.0005879624345795878 0.0
0.003242219978112108 -0.000246301630031486 0.0
0.0033028518914714343 -0.00021440782546125426 0.0
0.002359792013155455 -0.0005664940490170241 0.0
0.0024128956739883256 -0.000542594732058337 0.0
0.0009500575483543056 0.00011500498067485214 0.0
0.0008978842169507066 -0.0004428671128994052 0.0
0.0008512875120987665 -0.00041427916351691326 0.0
0.0010344843192667474 3.5035159478122866e-5 0.0
0.0029880441963513276 0.00011390670062413392 0.0
0.0015446658341337724 -0.0006096510127198857 0.0
0.0008565141175087159 0.00011920015070929179 0.0
0.0007915543496658749 -1.5550211639153425e-6 0.0
0.0032809966370349513 -0.00024531430086526017 0.0
0.0033458638363917806 -0.00020714199329643844 0.0
0.0033630883234956914 -0.00018308507858268345 0.0
0.0007676570054089859 7.619732538176418e-5 0.0
0.003217417193200931 -0.0002759255228224952 0.0
0.0006005846530758558 -0.0001305277199157485 0.0
0.0009404243049185535 -0.00046903628918964786 0.0
0.002601448124169488 -6.13232079523618e-5 0.0
0.0025210517786472043 -5.4276893104772707e-5 0.0
0.0023317571081150437 -0.0004923505965717828 0.0
0.0008567766884488928 -0.0004433577451911899 0.0
0.0008102586029488134 -0.00041390104068170545 0.0
0.0005445459029574227 -0.00015148172313504815 0.0
0.0005469430000677026 -0.00017386610999714844 0.0
0.0010183554282922542 -0.0003833665896103688 0.0
0.0024021518346708745 -0.0005754064955122278 0.0
0.0024546535800798915 -0.000550111475121167 0.0
0.0008046560983946977 -0.00038544373423113093 0.0
0.0007634386803271257 -0.0003842046618832933 0.0
0.002352656002798932 -0.0005978133119507419 0.0
0.0015020172691149521 -0.0006191837015694047 0.0
0.000769906847175455 -0.0004131539569032553 0.0
0.0007232305712985403 -0.0003826124677891029 0.0
0.001591593774420308 -0.0004831740857305644 0.0
0.00340646642535517 -0.00017436968634977255 0.0
0.0034233482828769177 -0.00015309734832458715 0.0
0.0033899047178060186 -0.0001975622414198539 0.0
0.002442424346364217 -0.0005826128624020893 0.0
0.0024946287113818237 -0.0005562177720120735 0.0
0.0022826491435367223 -0.0004819566662144612 0.0
0.0023395903077488662 -0.0004616500675517242 0.0
0.0015453221720311723 -0.0006412355713896461 0.0
0.002507411765618123 -0.0005242888548946727 0.0
0.0025475817169103754 -0.0005298378706958426 0.0
0.00048260704928540705 -0.00014631181861905965 0.0
0.0004875807136651237 -0.00016796740364212606 0.0
0.0025340370893848474 -0.0005625589353713345 0.0
0.0025862288227418225 -0.0005352316493362629 0.0
0.0007310746890281287 -0.0004121174749360391 0.0
0.0006843079785255772 -0.00038065371654413696 0.0
0.0026149952396628193 -3.169662606636913e-5 0.0
0.0025337140859007685 -2.421542192073624e-5 0.0
0.0006759890685190886 -0.0003525123667693461 0.0
0.0006368936559964975 -0.0003493519138629287 0.0
0.0006449899065453187 -0.00037795154103189345 0.0
0.000597804222414788 -0.00034575971179623405 0.0
0.003448504568184553 -0.0001648273595365391 0.0
0.003431554124413199 -0.00018808943084820402 0.0
0.0009489048386234876 0.00014012469859973594 0.0
0.0008474140012719639 0.0001395216588119052 0.0
0.0024284502618049566 -0.00010371080242560705 0.0
0.0015038094794369843 -0.0006510543752099512 0.0
0.00257237531377303 -0.0005692313057119342 0.0
0.0026236385915769118 -0.0005406829505434491 0.0
0.0027490663654428796 0.00014133027173548985 0.0
0.0025611547968961046 -0.0004981065674669096 0.0
0.0017781872245490786 -0.000585624366237434 0.0
0.0005884139407376087 -0.0003185573276211733 0.0
0.0005504592875553277 -0.00031358691227658146 0.0
0.0005600659471703114 -0.0003418660272921874 0.0
0.0005125637487970872 -0.00030847514042367616 0.0
0.0005029796590791802 -0.00028182455859247335 0.0
0.00046391479152708346 -0.00027562364442147935 0.0
0.0004540361073127801 -0.000249576809131095 0.0
0.00041439730899980995 -0.00024203702948704897 0.0
0.00040458076766926136 -0.00021767947372774806 0.0
0.0003671582225575633 -0.00020960115784820452 0.0
0.0003567360470201948 -0.0001871816579345606 0.0
0.000376228250228955 -0.00023323442931918632 0.0
0.000324905267904481 -0.00019569115485647536 0.0
0.0004250838413420245 -0.0001400998345337775 0.0
0.000423623808743259 -0.00012083272767028367 0.0
0.00033854171341252674 -0.00022331812766944147 0.0
0.0002916159728744983 -0.00018869371200482728 0.0
0.001042294529118887 0.0001333178378542205 0.0
0.001128688293681958 -0.00022011770177007627 0.0
0.002289560698428445 -0.0004517170846847087 0.0
0.0023465542283422655 -0.0004319264070028824 0.0
0.0006747251358441767 -0.0002047738269910834 0.0
0.0015459463781206403 -0.0006736425839427028 0.0
0.0015877884040148723 -0.0006632560321757676 0.0
0.0023969539740680483 -0.0004407852131216769 0.0
0.002404352253626857 -0.00041121400492648177 0.0
0.0034890885404978934 -0.00015440026076671458 0.0
0.003469621978370328 -0.00017880856590625542 0.0
0.003413277144975087 -0.00021542891113246552 0.0
0.0024396408108041867 -4.706021702496558e-5 0.0
0.002451359201047419 -1.7088750824979226e-5 0.0
0.001460844826648153 -0.0006282874866817451 0.0
0.0014628865142387243 -0.0006602546959261716 0.0
0.0014205675248705422 -0.0006370902257039267 0.0
0.0005241409268464983 -0.0003376454159881991 0.0
0.0025476229323315594 6.792375812840535e-6 0.0
0.0024647266393252685 1.4695992791970267e-5 0.0
0.0010177038354384769 -0.0002549527054058506 0.0
0.002608887701783263 -0.0005759214206776517 0.0
0.0026603387479712214 -0.0005462241989231585 0.0
0.0026756857494903757 -0.0005124649539065265 0.0
0.002712204730673614 -0.0005168433342018985 0.0
0.000972071971290872 0.000164159752613014 0.0
0.0008507238244813652 0.00015838400849821856 0.0
0.0014014121238507323 -0.0004582697798193015 0.0
0.0025589506172693714 -0.0006053443667766059 0.0
0.0031752101616943436 0.00011614625034482203 0.0
0.0026963007604247223 -0.0005528928870792241 0.0
0.0027485699733154523 -0.0005222501866913765 0.0
0.0027645376374383504 -0.0004872483026102847 0.0
0.0028014337883356523 -0.0004915642417373006 0.0
0.0028182599790750984 -0.00045713389763348716 0.0
0.0028547124333756202 -0.00046052165075956795 0.0
0.002837508938390088 -0.0004967887556681456 0.0
0.0028902352750016045 -0.0004646936455959545 0.0
0.0003024608036628859 -0.0002112327547051886 0.0
0.0002567397409239533 -0.0001762002041787661 0.0
0.0002402674744910062 -0.00015205945678210348 0.0
0.0015882658785783322 -0.0006961211966075181 0.0
0.0016284086532509499 -0.0006865574697890071 0.0
0.0014231934003069802 -0.0006692184805702292 0.0
0.0013810314325035317 -0.0006453400617136778 0.0
0.0034490123009231826 -0.00020802731145614414 0.0
0.003504600733285139 -0.00016999017006445624 0.0
0.0027081641337310023 0.00016099800503132478 0.0
0.0026367312342795725 0.0001519404599883658 0.0
0.0007377884579190119 0.00013252939274419406 0.0
0.0007387633968465689 0.00014862020498167104 0.0
0.00035005271812419195 -0.0002496957866911291 0.0
0.0013087165522003186 -0.000359606674589782 0.0
0.002409197845194095 -0.00016132932884638725 0.0
0.0033943070280436855 -0.0002468428186748278 0.0
0.0010239993289810588 -0.00011572302369171689 0.0
0.002358276843180243 -4.031782325524195e-5 0.0
0.0028716992796793558 -0.0005029828747284275 0.0
0.0029242717205392697 -0.0004697377349609834 0.0
0.002893329788813601 0.00010228318436586186 0.0
0.003028091866011863 8.897211954504924e-5 0.0
0.0009597748750871122 0.00018156868842605738 0.0
0.000548827885516247 -0.00019597110067566946 0.0
0.00035974001107258636 -0.00011286483286151593 0.0
0.00035943142877213353 -9.538449087234838e-5 0.0
0.0005696945797699469 -0.000371747457775407 0.0
0.0027352634132460133 -0.0005603653669451914 0.0
0.002220019431741165 -0.00033091038295736223 0.0
0.0020134872450141925 -0.0006085462429497783 0.0
0.0012641922630803326 -0.0004744739835720812 0.0
0.0002676210313295835 -0.00019830043670069733 0.0
0.00022346140538195608 -0.00016271607528420254 0.0
0.0007776588794648324 -0.00044367408551793303 0.0
0.0024554688585786237 -0.0004190642701805736 0.0
0.002463342096489672 -0.00038981508001424025 0.0
0.0014634515323422713 -0.0006935149703611613 0.0
0.002953043379377599 7.406325134470889e-5 0.0
0.0030683163498662043 6.421672189138029e-5 0.0
0.0029980986768046816 4.702208440159572e-5 0.0
0.0031097967197821113 3.9227408906246376e-5 0.0
0.0031778219667331483 5.4719161849109055e-5 0.0
0.00321837618566083 3.214016848679188e-5 0.0
0.0031494112279574684 1.449174777308899e-5 0.0
0.0032543885359334864 1.013347408308308e-5 0.0
0.0031860436249797892 -8.98801235820664e-6 0.0
0.003288903557800821 -1.026418701538694e-5 0.0
0.003222321132160604 -3.107533472401189e-5 0.0
0.003320815836249652 -2.87926534833436e-5 0.0
0.0032560430298705628 -5.134582388204201e-5 0.0
0.0033511496191992772 -4.5449555305934155e-5 0.0
0.003153519670571977 -5.610187711880559e-5 0.0
0.0032879899583152907 -6.902297090841663e-5 0.0
0.003377403299623934 -6.054986276579217e-5 0.0
0.00328807001833027 4.4694168357479246e-5 0.0
0.0007561197253752373 -0.00035618949163016586 0.0
0.0007398254008134116 -0.00044307005907064475 0.0
0.0007847095791809251 -0.00047498021195383443 0.0
0.003318324404694224 -8.444820324807018e-5 0.0
0.0034032304193344627 -7.320381701051746e-5 0.0
0.003233468900878787 -9.400867881408715e-5 0.0
0.002058204989042244 -0.0006239194258599843 0.0
0.0020085737824678197 -0.0006416958456613922 0.0
0.00205232726326914 -0.0006575672513639094 0.0
0.0020042410711715057 -0.0006755874408844501 0.0
0.002046634534557622 -0.0006919605529667678 0.0
0.00200060198876617 -0.0007102076914497921 0.0
0.0019582616784142733 -0.0006931481452959827 0.0
0.001955660613019695 -0.000727663625130536 0.0
0.0019144622087391855 -0.0007098152697776108 0.0
0.0017625177374055749 6.479322115585825e-5 0.0
0.0020415438697976647 -0.0007273312966728898 0.0
0.002087065207654233 -0.0007080250385631311 0.0
0.0017246485144454507 -0.00027192983193096023 0.0
0.0016891136396195992 -0.0004627201838577216 0.0
0.0017393523522188023 -0.00045203091709354175 0.0
0.0016907146063841517 -0.0004359229948355687 0.0
0.001741597338059714 -0.00042550551138420913 0.0
0.0016924160484944398 -0.0004100309087616454 0.0
0.0017438738892124185 -0.00039993602420156023 0.0
0.0017932810974569465 -0.0004146162622341549 0.0
0.0017960364649410659 -0.00038939433711229223 0.0
0.0018456802805023043 -0.00040330760700579084 0.0
0.00184874034491255 -0.0003784188342345311 0.0
0.0018964205763525544 -0.00039149303856476556 0.0
0.001798934653825826 -0.00036438258212894803 0.0
0.0016942274424266133 -0.0003850158891225229 0.0
0.0016426316661849697 -0.00039440440369141856 0.0
0.001892885083002008 -0.0004174033348931231 0.0
0.0019463119080621804 -0.0004032707632134839 0.0
0.0007484284401465952 -0.00047490219041880114 0.0
0.0017890184898333265 -0.00018094211473502036 0.0
0.0017938151675557605 -2.527948215445174e-5 0.0
0.0020270903262938917 -0.0005138495167809799 0.0
0.0035057623822980642 -0.0001344280421732905 0.0
0.0035444331677885682 -0.0001236524305927243 0.0
0.001960185319797369 -5.894039025378858e-5 0.0
0.0019428686730158116 -0.00011358054506949995 0.0
0.0027803216240571637 -0.0004543814158462497 0.0
0.0023977879962395845 -0.00028438465874945374 0.0
0.0034850125993635592 -0.00019863466046985488 0.0
0.0035377616219601222 -0.00016073793415927943 0.0
0.0019331389396211546 -0.00018941299337388092 0.0
0.0013840558482026226 -0.0006778161024101067 0.0
0.0013421010141073777 -0.0006533128227618825 0.0
0.001985340476211566 -8.083085348609287e-8 0.0
0.0019120118373572117 -0.0007443624288089179 0.0
0.0018707064539960321 -0.0007243954095154831 0.0
0.0013391465366350294 -0.0006212370084946205 0.0
0.0012998262252585165 -0.0006286128319901219 0.0
0.0012967029506601912 -0.0005968771222821871 0.0
0.0012571928980257998 -0.0006035692725925595 0.0
0.0012610875760887463 -0.0006357465853869378 0.0
0.0012186174175702821 -0.0006099971069587735 0.0
0.0012228867289671094 -0.0006425740810719442 0.0
0.0011804579602414738 -0.0006161724372024349 0.0
0.0005360124498468666 -0.0003684431100205682 0.0
0.00356062511738529 -0.00010639360117979229 0.0
0.0025610571911665924 3.855949921638697e-5 0.0
0.002476051408520353 4.5921374173076966e-5 0.0
0.0011601095835317436 -0.0003491250994028823 0.0
0.0009353601830712574 -0.0003864633614419207 0.0
0.0034345025218916816 -4.126856974020877e-5 0.0
0.003388541656752025 -1.2052672698501784e-5 0.0
0.0016280720425764143 -0.000719212558458282 0.0
0.001669201369474703 -0.0007086010223707393 0.0
0.0025940693394340387 -0.0006133513529462186 0.0
0.0004965956487615881 -0.00025626886851637506 0.0
0.0021807872015559325 -0.00025677170814436307 0.0
0.0023824400623749416 2.140785524548988e-5 0.0
0.00239276618682165 5.244544390529251e-5 0.0
0.002835663078619564 -0.00042481874593628104 0.0
0.002905448798295769 -0.0002451576123603398 0.0
0.002943473889363264 -0.0004330114119193286 0.0
0.0029781924175904654 -0.00043613415071149143 0.0
0.002956957691618548 -0.0004759378300747401 0.0
0.00301163783536992 -0.00044067963552901415 0.0
0.001693263894543582 -0.0002245048485663363 0.0
0.0005791122982319458 -0.0004026690318204039 0.0
0.0018966852966832448 -0.0003662437393802751 0.0
0.0030806890125626065 -9.003812918667826e-6 0.0
0.0016369440467161784 -0.0006547700859549885 0.0
0.0007911697737224929 -0.0005068770204506308 0.0
0.0008276080196802153 -0.0005067416223612368 0.0
0.002545724585111252 -0.0006432430865759252 0.0
0.0012533203830457631 -0.0005724120276065564 0.0
0.0022957517764508285 -0.00042254875992181907 0.0
0.002239069252243756 -0.0004411602055269602 0.0
0.0035181773377555843 -0.00018979954563842227 0.0
0.0035706901860830934 -0.00015004560753526308 0.0
0.003588231725790295 -0.00012644256914174298 0.0
0.0010758610821089856 0.00018773938470102337 0.0
0.0002344374118743138 -0.00018383966900529833 0.0
0.00019112280478069202 -0.0001469929324313078 0.0
0.00018476962674533493 -0.00013138320145753698 0.0
0.002598404646181847 0.00016884057461529856 0.0
0.0026643955121730704 0.00017240797311174718 0.0
0.002529443889544777 0.00015999089382821212 0.0
0.0026968875193542916 -3.9399065897095906e-5 0.0
0.0033477427516511323 -9.62366127137394e-5 0.0
0.0034309056031311814 -8.252700648647014e-5 0.0
0.0013456155491303014 -0.0006862367268289311 0.0
0.0026399355766681975 -0.0001499472908919876 0.0
0.0006237610498386031 0.0001209352564821833 0.0
0.0006182448986193829 0.0001331192473122904 0.0
0.0007409768430675801 0.00016239683494478164 0.0
0.0006091814382138887 0.00014249068150578486 0.0
0.0007819928751094965 0.00018300791069555397 0.0
0.0018689260187974253 -0.0006893715206942443 0.0
0.0011752971803604343 -0.0005841443042670287 0.0
0.0011381276436791764 -0.0005897148088197801 0.0
0.0011431173656473264 -0.0006221609540838967 0.0
0.0011012261601235185 -0.0005951483993470278 0.0
0.0030314752463267945 -0.00040287696259048826 0.0
0.0030648151824156232 -0.0004064102037714951 0.0
0.0030450212814318012 -0.0004460965375863837 0.0
0.0030969753570700928 -0.00041076858883619274 0.0
0.0024107564321462615 -0.0003822054904720416 0.0
0.002470553141927439 -0.0003614866019859491 0.0
0.0020815179900358885 -0.0007438578770325604 0.0
0.0021260780578760794 -0.0007235325237500257 0.0
0.0016441699321276407 -0.00036967120139731876 0.0
0.0015923190765972561 -0.0003784452319205808 0.0
0.0015833398415757251 -0.0007306761325959263 0.0
0.0011062990212004015 -0.0006274487361414795 0.0
0.0010652023059749352 -0.0006002136729049782 0.0
0.0033581440116290462 -0.0002532238944253271 0.0
0.0033387340896864387 -0.00028708737348908005 0.0
0.0033040021582837922 -0.0002917765748234099 0.0
0.0032894743552115604 -0.00032419248942391 0.0
0.0016684576242570798 -0.0007439216963432784 0.0
0.00027478982825583447 -0.00022004255945889522 0.0
0.00039743171593379804 -0.00019584213187491266 0.0
0.00034396752000502047 -0.00016508551288006736 0.0
0.000293120381627154 -8.675828803116963e-5 0.0
0.00028930518269739 -7.102089231476444e-5 0.0
0.00035987972971480726 -7.777446756599018e-5 0.0
0.00028706619165768277 -5.561457599295099e-5 0.0
0.0003604662308013021 -5.971690036290394e-5 0.0
0.00028520821327569394 -4.0251497571663265e-5 0.0
0.0003623869821192656 -4.140423709554806e-5 0.0
0.003373914495230769 -0.0002817143356753266 0.0
0.001094493245223072 -0.0005636885592950145 0.0
0.0027963357833446474 -0.0004238637288132209 0.0
0.0025103238002257135 -0.00063312274383993 0.0
0.0024983068446292373 -0.00067283174903511 0.0
0.002463618649150461 -0.0006621483576587375 0.0
0.0018693946570949875 -0.0007598134532153054 0.0
0.002627443470461575 2.7065442853594585e-5 0.0
0.003077378256195693 -0.0004521199566026996 0.0
0.003621132751398508 -0.00011380283204324586 0.0
0.0036026699850458415 -0.0001380514641160765 0.0
0.0010622396150098538 0.00020005977539675284 0.0
0.002552109846526578 6.686323403090503e-5 0.0
0.0019792043988553585 -0.0004997457287004535 0.0
0.002030635984382047 -0.00048447476074091756 0.0
0.0019547332467802856 -0.0007634656778278691 0.0
0.0018284459641408552 -0.000738971414599351 0.0
0.0008207399203337 -0.00021223640405887062 0.0
0.0034829126416583674 -6.178254409810759e-5 0.0
0.0035086620873651516 -6.834098730864383e-5 0.0
0.003455786226029221 -8.98874043877017e-5 0.0
0.003530510205796677 -7.40581084616804e-5 0.0
0.002916979953746697 -0.00032781653760357064 0.0
0.0022033494735079024 -0.0006007426235204331 0.0
0.0022445659007924944 -0.0004127194546475218 0.0
0.0016386605443298693 -0.0005592808844761221 0.0
0.0023523558516604886 -0.00022910976171256636 0.0
0.002514837047197291 -0.00039681296554260813 0.0
0.0025197110819618713 -0.0004936002434522305 0.0
0.0025743826962444176 -0.00046775086046746287 0.0
0.0025498697615717264 0.00017537028552263144 0.0
0.0026304027025726854 0.0001736655483737838 0.0
0.0008333203881541846 -0.0005389035559189327 0.0
0.00086816220667061 -0.0005377182525554882 0.0
0.00028399630481864565 -2.483925604780758e-5 0.0
0.00036167002996314874 -2.3007116157240495e-5 0.0
0.0004421903457515179 -4.039747636779165e-5 0.0
0.0004444030042132684 -1.8688003575907787e-5 0.0
0.00036316068296879747 -5.079478775633722e-6 0.0
0.00044987589175545195 2.5636102332756085e-6 0.0
0.0003664929441883001 1.2057380906747407e-5 0.0
0.0004582317089878 2.338088241833652e-5 0.0
0.00037014455442715207 2.8309041359505016e-5 0.0
0.00020258095982250143 -0.00016791024135327825 0.0
0.0021881051030556205 -0.0004301594232936131 0.0
0.00016057638487068028 -0.00013050772652528376 0.0
0.0007565505957562994 -0.0005073705144068379 0.0
0.0035999291053546456 -9.434365863898736e-5 0.0
0.0017874608348134166 -0.0004680117981665685 0.0
0.002301353207348289 2.7486129241764332e-5 0.0
0.002315704738653295 6.0654890762278316e-5 0.0
0.000465868585993271 4.355242788039687e-5 0.0
0.000547112106578873 -0.0004002264421503242 0.0
0.0005046903223004065 -0.0003652305649022115 0.0
0.0011485144483315295 -0.0006609310860132628 0.0
0.002575440837849417 -0.0006547937268628228 0.0
0.0013868096973082282 -0.0007113354927689094 0.0
0.0031286755754758684 -0.00041541813422848816 0.0
0.003638191767079957 -9.433774703362554e-5 0.0
0.0015911130984144824 -0.0004035707514279894 0.0
0.0015410689649182014 -0.00038675297597396557 0.0
0.0015400476285388504 -0.0004123493703211916 0.0
0.001165074507553729 0.0002023785378303081 0.0
0.001492912739583024 -0.0003947822489881515 0.0
0.0003026626199171844 -0.0001043248480966814 0.0
0.0021197375137619358 -0.0007601890487550513 0.0
0.0021641554869909685 -0.0007386331160433455 0.0
0.0021713837574879654 -0.0007024089979348264 0.0
0.00220878485049271 -0.000716312338292545 0.0
0.0026166225220755797 -0.0004716977363207267 0.0
0.0026307619737054003 -0.0004411390364370315 0.0
0.0036141775674748363 -8.051253779577568e-5 0.0
0.0035735652511824216 -9.194974029308102e-5 0.0
0.002421234724219785 8.811318205184687e-5 0.0
0.0023326578530952435 9.671541633125067e-5 0.0
0.0007146654937196024 -0.0004749907439901534 0.0
0.001070500144630916 -0.0006327320731760354 0.0
0.0010301753894773214 -0.0006051338132137155 0.0
0.0018685581071936428 -0.00026592975335362073 0.0
0.0030266925655028005 -0.0004886369562743232 0.0
0.00037524586089343495 4.371259695674027e-5 0.0
0.001023845228369447 -0.0005725308542442343 0.0
0.002200533097882806 -0.0007533717687677391 0.0
0.0022443070975296086 -0.0007297402570373174 0.0
0.0021924119169847347 -0.0004030783118379418 0.0
0.0021369725787728925 -0.00041878536073693606 0.0
0.002140866743279661 -0.00039253211850912695 0.0
0.001975223987404438 -0.00022766994725848566 0.0
0.0002982097596311812 -0.00015421926954368756 0.0
0.000172023029881988 -0.00015070324670606955 0.0
0.002217475031810019 -0.0006804858935321356 0.0
0.0022750093560965612 -0.000340687782227672 0.0
0.0018279444555133108 -0.000774733283469717 0.0
0.0007420278462388876 -0.0001311246306662203 0.0
0.0013107325916596622 -0.00026265961236305837 0.0
0.0005885530903961879 -0.000436096876959789 0.0
0.003148619311498274 -0.0003761451441118892 0.0
0.0008007890709853342 -0.00035814907341308257 0.0
0.0007493651109309087 -0.0003287921645859488 0.0
0.000797989789907465 -0.0003312040913369541 0.0
0.0007445735648537923 -0.00030219612489392617 0.0
0.0007945912074720361 -0.00030462075431855653 0.0
0.0006955038280380441 -0.0002991669113633104 0.0
0.002452263649001734 -0.0007021973700893898 0.0
0.0024206742843272985 -0.0006904103842612109 0.0
0.0004983502825538121 0.00010245574226581624 0.0
0.001869633847888192 -0.0007955287236321065 0.0
0.0018231018194965053 -0.0006037470151316806 0.0
0.001776240076694988 -0.0006168908886266166 0.0
0.0008744589555085349 -0.0005705103325906476 0.0
0.0002342469242877466 -7.699089175652358e-5 0.0
0.0002482889760748916 -9.580524634145313e-5 0.0
0.0033765193975622077 -0.00016241417240491952 0.0
0.003438415221456271 -0.00013400537009573667 0.0
0.0005258568881812939 -3.667334876387748e-5 0.0
0.0009087257283887167 -0.000568042175334766 0.0
0.000904770553255725 -0.0005379207438446057 0.0
0.0009149667655251075 -0.0006013327769764427 0.0
0.0008408955105421475 -0.0005724156412881736 0.0
0.0006238376058946199 0.0001586039602784699 0.0
0.001417879217230232 -0.0006058592946385687 0.0
0.002182919130017606 -0.00045906236418636384 0.0
0.003387764697242036 -0.00014333543841179075 0.0
0.002076300317797829 -0.0007809585571808275 0.0
0.001348399418101703 -0.0007202952612691591 0.0
0.0036509945252450413 -0.00010139905076779804 0.0
0.0036321736910962217 -0.00012632313280169075 0.0
0.0011851970458546756 0.00019007971005130414 0.0
0.0010366173788938734 -0.0006386547524791258 0.0
0.002416364524426937 -0.00035305721066569934 0.0
0.002481242457969051 -0.00033278577373250975 0.0
0.00039071641007098416 -0.00017477548294216286 0.0
0.0005161304798506857 -0.00039707571349300875 0.0
0.0004750372627773661 -0.00036205558460523967 0.0
0.0004627943372385661 -0.0003314126577273312 0.0
0.0007232574947735556 -0.000507821395566178 0.0
0.00013121878940398912 -0.00011267632522799188 0.0
0.00012225698230884261 -9.761917142779244e-5 0.0
0.0022350279424299736 -0.0007678488100804011 0.0
0.002277857206381401 -0.0007430389993702583 0.0
0.002286718534216867 -0.0007038230642600895 0.0
0.003085023664714753 -0.0003699624576391716 0.0
0.0030503167523564583 -0.00036841259459103985 0.0
0.003057687914290364 -0.0004965883481276151 0.0
0.0006900061607238724 -0.00027332013667765077 0.0
0.0006420781190701496 -0.0002706019904197531 0.0
0.0025340292931654135 -0.00033992669027526517 0.0
0.003579633525618831 -5.453597877911193e-5 0.0
0.0035988944102433476 -5.845423101916816e-5 0.0
0.0036217898157892598 -7.037612631944855e-5 0.0
0.0035745365719322118 -0.00017643038973009877 0.0
0.00021358405705557625 -0.00019108254303662334 0.0
0.002346531628001609 -6.627623333566149e-5 0.0
0.0022717752145048047 -6.081030327188558e-5 0.0
0.0022604733180353336 -8.356691704034552e-5 0.0
0.0021897974735940002 -7.897329457858793e-5 0.0
0.002183138100661409 -0.00010065986566694022 0.0
0.0021945099146800967 -5.782946416833616e-5 0.0
0.0019827838216986493 -0.00047096745400084433 0.0
0.0015935059939934703 -0.00035421293407460197 0.0
0.0016459391862909728 -0.000345749176988671 0.0
0.00048646974023922404 -0.00039370155461220863 0.0
0.00044590461043728184 -0.00035759702753192197 0.0
0.003243691689815324 6.497769137115505e-5 0.0
0.0033565361090277172 5.265833716370002e-5 0.0
0.003401053179118971 3.322298072633515e-5 0.0
0.0034679354813922396 3.898533371154217e-5 0.0
0.003439530550148766 5.5246643952271104e-5 0.0
0.0017889058253559129 -0.0007542096033177121 0.0
0.001788765523875282 -0.0007204901531952252 0.0
0.0017876398317963 -0.0007892747512816286 0.0
0.0022202739299285617 3.204616292799086e-5 0.0
0.0022088346304235057 4.378999277142285e-6 0.0
0.0005264876081085406 -6.079073737418527e-5 0.0
0.0002766592118197734 2.708798467333093e-5 0.0
0.0024078014267375847 -0.0007311856809320632 0.0
0.0006240552231926709 0.00010677180264109718 0.0
0.0024465806665372137 -0.00044891321926284383 0.0
0.00226275860397524 -0.00010548016728406698 0.0
0.002176894970744953 -0.00012186223564864326 0.0
0.0022422303317371755 -0.00012894986045757455 0.0
0.002170324833513656 -0.00014269988317171817 0.0
0.0022320302288204733 -0.00015020866879849646 0.0
0.0021641478513656693 -0.00016364779395220628 0.0
0.002223984397891347 -0.00017144813818320833 0.0
0.0021584046011074998 -0.00018489292636957255 0.0
0.002219144853902154 -0.0001929127623689795 0.0
0.0021049687712924123 -0.00013503728821916616 0.0
0.0020984653699865807 -0.00017658674135275992 0.0
0.002485841524885064 -0.0007143801805416082 0.0
0.0036621428470656105 -6.402323821607395e-5 0.0
0.0012940953557239539 -0.0005661986777282372 0.0
0.001248993935112271 -0.0005428274809066117 0.0
0.0034643219806392944 -0.0002322525887497149 0.0
0.0014961933173687906 -0.00037323808471884323 0.0
0.002116219540737448 -9.421958601530485e-5 0.0
0.0007782395142543489 0.0001999840600873949 0.0
0.00021991418936079734 -4.943827812824794e-5 0.0
0.0012744857831622103 0.00020251881336466737 0.0
0.001284711176066284 0.00018866298112762275 0.0
0.0028339684895499276 7.880397040737644e-5 0.0
0.003496828954643269 -0.0002243932597512181 0.0
0.0034453287889074204 -0.00026868547702037264 0.0
0.0014905316634770173 -0.000420507760775452 0.0
0.0014480747691514224 -0.00039889328461728215 0.0
0.0006212221464631358 -0.00041153751139085573 0.0
0.00014267971369360846 -0.00013190844123132472 0.0
0.00017629073334690697 -6.44797291826594e-5 0.0
0.0001822730707217741 -7.682802275918992e-5 0.0
0.00010277172287002155 -9.329025231153181e-5 0.0
0.0025861018597144393 -0.00043777933130804546 0.0
0.00264377495305451 -0.0004119022764893731 0.0
0.0026892616925340757 -0.0004145162407821274 0.0
0.0027018173111826643 -0.0003852147285603388 0.0
0.0020943607366232086 -0.0001967382507291839 0.0
0.0009252132832545711 0.0002165826012720434 0.0
0.0011701736857461927 0.00021154892884034452 0.0
0.0020859707404222473 -0.000407090496071722 0.0
0.0020903648945266406 -0.0003810357940376858 0.0
0.0015959125400775958 -0.00033169277486626937 0.0
0.0013636300223224362 -0.0003283288318360715 0.0
0.0013896406078381302 -0.0007458755274473326 0.0
0.002821169385389526 -0.0005358779784682347 0.0
0.0028537961138604168 -0.0005442271828486894 0.0
0.0028055601981298198 -0.0005776727193639315 0.0
0.002837258728177741 -0.0005882064438890711 0.0
0.0027906753283372236 -0.0006218278554319352 0.0
0.002758812570911466 -0.0006110448284073787 0.0
0.0026779627739179196 -0.0005980894022010878 0.0
0.0024277749598660765 -0.000651395710520443 0.0
0.002565712665987396 0.00013772406870232439 0.0
0.001964433064827035 -0.0006255901793036215 0.0
0.000544217590761494 1.3335073692683781e-5 0.0
0.0036102552594680024 -0.00015827700467186922 0.0
0.0036590377063097116 -0.00011423807430413241 0.0
0.0028849476439382995 -0.0005537348110142725 0.0
0.0028690399040623735 -0.0005984480884500495 0.0
0.002915005166450628 -0.0005640865476450778 0.0
0.001426769954810083 -0.0007365639141745651 0.0
0.0017318509979631464 -0.0005981329188773447 0.0
0.0017314604874556461 -0.0006288880144167051 0.0
0.0017745697321687906 -0.0006487647723528451 0.0
0.0011710045598994966 -0.00046146943296079053 0.0
0.0016872350825503947 -0.0006093796728553378 0.0
0.0021792963571799382 -0.0006680480086109153 0.0
0.003106322202393717 -0.0003359089810056697 0.0
0.0031796135959544112 -0.0003791504710395515 0.0
0.0031591434492835415 -0.00042073888598895433 0.0
0.0032069226040545564 -0.0003372065662456724 0.0
0.0004419297116659003 -8.259916489131985e-5 0.0
0.0012652235906545932 -0.0006688847492769477 0.0
0.001227977275992866 -0.0006762794660028963 0.0
0.0012690525899135756 -0.0007027890427366008 0.0
0.001233507283381876 -0.0007106785180237569 0.0
0.0027472173011764355 -0.00038662494663586205 0.0
0.0007652999877267267 -0.0005410474043362572 0.0
0.0006838153229367875 -0.00047558850375806796 0.0
0.003549285064132876 -7.989556508020166e-5 0.0
0.0002104936559888007 -2.4341480494984038e-5 0.0
0.0002096629833324396 -1.2745261745577172e-5 0.0
0.0023748192545070064 -0.0007136595078652411 0.0
0.0023683019655340817 -0.0007580667124402731 0.0
0.0019306346203582635 -0.00048537234555618504 0.0
0.003511623420966468 2.2232015476894004e-5 0.0
0.0006917831149460346 -0.0005081170876851974 0.0
0.0028455021809536685 0.00016139679164265216 0.0
0.003319106920664207 -0.00025991618808951744 0.0
0.0033454178242498067 0.00010892671046436368 0.0
0.003382831037886993 9.590569522266038e-5 0.0
0.002656095709278602 -0.0003832963157902274 0.0
0.0028535252672102374 -0.00039480708140233225 0.0
0.002893251302235 -0.00039498389874072036 0.0
0.0025371821502067566 0.0001657783432704665 0.0
0.0026122888641019006 0.0001616421661499353 0.0
0.002709263698326648 0.00017054635484618682 0.0
0.0021916445312353786 -0.0007920023075869578 0.0
0.0010740163590265799 -0.0006657473735049361 0.0
0.0016406808470215233 -0.00044616998358918406 0.0
0.002356813072488215 -0.00037462027264079117 0.0
0.0020769579071473502 -0.0004968516808849642 0.0
0.002113334912290617 -0.0007982750139940099 0.0
0.0009476915158073054 -0.0005978584268056735 0.0
0.0012088130731943397 -0.0005476933461509539 0.0
0.0004938797222328022 -0.0001908136603249773 0.0
0.0035596615788037796 2.5822943347603667e-5 0.0
0.002741920566901399 -0.0004531156083911504 0.0
0.0003352771679170295 -0.0001458691134329655 0.0
0.0009239603609326877 0.00023884445182217087 0.0
0.0021014000403930086 -0.0006390124956993226 0.0
0.0027443144515845123 -0.000655755292869142 0.0
0.0027108087208424095 -0.0006444979282296788 0.0
0.0024234890740651373 -0.000510523382315325 0.0
0.0025413119164291544 -0.00031240883029085183 0.0
0.0011109168138190729 -0.000378396112996317 0.0
0.0017305036847058402 -0.0006658938212945513 0.0
0.002332442855657359 -0.0003250959279205246 0.0
0.0012041029166130722 -0.0005184359024238305 0.0
0.0011632972767019365 -0.0005224384583515845 0.0
0.0009538448973254097 -0.0006317193678340856 0.0
0.0006090251268760287 -5.795442535073029e-5 0.0
0.0006124394362184855 -3.225131647060928e-5 0.0
0.00028200584951326317 3.848784652822022e-5 0.0
0.00038693559132641934 5.9125065125496136e-5 0.0
0.0030089984339738045 -0.0005330968541307765 0.0
0.00044393486301549196 -0.00020479318571805038 0.0
0.0006481153035941679 -0.000296468193445156 0.0
0.0005947948328252318 -0.00026686788197764934 0.0
0.003170973429630939 -0.0003388664202102944 0.0
0.0015917471649950932 -0.0006000363925177788 0.0
0.0020338398421904914 -0.00045485912612657105 0.0
0.002453021757349723 0.00014194845987926044 0.0
0.0024305959939556598 0.00016416689620850475 0.0
0.00235853014275892 0.00015018242875019372 0.0
0.002336311024408897 0.0001655565463291523 0.0
0.0024016291979526237 0.00017127553937576703 0.0
0.002715647804782816 -7.144012050033351e-6 0.0
0.0027939367002848105 -1.8279163382185343e-5 0.0
0.002817922185950339 1.2805473392005656e-5 0.0
0.0028897363998527394 3.5943112279581427e-7 0.0
0.0028670145523243882 -3.0617820832853634e-5 0.0
0.00016867074466136292 -5.242926764763709e-5 0.0
0.0027616200896337273 -0.00035860626582820984 0.0
0.0004560387372826829 0.00011310061100098539 0.0
0.0004790561032803364 0.00013042453696363176 0.0
0.002268089975641099 -0.0007823435992213032 0.0
0.0001357543532391014 -1.1496639289377555e-5 0.0
0.0030232364127035006 -0.00021775843029059542 0.0
0.0030935773945691353 -0.00018981527398835454 0.0
0.0030415389119287295 -0.00018812988960690365 0.0
0.0031518409300586663 -0.00018663002019367003 0.0
0.0031656392379161044 -0.00016212213306297864 0.0
0.0032249941130913246 -0.00015923730772050414 0.0
0.0008491285500167286 -0.00033253924118862855 0.0
0.0008480568661896044 -0.0003065907213599639 0.0
0.0007907166693836824 -0.00027839878985555494 0.0
0.0008460804711778436 -0.00028103926443478854 0.0
0.0009038006919438975 -0.0003082056565248401 0.0
0.0009025582672045394 -0.00028256853279556713 0.0
0.0009595994669171628 -0.0003086465537572613 0.0
0.0010430981134045478 -0.0006711186789571134 0.0
0.000958787687443362 -0.0002823872226434611 0.0
0.0010156957616009462 -0.0003083288814442629 0.0
0.0002805184125125832 3.007806534830037e-6 0.0
0.000607329868899626 -8.33836451814894e-5 0.0
0.0010141667687292386 -0.0003336484029601343 0.0
0.0007932489558847253 -0.0002554897810024181 0.0
0.0030695436148366704 -0.0003365669104821439 0.0
0.0030149434691634095 -0.00036811024476276973 0.0
0.0017499792994588466 -0.000769523235594767 0.0
0.0017484063782825133 -0.000803600341224247 0.0
0.002269099246007958 0.000151840899801602 0.0
0.00120716423658185 0.00017121952613346415 0.0
0.0013002620399733581 0.00016654583208528719 0.0
0.0013731352957264068 0.0001833240854747858 0.0
0.0013884801693667768 0.0001564993306351912 0.0
0.0013167484789625681 0.00013725807846201552 0.0
0.0014038330939338116 0.0001200732017950536 0.0
0.0013335016331833787 0.00010319136117675985 0.0
0.0014212853021014634 8.114395624250915e-5 0.0
0.001349763174399869 6.882424531591282e-5 0.0
0.001451481483151019 4.394089941486197e-5 0.0
0.0013640352571380322 3.662285694367552e-5 0.0
0.001449652112948738 1.3565868517471124e-5 0.0
0.0013735831324162072 7.467404858788247e-6 0.0
0.0014566290261975618 -1.4023014780080703e-5 0.0
0.0013866842650262278 -2.059687795345918e-5 0.0
0.0014655899147527907 -4.0182428287026255e-5 0.0
0.0013958745084927953 -4.6037122272968605e-5 0.0
0.0014700505341681215 -6.385933700985955e-5 0.0
0.0014033973130756412 -6.954479406722792e-5 0.0
0.0014746769018795273 -8.603717517738004e-5 0.0
0.0014093893964787763 -9.207422692103266e-5 0.0
0.001478044672559766 -0.00010780970015781342 0.0
0.0014127477380128674 -0.00011390932128887866 0.0
0.001480534104140492 -0.00012854971914458152 0.0
0.0014157850304170466 -0.0001359601549448267 0.0
0.001347661986446892 -0.00011957918425052116 0.0
0.0013512703635503998 -0.0001425883490542247 0.0
0.001487750596271892 -0.00015154133067270606 0.0
0.0013314623664447362 -5.1642331023299345e-5 0.0
0.0015438936916565304 -0.00012056992286784855 0.0
0.0015458882479145145 -8.090855973911253e-5 0.0
0.0012664443802388949 8.811767880202564e-5 0.0
0.0015350719324704483 -3.352112189014354e-5 0.0
0.0012819152540871001 -0.00012520097574759815 0.0
0.0012868941047040627 -0.00014863343978182116 0.0
0.0013549195359256994 -0.00016589259876385228 0.0
0.001291676077422336 -0.000172227013551891 0.0
0.0013044452532210888 4.577354813188172e-7 0.0
0.0015333336486077925 1.518037674150795e-5 0.0
0.0012779884547537692 -0.0001016185396489081 0.0
0.0014948060844987923 9.534655493408599e-5 0.0
0.0013587171464454336 -0.00018914754426112515 0.0
0.0012959107584046682 -0.0001958724356133865 0.0
0.0012289729675837983 -0.00017811884800374408 0.0
0.0012099456992845394 -0.00010725845105608842 0.0
0.0012028849438595996 -8.16431276669325e-5 0.0
0.001421888565811848 -0.0001818009415613781 0.0
0.001423588985863698 -0.00020463804665913648 0.0
0.0014850284601987003 -0.00019709182104608855 0.0
0.001462356691703815 0.0001715306136067723 0.0
0.0014528908709754435 0.00018963791292748137 0.0
0.0012355879367757642 -0.00020250940687639498 0.0
0.001167224527289024 -0.0001839433562359208 0.0
0.0011620639492032846 -0.00016009975462871306 0.0
0.0010967144223979768 -0.00016469139051374549 0.0
0.002071555435124771 -0.0008187508394386591 0.0
0.002034753702346477 -0.0008006521802273499 0.0
0.0034767991542246053 -0.0002613968150034571 0.0
0.0022259334878959617 -0.0006461164492028948 0.0
0.0022643151361204142 -0.0006580978809211704 0.0
0.0012846227969919343 -0.0005356430958460789 0.0
0.0013301261015536405 -0.0005580971920634742 0.0
0.0031001850511192157 9.855353503203811e-5 0.0
0.002249000163816738 -0.00038499795589508513 0.0
0.0013015396650688836 -0.00021914134292169672 0.0
0.000984676062429582 -0.0005757637705208681 0.0
0.0009821719260168272 -0.0005448425342355073 0.0
0.0010179465817896608 -0.0005415409977710303 0.0
0.0024866539325196697 -0.00030559493910765824 0.0
0.002296608493827816 -0.00013798651619790846 0.0
0.0015403651247565577 -0.0004387179489185027 0.0
0.0014919595812391115 -0.0004473966725017912 0.0
0.0021279915699264395 8.8228308137276e-6 0.0
0.00212222361952773 -1.4189095129429977e-5 0.0
0.002190898419315355 -1.8972141244412532e-5 0.0
0.002110325074139236 -3.818437543882828e-5 0.0
0.002138792016017004 3.344240362544348e-5 0.0
0.0022833586574190607 -0.00017975802504355975 0.0
0.0022795765720214126 -0.00020115609567512345 0.0
0.002209136980102053 -0.00021435580390587064 0.0
0.0016484332473068945 -0.0003232210473986637 0.0
0.0016989619113219046 -0.0003369031744239851 0.0
0.0017020759937276637 -0.0003152221744633534 0.0
0.0017517971309646808 -0.00032763180419926187 0.0
0.001754866351022062 -0.00030637470248557334 0.0
0.0018044852043684295 -0.0003181215072956285 0.0
0.0018078336128449812 -0.0002973664268847901 0.0
0.0018595204409408385 -0.00030828151627389455 0.0
0.001854847766652072 -0.0003300924497061828 0.0
0.0019110229371213812 -0.0003166285039069384 0.0
0.002147658780400008 -0.000368002809402331 0.0
0.002094506315872936 -0.00035660436055611004 0.0
0.0020394377110159135 -0.00036970223335241857 0.0
0.0020428174287026586 -0.00034592694987977584 0.0
0.00038402668758443946 -0.00015482653552710603 0.0
0.00045859224675199624 -0.00038981418938299767 0.0
0.00041874807321254186 -0.0003526430454332821 0.0
0.0004065738291452904 -0.00032073647587580823 0.0
0.0003782465013947807 -0.00031420282132308 0.0
0.0019337301342173883 -0.00045729549372634337 0.0
0.0025953145143940612 -0.00031737187993794986 0.0
0.0025827640119815386 -0.000346537533051537 0.0
0.000952930817395565 0.00019402225498461382 0.0
0.0020377467011822776 -0.00018854854895690134 0.0
0.002039592423054656 -0.00017071158439369816 0.0
0.0021217433747872457 0.00014448125585502094 0.0
0.003609606568150418 -0.00010367601580573888 0.0
0.003655841878167495 -7.7294584928379e-5 0.0
0.003687706897737586 -6.440792270136167e-5 0.0
0.000125578650383632 -5.083826961006417e-5 0.0
0.0001285890143209986 -5.9571260204555774e-5 0.0
0.00018305856130631436 -8.7314068346604e-5 0.0
0.00013543132663501364 -7.026057458127878e-5 0.0
0.0001864237563004435 -9.93651277422059e-5 0.0
0.00014015207762606115 -8.06954995044374e-5 0.0
8.57382733210759e-5 -4.8666692622581004e-5 0.0
0.0018819328215965157 -0.00047084683112340716 0.0
0.0009041504153331147 -0.0002579100972711495 0.0
0.000528758516579305 -0.000429937249649579 0.0
0.0014844765702206827 -0.00021810279569062541 0.0
0.0034350310478285834 -0.0003008536908468582 0.0
0.0034013168215371427 -0.0003139294654939772 0.0
0.0029108098198877435 -0.0003649983361656971 0.0
0.0029634956486899273 -0.0003589875354487281 0.0
0.0029753354348841738 -0.0003291354931589941 0.0
0.00018114464006789945 2.1027581237043867e-5 0.0
0.0013534422033696562 -0.0007550935981917129 0.0
0.0009225294783213859 -0.0006360924462043061 0.0
0.00011463942217271515 -0.00011197455987044666 0.0
0.0001573955023795534 -0.00015842988098676054 0.0
0.000736084369026698 -0.0002526395593886745 0.0
0.0023184813316400204 0.00016389426617644627 0.0
0.002392715380869623 0.00016350029453165378 0.0
0.0028083816574027954 -0.0003958251214725716 0.0
0.002930069002330472 -0.00039620088247721476 0.0
0.001273972535862834 -0.0007363914186218162 0.0
0.0014281277940269939 -0.0007698513081633861 0.0
0.0014655537470445307 -0.0007612889501531967 0.0
0.003208711061191112 -0.0003837116525340272 0.0
0.0031882295129736097 -0.0004265687891758918 0.0
0.003137796510187101 -0.00047108750455005573 0.0
0.003451637538920197 -0.00011660513809267789 0.0
0.003400464977061916 -0.00012495020931403122 0.0
0.0033352525185036982 -0.00015085274966384563 0.0
0.003343107624877213 -0.00013234973096430913 0.0
0.0006275140215435358 -0.0002467078452337328 0.0
0.003236290468824885 -0.0001366797212728314 0.0
0.0031670517746356314 -0.00013888382219644262 0.0
0.0022748564977538885 -0.0006256624001639802 0.0
0.00038810564381378974 -0.0003427711264217923 0.0
0.0003526026062413689 -0.00031017310047217015 0.0
0.0003397227655217277 -0.0002805758060414744 0.0
0.00031475448167708503 -0.0002744675411660145 0.0
0.003697967550733013 -5.4139692109492253e-5 0.0
0.0036179198176769446 -6.0268737387063166e-5 0.0
0.003663810172904619 -4.190933864803478e-5 0.0
0.0030378785440062783 -0.0005403508104031646 0.0
0.001542486004711049 -0.00033851982995677227 0.0
0.003235532648379187 -0.00038956006570655625 0.0
0.0032175909630783005 -0.0004306447062842253 0.0
0.003261583311985278 -0.0003947696164849855 0.0
0.003247709849567383 -0.00043734008145213414 0.0
0.0032926713622419826 -0.00039454554798003564 0.0
0.0033070413298537634 -0.0003571150810166331 0.0
0.0033335027098895646 -0.0003597803730213475 0.0
0.0017897451902937345 -0.0008232852980951347 0.0
0.0017528466574277051 -0.0008407007425947728 0.0
0.001704550691144728 -0.0008170870102241941 0.0
0.0012427918265435136 -0.00022736702664101597 0.0
9.913321811108604e-5 -6.216536578916096e-5 0.0
0.00014430366135568094 -9.167042359274902e-5 0.0
0.00010391183032259122 -7.107873879799427e-5 0.0
0.0012438410254953204 -0.0007505729788317786 0.0
0.0012016218719733724 -0.0007197093993272138 0.0
0.0035671616226592025 -0.00020131247408149207 0.0
0.0002942377884514603 5.079031448961969e-5 0.0
0.0019897011099967556 -0.0003610749507467458 0.0
0.001995061086418571 -0.00033649409422135013 0.0
0.0034399064145194517 1.5593024586035747e-5 0.0
0.0035474303634889636 8.154768483789383e-6 0.0
0.003224290597719815 -0.0003053103281297194 0.0
0.0006556483951380654 -0.00047505526107381816 0.0
0.0006680975712043962 -0.0005111238653791314 0.0
0.002739072946534332 -0.0004146056846212126 0.0
0.0027614873502783675 0.00014039635061495004 0.0
0.0036377747675241153 -0.00014469752098558958 0.0
0.0036852377595594493 -0.00010007292644623556 0.0
0.003703319589534658 -7.647727422472849e-5 0.0
0.0026823259105592913 0.00015714442133446323 0.0
0.003126641862570262 -0.0003058095341506952 0.0
0.0017114432258639623 -0.0007236928997063343 0.0
0.00320986752296707 -0.00018298404284316383 0.0
0.0030239093673613622 -0.00034283969120632693 0.0
0.0011618405222621464 -0.0004917619863987822 0.0
0.0006731815747715547 -0.00044334279587897974 0.0
0.003507648604339885 -0.00010390859805194721 0.0
0.00291265228811034 0.00016387119978342955 0.0
0.0012020925530319385 -0.0007521701717904431 0.0
0.0005572726473987669 -0.00022203126113782092 0.0
0.0020259446681443285 -0.0002101696686101601 0.0
0.002977886310475993 -0.0005303943233934374 0.0
0.002966034352111795 -0.0005708476510683603 0.0
7.718310720765108e-5 -7.453477658998408e-5 0.0
0.0023078114504335476 -0.0007613970740058453 0.0
0.002292790417054101 -0.0007959716420472627 0.0
0.0014646019998968687 -0.00079990132463229 0.0
0.0015040890343368898 -0.0007867899886320655 0.0
0.0015025046343239302 -0.0007517348637667551 0.0
0.0015416955106493148 -0.0007755943319572015 0.0
0.0015046705679029027 -0.0008162293319920326 0.0
0.0012742407387383177 -7.7905515417916e-5 0.0
0.0011984001786147758 -5.787813127769033e-5 0.0
0.0005228943518268271 -8.360521081288644e-5 0.0
0.0010444992216757424 0.0002376870423121652 0.0
0.001048305229150956 0.00022004916932528155 0.0
0.0022879107772277984 0.00012308393218804267 0.0
0.002895843559495119 -0.0006093588388633998 0.0
0.002854050808313365 -0.0006425340113319919 0.0
0.00032384027539973914 -0.000303604704967378 0.0
0.00028726644611353635 -0.0002651941342860655 0.0
0.003681538049143059 -4.176449263067657e-5 0.0
0.0006102159508637246 -0.0002941444936894739 0.0
0.0005503951118381282 -0.0002674752752593168 0.0
0.0034238337066178474 0.00012781962880857096 0.0
0.003522908250891967 -0.00021928557035287222 0.0
0.0035022988869342015 -0.00025881756388294007 0.0
0.0020878556067060045 -0.00021758128114016971 0.0
0.0023971006073656713 -0.0007719517537577025 0.0
0.0023486882625651873 -0.0008056182610351108 0.0
0.0010658426330604181 -0.00033119141640711386 0.0
0.0010709045691311126 -0.00030597671206653455 0.0
0.0015421579755125888 -0.0007413000095790799 0.0
0.0032437028397829543 -0.0003376092097341234 0.0
0.0018625047337761395 -0.00028727112397679446 0.0
0.0018151584056429607 -0.00027650131884927154 0.0
9.440858602260334e-5 -9.772321918562589e-5 0.0
0.000995301819506014 0.00036612862928624357 0.0
0.0017031054356043702 -0.000293032472318824 0.0
0.0011366049116232689 -8.848424081833393e-5 0.0
0.0011465848569349084 -0.00011328402835867443 0.0
0.0006918209470471064 -8.03888510948634e-5 0.0
0.0023487916655854906 -0.00018597561921807342 0.0
0.0015429882443312207 -0.00021087128785752876 0.0
0.0015451407358329265 -0.0001906325711702763 0.0
0.0016015769670672513 -0.0002041527529547723 0.0
0.0016025094788922974 -0.0001851489124792347 0.0
0.001656567040325222 -0.0001961973632215252 0.0
0.0016582996314235975 -0.00017842350716886076 0.0
0.0016029400825433274 -0.00016690719030668113 0.0
0.001659258971538376 -0.00016043633260240397 0.0
0.001604012703054911 -0.00014932776948027145 0.0
0.001661171212210551 -0.00014315391051300405 0.0
0.0017088943343685889 -0.00018901889097770134 0.0
0.00014597435222886022 -4.5364616399279356e-6 0.0
0.0022705029342129104 -0.00022583521426665154 0.0
0.0015540068058539627 -0.00031667862515124493 0.0
0.0014762547646669278 0.00013665945112470792 0.0
0.0015823521608081337 0.00010313616108073752 0.0
0.0015882676591590617 6.571482652624782e-5 0.0
0.0015536241291741228 0.00015019383890057237 0.0
0.0015164849006856058 5.879201008642243e-5 0.0
0.0016067392939241355 3.6404863174133053e-5 0.0
0.001690795993312639 3.718935566578113e-5 0.0
0.0016441510399499183 0.00012612910560523208 0.0
0.00023492699314798268 -0.0001165482177207842 0.0
0.00024136981010604967 -0.00013223934319884018 0.0
0.0036787513007363695 1.887372096690323e-5 0.0
0.003560628501887025 4.232010590504582e-5 0.0
0.0035535146755580815 5.144879312423658e-5 0.0
0.002780697319205411 -0.0006701722329383641 0.0
0.002729679403243553 -0.0007020304526301367 0.0
0.00097627255681248 -0.0005145477992689798 0.0
0.001013368081631696 -0.0005105758211447123 0.0
0.0009386262413520661 -0.000516671246520117 0.0
0.0010715400175793969 -9.876166888316862e-5 0.0
0.0016648432371026603 6.85191950824391e-5 0.0
0.0017185155799286924 -0.00015347683872410643 0.0
0.0017164958642447883 -0.00013600058220933448 0.0
0.001662051215059385 -0.00012604639966675742 0.0
0.0017159390846605387 -0.00012020027159515641 0.0
0.0016655548575027373 -0.0001098536272097954 0.0
0.0010054213946112604 -0.0006452463903581198 0.0
0.003668793724808274 3.076037301954499e-5 0.0
0.0015496348196304243 0.0001791480535792361 0.0
0.00219612289847232 0.00012301148571597627 0.0
0.002203671694432747 8.960924063003299e-5 0.0
0.0021135524970728233 8.137786972146336e-5 0.0
0.001101797643240117 0.00017195394611434092 0.0
0.0013487182684599368 0.00019507655690886882 0.0
0.0012749549411531457 0.00020692098871654354 0.0
0.0012259833235169775 0.00021469750266287882 0.0
0.0024610916592561027 0.00011650559346526865 0.0
0.0030872194258862668 -0.0005046324539587361 0.0
0.00306608980017887 -0.000552626135138219 0.0
0.0009580796654021738 -0.0006649024900148388 0.0
0.0015808808054357006 -0.0007650833471355973 0.0
0.0015815989165518848 -0.0007986153949245344 0.0
0.0016185701947181732 -0.0007880488976641063 0.0
0.0016242718288500837 -0.0008258016301142982 0.0
0.002672245178056847 0.00012862617490975312 0.0
0.002595121782401973 0.00011131782505686604 0.0
0.0026969318728233393 0.00010521461837589647 0.0
0.0027779712330624914 0.00011880496855929045 0.0
0.002050815840082178 -0.00032362141601476193 0.0
0.0020083300438244155 -0.000312762498884008 0.0
0.0016582825115730047 -0.0008092502064241399 0.0
0.0011124950034067987 -0.000191864001004208 0.0
6.218087381244805e-5 -5.602215559881038e-5 0.0
0.0015309252082604749 -7.417974083580498e-6 0.0
0.0016060232627310288 -2.738837337250408e-5 0.0
0.0016102530538383824 -4.9383278696232865e-5 0.0
0.0016799046513345942 -4.359493106357484e-5 0.0
0.001679019669841874 -6.179297204285014e-5 0.0
0.0016764371280779966 -2.4626411430673e-5 0.0
0.0016208535874112247 -6.798075731949207e-5 0.0
0.0016798083620533457 -7.872310014044512e-5 0.0
0.0017450381711085344 -3.794447976135513e-5 0.0
0.002495494519388686 0.00011590901794943289 0.0
0.0016270437190913623 -8.598125765245923e-5 0.0
0.0037220650208955484 -2.6907890734341207e-6 0.0
0.0014238002038108035 -0.0002268845832652363 0.0
0.001773257350639321 -0.0006816708105190163 0.0
0.0018204726194576723 -0.0006685626639487906 0.0
0.0016070947696689743 -5.576734282467849e-6 0.0
0.0016831625203411172 -5.214019245121495e-6 0.0
0.0021578765411691776 -0.0003445943843227069 0.0
0.0027216330767054348 -0.0006019065282794194 0.0
0.0026745348238078454 -0.0006376452077484162 0.0
0.0026646726915073742 -0.0006790783064696179 0.0
0.0026311748865086764 -0.0006721684214180304 0.0
0.0026240287101616296 -0.0007104268401526858 0.0
0.002588233892460993 -0.0007060664930112582 0.0
0.003119378564631792 -3.3721746583621806e-5 0.0
0.0030539745283366016 -6.199001290308596e-5 0.0
0.0030850165740000765 -8.40159998199394e-5 0.0
0.0029896085379239002 -9.185258800239161e-5 0.0
0.003017760614892282 -0.00011377618865383945 0.0
0.0029232918929652917 -0.00012302977275834525 0.0
0.002953182450572464 -0.00014479688299609875 0.0
0.0028932169723581863 -0.00010031175724824052 0.0
0.0028294538584894336 -0.00013159056201595608 0.0
0.0030423712282220557 -0.00013472402998349165 0.0
0.0027979342685852484 -0.00010931437039810388 0.0
0.0029773899453232953 -0.00016566444439290978 0.0
0.002893507567813872 -0.00017566192700716143 0.0
0.0029139844754050735 -0.0001966412931070072 0.0
0.0028627746547408304 -7.873748129688199e-5 0.0
0.003018862648713756 -3.845232638417865e-5 0.0
0.0030650319460289446 -0.00015607138687360032 0.0
0.0031860646003896275 -7.998238027256755e-5 0.0
0.0031238117939054928 -0.00012577938813982268 0.0
0.0020463612926742616 -9.970841676400555e-6 0.0
0.0013273706637338797 0.0002033617469949894 0.0
0.00019811976892476017 -0.00011736679358070327 0.0
0.000183907781457038 -0.0001738009292415186 0.0
0.00022241577515571935 -0.0002135084198010298 0.0
0.0016564255764450132 -0.0007763488981294883 0.0
0.002216569208335598 -0.00035789584910830656 0.0
0.002120332892327479 -7.457548429135475e-5 0.0
0.002048817675507031 -8.794792442904621e-5 0.0
0.0020610061838769026 -7.023771651986839e-5 0.0
0.0020507957802759474 -0.00010636050597178683 0.0
0.0021115465236449023 -0.00011397616917504095 0.0
0.0020456493783448204 -0.00012518930331065407 0.0
0.002039147555977592 -0.00014294823520150094 0.0
0.001988596616325501 -0.0001345273896094612 0.0
0.00024222039109505195 -0.0002050123675628868 0.0
0.0023700149598820087 -1.030383635205122e-5 0.0
0.0028861413372478738 5.470254491291644e-5 0.0
0.002768382841209989 5.871827919304198e-5 0.0
0.00014799837399548618 3.1335606944418157e-5 0.0
0.00030860826420333216 7.158251194890206e-5 0.0
0.0002890108856196914 5.977945497019935e-5 0.0
0.002416854212405541 -7.72192260623785e-5 0.0
0.00031402364223366525 -0.00024029469896104226 0.0
0.00036458854523680915 -0.0002827641987715759 0.0
0.0003962282444249532 -0.0002927141924719766 0.0
0.00039239885927140546 -0.0002681671041000974 0.0
0.0004256899900927878 -0.0002708067154730128 0.0
0.0015434842456663826 -0.00010153255082243189 0.0
0.00017926321981155574 1.3062674553346492e-5 0.0
0.0007432357315106093 -0.00020851738454003498 0.0
0.0006094505241741529 -0.00019961220576150614 0.0
0.0016792591660620615 1.562289806096718e-5 0.0
0.00041466114043096024 0.00015803559869793612 0.0
0.0026222389655869514 -0.0006251789688369433 0.0
0.002279629729831931 -3.441646483831659e-5 0.0
0.0035935420802845203 -0.00018986661611968933 0.0
0.0028640172539762354 -0.0001535339212270426 0.0
0.002771615908545617 -0.0001620151894107669 0.0
0.002697170327694255 -0.0006904358176760225 0.0
0.0037294249546599135 -7.0497651380446244e-6 0.0
0.0036591744656138247 -1.8226166750690985e-5 0.0
0.003673673994958138 -2.3765594636692673e-5 0.0
0.003646982147984918 -1.074634217335233e-5 0.0
0.0035920323418306413 -3.381040002771395e-5 0.0
0.003637471507456423 -2.511906333165881e-6 0.0
0.003554229754284128 -1.1213435352790055e-5 0.0
0.003571368960102344 -2.3357033779026095e-5 0.0
4.189794608430741e-5 -2.276972020069063e-5 0.0
0.003756244842436786 -1.9058074838916683e-5 0.0
0.0037074245611019687 -3.698449452340436e-5 0.0
0.003737049061044504 -2.0377915167245616e-5 0.0
0.003711800541184351 -3.953147770253135e-5 0.0
0.00222998367667842 6.159575026443961e-5 0.0
0.0028255223385318913 -0.0006304538536606823 0.0
3.2465997737245235e-5 -2.423272566333732e-5 0.0
0.003765974498415327 -2.066229779092418e-5 0.0
0.0012256815031087712 0.0001466564377164145 0.0
0.003040546091063862 1.769904054239095e-5 0.0
0.0010374038959740958 3.0982002040676167e-6 0.0
0.0011203074468923641 1.311552824916575e-5 0.0
0.0011170437495074037 4.579232027063476e-5 0.0
0.0011211153297749526 -1.5905461281411967e-5 0.0
0.0011924566429372732 -9.887283351471005e-6 0.0
0.0012101226480964553 1.8405996014379352e-5 0.0
0.00120164044826471 5.265036229175645e-5 0.0
0.0011194089835041357 7.665349779478272e-5 0.0
0.001047118326468904 0.00010369803309541402 0.0
0.0010489567251620827 -3.191055038367539e-5 0.0
0.003177008273245596 -0.00046583627507597623 0.0
0.0037194979360857874 6.721748115820244e-6 0.0
0.0015449314089431188 -0.0007073172795953487 0.0
0.0005039551798426577 -0.0004330546347342703 0.0
0.0017011334527312668 -0.0006919111763675238 0.0
0.0013106348001874803 -0.0007288233336817228 0.0
0.001312921500995516 -0.0007631899673444519 0.0
0.001773057478245875 -0.00012908781609501124 0.0
0.002420901016124215 -0.0001314836520342363 0.0
0.003275803087803675 0.00010961066370905721 0.0
0.003321863494027375 9.087003132037815e-5 0.0
0.003220017241369898 9.519750370092139e-5 0.0
0.00023615680072816645 -0.00010474951181982624 0.0
0.00046986424439098386 -0.0004215476143737944 0.0
0.0011893387146172162 0.00026887672931740446 0.0
0.0010676526566734434 0.00026976493380616437 0.0
0.002713157259110712 0.00011354337992041499 0.0
0.0013670067709409006 0.0001982020072652633 0.0
0.0034289392292232556 -0.00023989403052146477 0.0
0.001686055768020834 -0.0005788195733251134 0.0
0.002593054524219883 0.00010380476663136229 0.0
0.002670611509487321 0.00013242421797798364 0.0
0.0011402150183812065 0.0001242681703269359 0.0
0.000928220097395015 -0.0006717072880618383 0.0
0.003405437488607866 -0.00028180013697062513 0.0
0.0005580680971243783 -0.00043278073085603055 0.0
0.0005921525811242439 -0.0004629736741663498 0.0
0.0005735880172544788 -0.00047225667426112816 0.0
0.0008866221274660347 -0.00020739460884109035 0.0
0.0020923724721301873 -0.00015562789461578033 0.0
0.002349154741355313 -0.00010021344433484303 0.0
0.0014199168212120643 -0.00015850256161094835 0.0
0.0014846645577534564 -0.0001754289062029514 0.0
0.0036407507370324584 4.535005759305074e-5 0.0
0.0034579183970334048 9.314067554728289e-5 0.0
0.00016370230845546172 4.5885027674577675e-5 0.0
4.144266164339495e-5 -2.5039723394201012e-5 0.0
0.0017128238757461267 -0.00017110726086760374 0.0
5.6640378962927634e-5 -1.4610446595664208e-5 0.0
0.00013711164309376507 -2.9811469416108533e-5 0.0
0.0016812115006423656 -0.0006652650624524471 0.0
0.002392656362987905 0.00012017024318156181 0.0
0.0014019037214277044 0.00018985804965603785 0.0
0.0023248506256372025 -0.00034802945418628084 0.0
0.0017256531963330114 -0.0001042820764104644 0.0
0.0030382259274797 -0.0002940812029851914 0.0
0.0035481099244010746 -0.00018168977209445064 0.0
0.0011179781047129952 -0.0004964000426689027 0.0
0.0011223924857754507 -0.0005271431578674415 0.0
0.0010767513573178755 -0.0004973343327769494 0.0
0.0010296133675609933 -0.00046792185830686205 0.0
3.32209755050224e-5 -2.6998538794978646e-5 0.0
6.263049774482867e-5 -5.17925452995674e-5 0.0
7.033013945342759e-5 -5.30981894195546e-5 0.0
0.0009616710631542921 -0.00033418954278496176 0.0
0.0009096380152598712 -0.0003373395825397775 0.0
0.0037593928478917267 -1.979162803542485e-5 0.0
0.00203154396588697 -0.0008389243387562554 0.0
0.0019943682351710383 -0.0008195788003353778 0.0
0.001991557020928847 -0.0008573211121441738 0.0
0.0019542035610641212 -0.0008374613881303049 0.0
0.0019132192420056073 -0.0008534099831153657 0.0
0.00191161189962201 -0.0008163373390436702 0.0
0.0019961129405454544 -0.000782128334846562 0.0
0.0025933376797643076 0.00013525276593825513 0.0
0.0004411694129486478 -6.109744369105434e-5 0.0
0.000513554543490725 -0.00010573852876644087 0.0
0.00044611288980198386 -0.00010550066514268009 0.0
0.0023861758051098845 -0.00033290344469844827 0.0
0.0007672430557564723 0.00022126675643596608 0.0
0.0019016126213994883 -0.000340479333157394 0.0
5.6836366982104376e-5 -2.301163527728787e-5 0.0
0.0011661782627959277 -0.0007227310966245885 0.0
0.0011279919278750225 -0.0007210477058974396 0.0
0.0011354439164744732 -0.0006930685266595658 0.0
0.0013069774112042028 -0.0006945823173548785 0.0
0.0011187882182988338 -0.0004622709904694394 0.0
0.0004949505133381144 -0.0002125191860492244 0.0
0.0002882146773040401 -0.0001639787248277153 0.0
0.003740272881972711 -1.3106107543612604e-5 0.0
0.0036887099660150744 -2.6745627482929476e-5 0.0
0.0007323194204685492 -0.0005419182718216059 0.0
0.0008823175093907736 -0.0006036397761364273 0.0
0.0008486162253207195 -0.0006071418716390556 0.0
0.0008070737487190788 -0.0005739996221362148 0.0
0.0008130530955839905 -0.000607815019004874 0.0
0.0022504421077804127 0.0001318867880957171 0.0
0.0015214752033358967 0.00018049969753279705 0.0
0.0024412853437231702 -0.0007438419768198662 0.0
0.0024734725796733813 -0.0007576712421682538 0.0
0.002515455910658119 -0.0007291188767250851 0.0
0.0024254155190598322 -0.0007918628662458801 0.0
0.0012089942470486106 -0.0004929597593672737 0.0
0.0021505079383180707 -0.0006203239156459241 0.0
0.0013958308003108903 0.00019703277546493644 0.0
0.0015391701634376081 -5.9355008494937694e-5 0.0
0.003767330733156293 -2.1984558219069322e-5 0.0
0.0037365620389277245 -4.412564574461217e-5 0.0
0.0037234992219988606 -4.769987596720894e-5 0.0
0.0007731519923176233 -0.0005752249203413189 0.0
0.0007406878515125452 -0.0005747044552213282 0.0
0.0011165644703859917 -5.89553385350042e-5 0.0
0.0009879195037086036 -0.00047373076144282503 0.0
0.0035254189669158297 -0.00014463698836039032 0.0
0.0028684284111331754 0.00016203012655466228 0.0
0.0017026342083057912 -0.00020687591771328964 0.0
0.0017540078332583327 -0.00019812613588746225 0.0
0.0022537755727875318 0.0001606736190546201 0.0
0.002785684657561903 -0.0005291288853952009 0.0
0.0016392337248709713 -0.0005896115211667066 0.0
0.001641198484896286 -0.0006212336084703632 0.0
0.0004098102358298677 7.745224847693208e-5 0.0
0.0009046134231799955 -0.0004776209242900604 0.0
0.0008624848402737414 -0.00047481773098217864 0.0
0.0008162522150508696 -0.0004440249931900893 0.0
0.0008216470373571569 -0.0004749651002726411 0.0
0.0006947622967297367 -5.357349108553745e-5 0.0
0.0006981030971730517 -2.6099069861289275e-5 0.0
0.000778753768801123 -0.0001067313041444119 0.0
0.0024607728264773193 -0.0008021150813847727 0.0
0.002391318637566613 -0.0006085552173209269 0.0
0.002338799930436812 -0.0006347073589818323 0.0
0.0023836110081501332 -0.0006484141243275643 0.0
0.0023313496856602147 -0.000675701844185948 0.0
0.002362278221798312 -0.0006864768086614186 0.0
0.0024333418502117113 -0.0006159129442947787 0.0
0.002473005995876647 -0.0006204805284351497 0.0
2.8092444178163358e-5 -2.6834499107295384e-5 0.0
0.0037724129677188657 -2.3075742554942805e-5 0.0
0.003110393035929868 -0.00045870018061895836 0.0
0.002225044329235965 -0.0008058476502579002 0.0
0.003497410135861007 7.839892866548966e-5 0.0
0.0021564069765639213 -0.0007762424874153001 0.0
0.0021475308312079687 -0.0008139366168138189 0.0
0.0028437950709072142 -0.00036063842044459747 0.0
0.0025460681786457343 -0.00028536115689273327 0.0
0.0024935169899562956 -0.0002784897285832665 0.0
0.0011859822124202632 -0.0006502103977420127 0.0
0.0006926523009839875 -0.00041036341854264744 0.0
0.0028277107357535954 -0.00020892918159059635 0.0
0.002985434358211766 -0.0004898469778935718 0.0
0.0013091476071322046 -0.0003859706542393391 0.0
0.001357780884848664 -0.0003798201540861978 0.0
0.0013558569853160867 -0.00040677541490749286 0.0
0.001360979387465 -0.00035386458399622536 0.0
0.0013076111683958777 -0.0004132930734624358 0.0
0.001405218046870014 -0.0003762362034099182 0.0
0.0014114475921274442 -0.0003521174857488028 0.0
0.0014241253428634955 -0.00032567853899182836 0.0
0.002822339268429513 0.00016887803812483233 0.0
0.00030608245331674 7.931781101169996e-5 0.0
0.002736729413354612 -0.00014041900833154585 0.0
0.0029784303030329826 -0.0003036627218003769 0.0
0.0005612680488074416 0.0001743215248496444 0.0
0.0005336278394127859 -1.1517407690317822e-5 0.0
0.0007797282511018344 -4.893611771247896e-5 0.0
0.0006065654179053649 -0.00037551086592033773 0.0
0.001308567279430153 -0.00033362707170593337 0.0
0.0010160426066343042 -0.0002813769219009239 0.0
0.0010864937825193499 -0.0002808287288218971 0.0
0.0011312697476979672 -0.00030773280258547834 0.0
0.001827914515353482 -0.0008102523272489294 0.0
0.0018709271140952067 -0.0008315419676103473 0.0
0.0018701386285704437 -0.0008721541416663398 0.0
0.0019124484559640083 -0.000779913443024432 0.0
0.0029320303809646504 -0.0005206006877197238 0.0
0.0013608835077022767 -0.00021179731009182752 0.0
0.0027630028676872403 -0.0003270585255618492 0.0
0.0013033205454966894 -0.0006610050338250107 0.0
0.0019978289117131218 -0.0007456543082523941 0.0
0.001386458306462799 -0.0007821826807899331 0.0
0.0034846673161304117 -2.0920174984217824e-6 0.0
0.0018515813628429884 -0.0003528256050703651 0.0
0.00043956792204049243 -0.00018287696675773347 0.0
0.0014079624020848086 -0.0005430143234042513 0.0
0.0014541265578054082 -0.000565853603714424 0.0
0.0013130217615818184 -0.0004975554471137454 0.0
0.0014244947062638925 -0.0007025159657494794 0.0
0.0022328161039481915 -0.00047074125300949465 0.0
0.0021771929695941173 -0.0004894764440472224 0.0
0.002226393098630909 -0.0005013709754816577 0.0
0.0027047399050407037 -0.0001186733322193769 0.0
0.0016856178162662973 -0.0005484398362985625 0.0
0.0012155895102308701 -0.0004517658795779666 0.0
0.0021514899512080944 -0.0002055499944814437 0.0
0.0021407794321629406 -0.00022708594225043674 0.0
0.00047515836419468184 -0.00030282903189493245 0.0
0.0009996846964515369 -0.0006126344872781548 0.0
0.0025291088662791577 -0.0006850567040061656 0.0
0.0021231853338997382 -5.6486948971746644e-5 0.0
0.0019675505472544833 -0.0005925826466069636 0.0
0.001918221925797351 -0.0006080550034919289 0.0
0.0019158876228401573 -0.0006415050057606565 0.0
0.0018694498698151958 -0.000622525738824543 0.0
0.0018684136876798902 -0.0006561625222137935 0.0
0.001961297663545559 -0.0006590397864391471 0.0
0.0022912981342019306 -4.078113747720468e-6 0.0
0.0015423460335966682 -0.00046543294099513576 0.0
0.001496381220686872 -0.0004739400078287795 0.0
0.0021326889741298182 -0.00044778142873209796 0.0
0.0012653752714837545 -0.0005023786395134306 0.0
0.0021073356841806797 -0.0008350936845210021 0.0
0.001591379916126076 -0.000569165556631626 0.0
0.0018719152000202487 -0.0005902635806688122 0.0
0.002654568816859686 -0.0007211315270022837 0.0
0.0016969807479828975 -0.00036033805787659884 0.0
0.0035770100637302193 -8.116737132428167e-5 0.0
0.0018794654366270612 -0.0004993372799722974 0.0
0.0008466433602483746 -0.0003586596318576488 0.0
0.0016422424010559963 0.0001693450377738812 0.0
0.0026437978225491462 -0.0005839976415231516 0.0
0.003422454445713938 8.020102010583551e-5 0.0
0.0005558598641857377 3.769275061324454e-5 0.0
0.0005767596623346301 6.087562068391251e-5 0.0
0.0006397450067678171 2.6183828466819523e-5 0.0
0.0006764768069986234 5.422410669953789e-5 0.0
0.0007400136283329508 3.556023607919914e-5 0.0
0.0026807346439773954 -0.00017061690263415235 0.0
0.0015448715077071278 -0.0008135981500303983 0.0
0.0017490441146655383 -0.0003507421845169844 0.0
0.00011103734031701902 -3.196312194025883e-5 0.0
0.0012539294447251545 0.00021484427864996758 0.0
0.0011644099318028722 0.0002274113944389294 0.0
0.002529523355157268 9.177265000758508e-5 0.0
0.0015034849998617433 -0.0006839130356283517 0.0
0.0017134085341048823 -0.0007843644576125438 0.0
0.0014884975071336026 -0.00024108888906901639 0.0
0.0020827001589085437 -0.00043587515046647403 0.0
0.0020283350008154597 -0.00042217006661964836 0.0
0.002036919489677008 -0.0003938611649800425 0.0
0.00213650939115665 5.721591512773023e-5 0.0
0.0014136688302107143 -0.0005741139517056601 0.0
0.0009592276994714395 -0.00025671468632847307 0.0
0.0014448369754560728 -0.0004247026160874659 0.0
0.00019052110594459728 -0.0001236997524353347 0.0
0.0019803730423440346 -0.00019783462049009713 0.0
0.0007988498174554532 -0.0005397807144284639 0.0
0.001985779903946923 -0.0004425722952288009 0.0
0.001193989838765491 -0.0006844795367489143 0.0
0.002658744519217343 -0.00029262666046192244 0.0
0.0017899119920348834 -0.0004408094299235072 0.0
0.0018219106588473477 -0.0006360592191124807 0.0
0.0033300628296257673 -0.00023281908175656175 0.0
0.0007036911510584597 -0.0005417378351104122 0.0
0.003622668883154549 -0.00017729428108909085 0.0
0.00148864708814232 -0.0003360111789412695 0.0
0.0017841394043917145 -0.0004962268368933937 0.0
0.00032601679389499135 -0.00012700918704323824 0.0
0.003327819437593979 -0.00017021140539438793 0.0
0.00209390430981639 -0.0006732024880580555 0.0
0.0001105957337450091 -3.861796279186017e-5 0.0
0.0019166269222132728 -0.0002760825049137554 0.0
0.0019143727528453099 -0.00029501394506335624 0.0
0.0035545963766228646 -4.998791196268731e-5 0.0
0.0020700572475495587 -0.000856138579762168 0.0
0.0006544797784953076 -0.00040855418897034674 0.0
0.0036699934449937557 -8.098501209108808e-5 0.0
0.0019849024795072848 -0.00038290887967919505 0.0
0.0018405713940907653 -0.000429388390084582 0.0
0.0023056332733724125 -0.0005907290988085503 0.0
0.002257748256211465 -0.0005793142088280034 0.0
0.0021087192360202713 -0.0006054073985037005 0.0
0.0017463902960200151 -0.00037504196018879344 0.0
0.0021535007934305396 -0.0008731568440038354 0.0
0.002314734184443028 -0.0008521179708655604 0.0
0.001649859396441625 -0.0008621040106909837 0.0
0.0017769816066748553 -0.0008753351079083146 0.0
0.0025559366771592527 -0.0007872523182713478 0.0
0.002545315224002278 -0.0007470307323216226 0.0
0.0013175643828019726 -0.0007959445710820463 0.0
0.0010383589246372106 -0.0007178706846700731 0.0
0.0022336952483193416 -0.0008646906973727677 0.0
0.0014043007576494638 -0.0008198766722307408 0.0
0.0015793307380071015 -0.0002963904911866574 0.0
0.0032555583111000532 -0.0001120186354184495 0.0
0.0026732247163468296 -0.0004448727541451167 0.0
0.0026541996335354414 -0.00047668483775446574 0.0
0.001355588035399074 -0.00043590946961207563 0.0
0.0023014799589850072 -0.0003953453730100838 0.0
0.0018264585780558185 -0.000700801202711189 0.0
0.0009435131060930473 -0.0005655691377073201 0.0
0.0007051816389992006 -0.00032676875094578945 0.0
0.0015911581822544156 -0.00042935987796114685 0.0
0.0033259692063097646 2.466238831988062e-5 0.0
0.0012858328100475692 3.0273796208557764e-5 0.0
0.0018017067766301794 -0.0003405737319838231 0.0
0.0021286544854688632 -0.00047874739732768244 0.0
0.000250930444328693 -0.00022943679481575335 0.0
0.0002601926844244529 -0.0002550711583657534 0.0
0.0015911004430619888 -0.0006316256965382809 0.0
0.0013357591608288638 -0.0005902893033795055 0.0
0.0019279741075288418 -0.00051453386261432 0.0
0.0035266713675110896 6.39441675772769e-5 0.0
0.002037982845010933 -0.0007633102371965225 0.0
0.0037310635101868105 -5.946849652200322e-5 0.0
0.003706967121321156 -8.918677775738554e-5 0.0
0.0010407864129205766 -0.0001724609594035756 0.0
0.0016401208583895271 -0.0004731119685566433 0.0
0.0017323315356414144 -0.000567123133744242 0.0
0.003622864658276434 1.2566707488977564e-5 0.0
0.0017681049276813017 4.324907099895658e-5 0.0
0.0025215987427658695 -0.0005957878920571292 0.0
0.0026010339009632276 -0.0005029679312096254 0.0
0.0010194302939941565 -0.0006816309101752605 0.0
0.0023887739176733694 -0.0004709485970532472 0.0
0.0016413010878732245 -0.0004198538201169548 0.0
0.002503631984525822 -0.00042648753160845124 0.0
0.002492388508976323 -0.00045694946332840494 0.0
0.0025613664964200286 -0.00040362470804070435 0.0
0.0008504959126638802 -0.0006417038750525729 0.0
0.002973214195384888 -1.100582278078026e-5 0.0
0.002180317323010163 -0.0008340608441210319 0.0
0.0031072603189970394 -0.0005169425160204982 0.0
0.002819355471675405 -0.00032832610494214925 0.0
0.0018221882676119543 -0.0002565926262368811 0.0
0.002326605382015984 -0.0007174054731480122 0.0
0.001457957512201637 -0.0005967321392728797 0.0
0.0015303772029343907 -0.000359809000388878 0.0
0.0035130845280535398 -3.9147498691142665e-5 0.0
0.0008071855289816634 -0.0002340928710963978 0.0
0.002707000428167106 -0.00019166450623613838 0.0
0.00179752090095568 -0.00016612070974874888 0.0
0.00235278438558421 -0.0004033167599960222 0.0
0.0033695586104451466 -0.00010830017436907672 0.0
0.00028793774584546296 -0.0001339394558109871 0.0
0.0027278035165101315 -0.0004838539125554831 0.0
0.0020436255196849594 -3.095103754561054e-5 0.0
0.002025345119551154 -4.947630888633957e-5 0.0
0.0022526803092511936 -0.000693206120108291 0.0
0.00207324307475249 -0.0005274216506083804 0.0
0.0021329948674293415 -0.0006881494610387464 0.0
0.0027722064394646887 -0.0005686387923089673 0.0
0.002773643379762889 -5.003558471336447e-5 0.0
0.0017842940368242661 2.427372052575547e-5 0.0
0.002501408891894228 0.00017186983913604944 0.0
0.0032629764341590393 -0.0002989613230576547 0.0
0.003277981237506321 -0.0002688771152750504 0.0
0.001792906586081678 -9.373355812234194e-5 0.0
0.001213474825419525 -0.0005781719932244924 0.0
0.0024453290134824435 0.00014750380680449965 0.0
0.0017911565745779325 -1.0427414888789447e-5 0.0
0.0023782370452692233 -0.0005020461731661814 0.0
0.0036773725187055446 -8.984079414826365e-5 0.0
0.0006200848390442315 -0.00043770481250458057 0.0
0.0022904938225898146 -0.0002463695755117444 0.0
0.0017963388848753527 -5.12376623889012e-5 0.0
0.0017918225256393697 -8.067393763150157e-5 0.0
0.0006357070746866046 -3.788465455368924e-6 0.0
0.003304138848086225 0.00012160695375483923 0.0
0.0019351891377591339 -0.00017357895356134026 0.0
0.003374295029657264 -0.0002233512244232331 0.0
0.0011686062311457792 -0.0005524582279639903 0.0
0.0028824896896440175 -0.0006565372473135058 0.0
0.002959925765856938 -0.0006275212694581538 0.0
0.0010593070842527805 -0.000568666765006972 0.0
0.002466039237307456 -0.0005182927704776025 0.0
0.0016081103403754972 -0.0008568925551899484 0.0
0.0023500633692159147 -0.00014996557655240237 0.0
0.0006736501540589881 -0.000558849059416316 0.0
0.00195331049269561 -7.327456905456609e-5 0.0
0.0020329317367399837 -0.00023014723824900222 0.0
0.001990597313106663 -9.903206003707137e-5 0.0
0.0021727835371290823 -0.0005213225067107641 0.0
0.0026388592865587827 -0.0005079899263682369 0.0
9.003736852208845e-5 -0.0001020895408145837 0.0
0.00015538092788243768 -0.0001710632799657288 0.0
0.0001864892358538724 -0.00020202717365540274 0.0
0.00351084193579357 -0.0002790332677073165 0.0
0.0002512714058911254 -0.0002644693200216095 0.0
0.0010855999397336076 -0.0005300766982347792 0.0
0.000488332325965779 6.345819668289347e-5 0.0
0.0031456487941338234 -0.0005317085759510359 0.0
0.0005690221499436442 -0.0004971386603833935 0.0
0.0006397376659726024 -0.0005399337655952537 0.0
0.003474527849410362 -0.00030712912457783075 0.0
0.003402363374408796 -0.0003648482498737415 0.0
0.002016367384863603 -0.00029165630466939903 0.0
0.0014635643423637833 -0.0007280087330666219 0.0
0.0027608472634506748 -8.428602064764188e-5 0.0
0.003219571803356451 -0.0004855827459363144 0.0
0.003256611889872584 -0.00046343054084367966 0.0
0.0005011382219098445 -0.0004573500403234458 0.0
0.0003463518597322564 -0.00034260248160170205 0.0
0.003330572882903109 -0.0004144613010570789 0.0
0.003359729101898499 -0.0003626702734394425 0.0
0.0022577944080607163 -0.0008243888902322691 0.0
0.0004119366680412008 -0.00039412894212432305 0.0
0.0027537830721394638 -0.0007202553139121238 0.0
0.0007057954699660467 -0.00044336136822383627 0.0
0.003117568849095121 -0.00037261546125882684 0.0
0.0010830605906411858 -0.0007021819548468982 0.0
0.0029040541766730548 -0.0005103034421719253 0.0
0.002958064960471567 -6.955895773587832e-5 0.0
0.0010643823234037233 -0.00038137800827658637 0.0
0.0007149941601549495 -0.00035460265297814413 0.0
0.0013784284604029342 -0.0006141966436947461 0.0
0.0018307519522816503 -0.000512797372436562 0.0
0.0031317380492589656 -0.0002123230390772988 0.0
0.0019538188288875055 -0.0007996487284514152 0.0
0.001985291401918884 -0.00018097765709116514 0.0
0.0019646259040925524 -4.470396118963101e-5 0.0
0.0025235580390397614 -0.00036817602889389634 0.0
0.002909058679411359 -0.00042984710657649944 0.0
0.0010309101210708262 6.667768781013227e-5 0.0
0.0023699130567118743 0.00012661866476074154 0.0
0.0011592109477132366 -0.0003749431816835572 0.0
0.0031604519379379394 -0.00030596084711703725 0.0
0.0007438127470523969 0.00011537739435873659 0.0
0.0006324444975140663 8.719966609786801e-5 0.0
0.0016049955840234274 -0.00011500145959460652 0.0
0.003293341643713557 -0.00013496615474432609 0.0
0.0017484546873987022 9.294997503271638e-5 0.0
0.0019268152251859173 -0.0002207435867455321 0.0
0.0034841716273999812 -0.0001245597597651721 0.0
0.0009753903760377483 -0.00038554903787976096 0.0
0.0012004419049064198 -0.0002424127530176343 0.0
0.002712672429421655 -0.00035649606667667913 0.0
0.0029969443541159103 -0.0004008700679456812 0.0
0.0008460357025037165 -0.0003868929080735783 0.0
0.0004929967928212846 -0.0003347077920206777 0.0
0.002873021164479665 -0.0004269702693126546 0.0
0.001224972819226023 -0.000154940928009108 0.0
0.002851640464491606 -0.0002444039431088608 0.0
0.0037394238834193728 -4.6274766411998045e-5 0.0
0.003106751651169836 -0.000105028176479035 0.0
0.0019941909922120446 1.7340084456467868e-5 0.0
0.0020596851577643254 1.2698000037049734e-5 0.0
0.002337932540753815 -0.0003008160384104412 0.0
0.0034103131350288218 -2.658251236909319e-5 0.0
0.0033518525808354715 5.86599820634207e-6 0.0
0.0001507901418185875 -0.00011363147676792322 0.0
0.00011229994632581367 -8.335778671842922e-5 0.0
0.0015031999932858748 -0.0007174230245841705 0.0
0.0024345826857912834 -0.00047960306318538915 0.0
0.0013655881275697166 -0.0002568925581092352 0.0
0.0013643095212202696 -0.0002345692520933237 0.0
0.001344579608888674 -9.758418687858245e-5 0.0
0.0019150948823733114 -0.0006754316536196893 0.0
0.002232860543574822 -0.00026384017883719396 0.0
0.0005983329804334413 -0.0001065407122379159 0.0
0.0026246757409612467 -0.0002002556666599981 0.0
0.0020209450521053067 5.774879402743539e-5 0.0
0.0015908720663831103 -0.00045594019889863097 0.0
6.491263344744298e-5 -7.412553471864516e-6 0.0
0.0018332115243888134 -0.00048383966214605366 0.0
0.0034650123913454126 -0.00014449769534101293 0.0
0.0029593102884771607 -0.00024613201865706047 0.0
0.0028075233610475392 -0.00018367484538946225 0.0
0.00331846370032548 -0.0001915131890308386 0.0
0.002415440789800443 -0.0002113579753187767 0.0
0.0013224246307713193 -2.7831495597830974e-5 0.0
0.0004342442165684097 -0.00016203739037936132 0.0
0.0016401383251155247 -0.0002305380987257674 0.0
0.002062943794295984 -0.00030184701786533513 0.0
0.0005413920243678423 -0.0002868822330322417 0.0
0.0017348007971799695 -0.0008719591106638077 0.0
0.0023358226359922653 -0.00020936166513716223 0.0
0.0011305709002673405 -0.0005576570164898502 0.0
0.0025213106611103233 0.00014128372845024405 0.0
0.003181624725989648 -0.00020887165070762693 0.0
0.0012173550944825045 -0.00013094506811553544 0.0
0.0027788090243588627 0.00016529079559221677 0.0
0.002131546106147075 -0.00024827191828765744 0.0
0.001835989136830526 -0.00045593546218515406 0.0
0.0006718471978233112 -0.0001305812970970017 0.0
0.001254765942019368 -0.00026624099403120484 0.0
0.001618099546023979 0.00016040924428130975 0.0
0.0005063103819068658 8.287498464896134e-5 0.0
0.0028054875298591055 -0.00035852697699891186 0.0
0.0007398496460830168 -0.0002766665008917149 0.0
0.0018868643895100133 -0.0004439991747595521 0.0
0.0031351538331502423 7.657859973228259e-5 0.0
0.0026648017430116492 -0.0003533831803062767 0.0
0.0012523197978498049 0.00011871644703500353 0.0
0.0002274284794899788 -6.297197131059478e-5 0.0
0.0009576080889063302 -0.00023097864413117728 0.0
8.574348646979558e-5 7.552406031994452e-6 0.0
0.00017877606312898485 3.701569209920205e-6 0.0
0.0026501441914821328 -0.0003264545925130541 0.0
0.0021863607522617495 -3.906882323778737e-5 0.0
0.001233683756016303 -0.0007820491131081276 0.0
0.0008627621012132491 -0.0005075109051067672 0.0
0.0031048891384294797 -0.00016544585791358093 0.0
0.0004256642683017905 -0.00038284399599302846 0.0
0.0025690299148608694 -0.00037543157772467915 0.0
0.002140054369681905 -0.0006542157698758599 0.0
0.0030780862157807638 0.00011806439724484188 0.0
0.0011073671166287851 -0.0006609526471974478 0.0
0.003351249251994599 -0.0003207066507316362 0.0
0.0019293699236428014 -0.00020511673185520454 0.0
0.0006151070158249159 -0.0004992225205199606 0.0
0.0025887999055656963 -0.0007447687017951631 0.0
0.0006256798327909806 -0.0003225188044628328 0.0
0.0035578608072415617 -0.00013532907576211726 0.0
0.0004475786947717579 -0.0002261153197798474 0.0
0.0026290070339972265 -1.2370601187284148e-6 0.0
0.0024191308424657463 -0.00018738526971085717 0.0
0.0019664158987939572 -1.5111881139802713e-5 0.0
8.779858767525538e-5 1.1514664773777631e-5 0.0
0.001455190178334811 0.00019247441433008504 0.0
0.001026033287159341 -0.0001446376495852761 0.0
0.0029913802895539156 -0.0005783560810062872 0.0
0.0030327883900241035 -0.0005960270689702433 0.0
0.0002851554734194689 -1.0335640880141896e-5 0.0
0.0021909626142951988 -0.000235345931378209 0.0
0.0009003119593350942 -0.0005079541774743915 0.0
0.0015453988799895362 -0.0004925131095519197 0.0
9.390935775751433e-5 -7.943495679967811e-5 0.0
0.0002114978705051208 -3.648378643003324e-5 0.0
0.002105149594176275 -0.00033375651002102367 0.0
0.0019378798755214312 -0.000430573223156551 0.0
0.00013798966275360057 -2.027387416549437e-5 0.0
0.0003709361799874669 -0.00013292959252328776 0.0
0.000282777705102176 -0.00029140558062449445 0.0
0.0031382352470907485 -0.00033751194193817885 0.0
0.0024784450446542036 -0.0004873710952207716 0.0
0.000446177145876406 -0.00030236685374689516 0.0
0.002917173053696919 -5.017899936860717e-5 0.0
0.0026802648238752956 -7.096400413628731e-5 0.0
0.00019969271824444868 -0.00020195814753055737 0.0
0.0015585110008068657 -0.00015599534122396906 0.0
2.471675311213221e-5 -2.7794852060215768e-5 0.0
0.0037739197773797462 -2.7442602854068013e-5 0.0
0.0036651110145238053 -5.646170674816629e-5 0.0
0.0011190760176386294 -0.0007477278715205144 0.0
0.0029255801854799644 2.8727172464455157e-5 0.0
0.002481389664049055 -0.0005881204098696248 0.0
0.0004957797232075058 -0.00023420265774474393 0.0
0.00235389294941947 -0.000843683304573825 0.0
0.0005362338775548463 -0.00012926225058472687 0.0
0.0032806194410931024 -0.0001564313757955923 0.0
0.0014971884761281196 -0.0005003983164938034 0.0
0.0001414352606455064 -9.872505977962296e-5 0.0
0.0017370028192282966 -5.7131950121395066e-5 0.0
0.0017355051513185543 -7.273568182788155e-5 0.0
0.003445054262236342 6.64544620031281e-5 0.0
0.002124974133494695 -0.0005089568026316665 0.0
0.00027280576548003406 1.4755296380834968e-5 0.0
0.0033173174186847385 -0.00039800926199526354 0.0
0.003479225456597868 -9.618898249040931e-5 0.0
0.002658906390119626 5.684910047215038e-5 0.0
0.0027287218098736533 2.836777545681604e-5 0.0
0.0016224644175197895 -0.0007536763198042022 0.0
0.003696014124543964 -0.000112463131395606 0.0
0.0016040860086187709 -0.00013231689382088045 0.0
0.00034510249185500526 0.00010033840310516909 0.0
0.00043594101898224966 -0.00032961053990893037 0.0
0.0011240313574877982 0.0001523785031794645 0.0
0.003323167562351965 -0.0003207707492392952 0.0
0.00019337909755660568 3.0174805166665704e-5 0.0
0.001984132341999971 -0.00016500073892492575 0.0
0.0029726079654144766 -0.00021690477554473468 0.0
0.0023900392221894093 -0.00031068245244014937 0.0
0.0037162499780912807 -4.1730962393085975e-5 0.0
8.604837282493553e-5 -4.294448401204863e-5 0.0
0.0034941887806557745 -2.441109690711094e-5 0.0
0.0037279797954940033 -4.106064127537546e-5 0.0
0.0018297831663323695 -0.0008439021781136289 0.0
0.0021660258095998037 -0.0003212599896430769 0.0
0.001244877206135427 0.0002075305994352337 0.0
0.0008921462113835208 -0.00038582690672476084 0.0
0.0011808803070988108 -0.0002112286401549078 0.0
0.0015493912611570578 -0.0001730611847928466 0.0
0.0007541043948257045 9.574145085911774e-5 0.0
0.0013737061336436696 -0.000581482060257333 0.0
0.00068260962634193 -0.00010396638495886996 0.0
0.0004500164099420968 0.00010265076109868306 0.0
0.0017612804047832734 -0.00028631086329883093 0.0
0.0026906215290289073 -0.00048062615065003325 0.0
0.0031925342799293656 -0.00030663851210564676 0.0
0.0012600652604182875 -3.245913271848727e-5 0.0
0.0008502394886468598 0.0001736466485310566 0.0
0.00204546824783708 8.495501122578773e-5 0.0
0.001093544178368103 -0.000140789107996889 0.0
0.0030267501258355502 -0.00031942857284127866 0.0
0.0010526644668876477 0.00020916912932846294 0.0
0.0009474840234945263 0.0002048230290032839 0.0
0.0020809562977286357 -0.0004663027890056954 0.0
0.002103698785877606 0.00013688091293062392 0.0
0.0014805576762172777 -0.0008367308455478957 0.0
0.0028360717402679796 -0.0006856168156049471 0.0
0.0010149018668159677 -0.0003582029639315607 0.0
0.0026361307745933495 -0.0007651042800922764 0.0
0.0008159902587067964 -0.0001353955701522174 0.0
0.003080390786144517 -0.00031167938961234443 0.0
0.0014485439731337047 -0.00048070061984398314 0.0
0.003271368054109604 -0.0002001233850831429 0.0
0.0008950365566974597 -0.000360604120768248 0.0
0.0015152296437468743 0.00018609906072000363 0.0
0.0013398423273296102 -7.466756836528011e-5 0.0
0.001689822583590438 -0.0006381392763077469 0.0
0.0017914329445144618 -0.0002117280333446176 0.0
0.0017341414843674286 -8.743382504992591e-5 0.0
0.001039129365429271 -0.000500693881668893 0.0
0.0010514520516458623 -0.0005355472489118253 0.0
0.0006783315105766652 -0.0002489105157416657 0.0
0.0009291390505846463 0.0002754588379583541 0.0
0.001750601282774602 -0.0007379598087170794 0.0
0.003305394145506794 7.190683376848581e-5 0.0
0.002962530626295224 -0.00039883038744050386 0.0
0.0020667843354284236 3.364762378863951e-5 0.0
0.0009703308789277416 -0.0003604949066098612 0.0
0.0026008856539408297 -0.00028791225105309794 0.0
0.002189449248632296 -0.0006341682105695853 0.0
0.001446103685223437 -0.000452049478296197 0.0
0.0035210138269813635 -0.00011702468183286115 0.0
0.003694606013799799 -7.09079838061141e-5 0.0
0.0013069739007144428 -0.0002412860537079507 0.0
0.002500623517534285 -0.0007728109731997406 0.0
0.003398934061761972 -0.0003424944722769504 0.0
0.00016964870988055332 -4.423557492891307e-5 0.0
0.0009006971322549835 -0.00023351911105043776 0.0
0.0010633477976642145 -0.00035629606163236586 0.0
0.003462487489305903 -0.0002953320015465183 0.0
0.0013673945815427762 -0.0005483831452283283 0.0
0.0023691407804183368 0.00014252057933378953 0.0
0.0003605715174500736 -0.00033513734970187103 0.0
0.0021894310950197567 -0.0003812939586830789 0.0
0.003181642710094197 -0.000277122827251198 0.0
0.002532457874943875 -0.0004635802552321049 0.0
0.003581167102725632 -0.00011194023233661035 0.0
0.002555977372751908 -0.0007001767639865551 0.0
6.626651386105785e-5 -3.546693943626987e-6 0.0
0.0016759021760195197 -0.0002757118816033421 0.0
6.503543916082244e-5 -4.472666203553733e-5 0.0
0.0011870278106359123 0.00010253499766251249 0.0
0.0007926562558566733 -2.5152225004274045e-5 0.0
5.5817288738404853e-5 -5.8061526180459906e-5 0.0
0.0009645303771837488 -0.0006952560223278988 0.0
0.0008920873037604624 -0.0006355965834966247 0.0
0.0016092718084816302 -9.963463533346672e-5 0.0
0.001613360468996671 1.358760792317215e-5 0.0
0.0006506713066169497 -0.0005208276741638458 0.0
0.0011552106165966978 -0.00013669908432508584 0.0
0.002233204014621513 -0.0002456572516699163 0.0
0.0006629804687819852 -0.000324153797212992 0.0
0.0024775927733496766 0.0001685799825547435 0.0
0.0022430057923871444 -0.0006127389291826683 0.0
0.0004860018943847237 -0.00013045739389997213 0.0
0.0002792489606501998 -0.0002406299510152305 0.0
0.0019357460851546207 -0.00014338165400987082 0.0
0.00012955043040285353 -0.00013528276483900446 0.0
0.00362368054831896 -3.8432171531161366e-5 0.0
0.0012779471436018474 5.983600805729799e-5 0.0
0.0017723827419154517 -0.0002638517364885388 0.0
0.003277395144864543 -0.0003569050615519596 0.0
0.003579251993892092 -0.0002213842679252471 0.0
0.0029858738841627044 -0.0001874676964402888 0.0
0.0017452146722958777 -0.0007040467727095561 0.0
0.0022750051609868632 -0.0003610116203595733 0.0
0.003202793426119957 -0.00046998371079223224 0.0
0.001907999776574096 -0.00088515297692531 0.0
0.003139363270625358 -0.00028131672920948494 0.0
0.0025445003078831715 -0.0004337877090158747 0.0
0.001320488064905225 -0.0005252200300598134 0.0
0.002242728760974356 0.0001501864454768468 0.0
0.0013943874003241067 -0.0004281320092568037 0.0
0.0011677176983914655 -0.0006937416682931398 0.0
0.0017434313061750043 -0.00021732598076278824 0.0
0.002928687447762621 -0.0006085749987618062 0.0
0.000671799029991367 -0.00022564134986853053 0.0
0.0005434169730185027 -0.0004615138075319744 0.0
0.0027254072985285994 8.12257344758503e-5 0.0
0.0008501661455858896 -0.00025851656499125227 0.0
0.0021775985777347595 0.0001471360178905129 0.0
0.0011655514701644717 0.0004112964055716419 0.0
0.0028125922974631934 0.0001951135255907231 0.0
0.003264824440241071 -0.00018043114013957607 0.0
0.001807855364158624 -3.861755179017153e-5 0.0
0.002915893301320881 -0.00021842681731530837 0.0
0.0022963104904704713 -0.0006668252575157198 0.0
0.0024273264611035803 -0.0008306047505974303 0.0
0.001113018747134389 -0.00035232381776648336 0.0
0.00113514767569839 0.00021731137232158874 0.0
0.000737065817766587 -0.00023011113103648274 0.0
0.0008177880669446015 -0.0006353004203886422 0.0
0.0016454890961637523 -0.00030454738970593534 0.0
8.740784633715086e-5 -3.9037432465474184e-5 0.0
0.0006279034492879044 -0.00047719929785266905 0.0
0.0018008678901288197 -0.00011891111093167514 0.0
0.0002173479854984777 -0.00014782392730321208 0.0
0.00021870445792989196 -3.93444310237151e-6 0.0
0.001978058988900757 -0.00041984379193645797 0.0
0.001985370098333488 -0.00015025152750187506 0.0
0.0035342018841288715 -0.00023996053166639976 0.0
0.0015492269254735905 -0.00013916737236441815 0.0
0.00270980107594339 -0.00044899047836940043 0.0
0.0020024119999233927 -7.89919184718242e-5 0.0
0.0005171808658470848 9.671039604219169e-5 0.0
0.0006791358829634766 7.540414108219065e-5 0.0
0.0036362641209105916 -8.16102092380439e-5 0.0
0.0023067853138640116 0.0001460569737046373 0.0
0.0005461312053034013 -0.00024075922776967641 0.0
0.0022859136222811017 -0.00015888219649099988 0.0
0.0017302026307125518 -1.9228339634807423e-5 0.0
0.001967534321521095 -0.00021228072365489671 0.0
0.0006406320240927952 0.00017673044215981044 0.0
0.0019892453944404345 -0.0008891588887551367 0.0
0.003453085456258913 -5.388210502540196e-5 0.0
0.0019459649277189513 -0.0003510605258318696 0.0
0.00193423692258577 -0.00010081204125025432 0.0
0.0024608421032708857 -0.0002654012289314823 0.0
0.0016732902103979703 -9.451922455982643e-5 0.0
0.0019552282406656908 -0.0003259478478436713 0.0
0.0009442493464869985 -0.0005420419868194602 0.0
0.002600280221046018 -0.00040985351045789726 0.0
0.0015450247659044786 -0.00024415394028994247 0.0
0.001932781712239911 -0.00012955404785485619 0.0
0.003065522822068103 -0.000582785508370245 0.0
0.0016498529089024967 -0.00021218338087997 0.0
0.0023056456711603454 -0.00011808275235037362 0.0
0.002011609213866839 -6.493962625795161e-5 0.0
0.00029309599139030844 -0.0002852661079379772 0.0
0.002979177488753069 -0.00037268394399168106 0.0
0.0019978298974666804 -0.0001166479919104843 0.0
0.0011051852275145548 -0.0006912619409054065 0.0
0.0021764433420177936 0.0001503695830341006 0.0
0.0027173057701219173 -0.0007406862419787458 0.0
0.003647195898123154 6.515274204318112e-5 0.0
0.00016756406272870676 8.288620735148282e-5 0.0
0.0016045121890492862 -0.0003145195040504194 0.0
0.0021382076039970286 -0.0008467121243947638 0.0
0.0013461052011354104 -0.0007799947567503127 0.0
0.0015307668465067057 -0.000846864029136983 0.0
0.0002860869962878708 -0.00012097890371920954 0.0
0.0027593246727426685 -0.00042714875952034595 0.0
0.0011186590886302916 -0.0003269148474789519 0.0
0.00159352857689439 -0.00021978906083549516 0.0
0.001265014829196178 -5.483774983839119e-5 0.0
0.001585261940098279 -0.0008289462996603711 0.0
0.0027206361242270685 0.00017245855753440916 0.0
0.003486681939373159 7.713494672334108e-5 0.0
0.0022973653992944456 -0.0006392009150021423 0.0
0.0019394213208165916 -0.00037842983199019435 0.0
0.001242304164817365 -0.000518387612852212 0.0
0.0020715498977911732 -0.0008881414813848717 0.0
0.0028777367770542787 -0.00036362324373253235 0.0
0.00025084056731114446 -0.00014768880315048756 0.0
0.0034022920319928913 -0.0001117166484369707 0.0
0.001671722930270741 -0.0008386668598587302 0.0
0.0017125820455279898 -0.0007539045278648726 0.0
0.002601484488387713 -0.0006665845325713565 0.0
0.0037462614067655417 -5.101207871996379e-5 0.0
0.0014254553696615483 -0.0007991826013236735 0.0
0.0011929648180894585 -3.492120139197027e-5 0.0
0.001260759037379935 -0.00024763393946511413 0.0
0.0024450534669275517 -0.000294615397804405 0.0
0.003644370049556959 -4.163874693012485e-5 0.0
0.000304354860200844 -0.0002509285899700505 0.0
0.001962055294838542 -0.00030407309329125875 0.0
0.0033699949710876793 -0.0003263541986495629 0.0
0.003630968650206781 4.752873568506597e-6 0.0
0.0010652477159446485 -0.00020055157259443274 0.0
0.0017111388565188097 -0.0008468381268155862 0.0
0.0035338494927025783 -0.00010237118941117227 0.0
0.0006506007232814684 -0.00044832911508709667 0.0
0.0036972509295270213 -2.872232353577071e-5 0.0
0.0011989601409624741 -0.0007780745107437896 0.0
0.0026122014390870863 -0.0003802461309292325 0.0
0.0007155118492188956 1.1030303602645477e-5 0.0
0.002364025210896221 -0.0001217788050462502 0.0
0.003663308347940936 -0.00012912390517018894 0.0
0.002931774720867631 -0.0003382523297025748 0.0
0.0010525811804294606 -0.0007009562710274613 0.0
0.0007464619465148343 -0.0006023522279954884 0.0
0.0009434240944061711 -0.000494120375134758 0.0
0.0031400327806431643 -0.0005076190983716776 0.0
0.0028620027655945944 -0.00022138709001001938 0.0
0.0005931686050607733 -0.0002492436384494353 0.0
0.0015181454558226672 -0.00030102436912877117 0.0
0.002440605408610388 -0.00032428168499795787 0.0
0.0014655443927598108 -0.0003534161043694514 0.0
0.0035642007245494847 3.320618879402137e-5 0.0
0.0026099317167432644 -0.000177960872811241 0.0
0.0015375236210090773 -0.000227262658920424 0.0
0.0006090418349812629 -0.00022084908852963313 0.0
0.002789069717105705 -0.000383179827712878 0.0
0.0023284329783577343 -0.0007830520399587868 0.0
0.0032830355203327523 -0.0004257271536392498 0.0
0.0012834159875097987 -0.0007662009973234292 0.0
0.0024166115619951673 0.000115586578398995 0.0
0.0013978885688780455 -0.00040025874642984037 0.0
0.002216451221368983 -0.0008397074925543098 0.0
0.0032484195583316615 -0.0003586159707870958 0.0
0.002837892986982116 -5.866503846958701e-5 0.0
0.0035649001262648026 -1.160909989479748e-6 0.0
0.0008554324976357612 0.000185099049720914 0.0
0.003466477830116256 -1.4841186927153834e-5 0.0
0.001225353063900603 -0.00047597728462409907 0.0
0.0032019599497701175 8.197555204001144e-5 0.0
0.0022367393459329418 -2.4454553029905636e-5 0.0
0.0026284401098588565 -0.00012641885281791182 0.0
0.0011509083246783378 -0.00029357554549652346 0.0
0.0026703773411058495 -0.00021351284606191113 0.0
0.001793822582829345 -0.0008517968438676379 0.0
0.0009844531114307146 -0.0006570519831762289 0.0
0.002029641805275382 -0.00015704072095260366 0.0
0.0028265927217541306 3.7182916754001885e-5 0.0
0.0016826403437447239 -0.000793730928560679 0.0
6.150594310810904e-5 -3.869386889515179e-5 0.0
0.0036636846636604772 -5.217738916586224e-5 0.0
0.003190103428701585 -0.0001164138830911266 0.0
0.0015442839102288292 3.3253301384389784e-5 0.0
0.003712986101404027 -6.275186025423565e-5 0.0
0.0010328921459561483 0.00015440089746774727 0.0
0.0017327787506219113 2.4016944250294588e-9 0.0
0.00377226630001547 -3.2214136187112694e-5 0.0
2.5756711119838466e-5 -3.126243216799249e-5 0.0
9.130408970993695e-5 -7.179438442105107e-5 0.0
0.001089119364739146 -0.00012028749710850292 0.0
0.0023110457476666684 -0.00037149828531250734 0.0
0.002628262461239613 9.061776336710281e-5 0.0
0.002933413661630022 -0.0005752514519311501 0.0
0.003675880618509216 -6.217878725555793e-5 0.0
0.00027887040469662 -0.00016928680382881259 0.0
0.0007920857493033157 1.9407532298042848e-5 0.0
0.0023443836273366867 -0.0007442540682340966 0.0
0.003301350788246841 -0.00011754621197635287 0.0
0.0009737514795376406 -0.0004925011465494821 0.0
0.0002153360523612864 4.0179458695668657e-5 0.0
0.0023400579085651983 -0.00016808480354179678 0.0
0.001134625481202058 -4.009308557736219e-5 0.0
0.002780962130288684 0.00016582406249460117 0.0
0.001759654174263002 -0.00011549857827102843 0.0
0.0014531069062539389 -0.0003746717273800264 0.0
0.0033517645890068916 7.586321834517808e-5 0.0
0.003428474037856236 -0.0003269816615396407 0.0
0.0028212934320516387 -0.0006640575952922583 0.0
0.0008565929282231162 -0.00023807402865778338 0.0
0.0034974298491874446 -9.913697146012187e-5 0.0
0.0005811473136992665 -0.00029699510706797703 0.0
0.00352980630862206 -4.627095836713329e-5 0.0
0.003169797284753636 -0.0004964549015991449 0.0
0.0022624539992627383 8.92344550751864e-5 0.0
0.0026216317748236724 -0.0007435850696444281 0.0
0.0027395922124660572 0.00015180207121895986 0.0
0.0017420642253044673 -0.00018047819112398936 0.0
0.0009748182597121188 -0.0006228711386594115 0.0
0.001341782434624437 0.00019983065166841486 0.0
8.92441268824894e-5 -4.300094652738951e-7 0.0
0.0036298925844623357 -6.195927478328454e-5 0.0
0.0003889908180125418 -0.00036183555981693534 0.0
0.002786872803055159 9.812710877113837e-5 0.0
0.0006802113034703751 -0.0005412082089652367 0.0
0.0026160823492631176 -0.00035635550732064685 0.0
0.0007776117169709082 5.565595073624111e-5 0.0
0.0003283234388853132 -0.00018255752759062526 0.0
0.000474999732811831 -0.0004449440732407711 0.0
0.0004281355670612584 -0.00030673286854891377 0.0
0.0011370919949955534 0.00024911219936327205 0.0
0.002960623771820897 9.206169745266123e-6 0.0
4.738516391129509e-5 -4.595733341577664e-5 0.0
0.0031657151516524024 -0.00010338203893741051 0.0
0.0028592541511693755 0.00017261138768152835 0.0
0.0023680440238665456 -0.0003539146110547311 0.0
0.0017620859292999623 -0.00014222905921230228 0.0
0.0009988991044074837 -8.849504249902368e-5 0.0
0.0018044338753937105 -0.00019608857576932975 0.0
0.0023976693187948675 -0.0006781918356822803 0.0
0.0011627194085644444 -0.00032717712442372187 0.0
0.0008677987301051943 -0.0006343160665388532 0.0
0.003239039331724079 -0.00027981567250807586 0.0
0.0024633732422074334 0.00017220734068754348 0.0
0.0003916402113670199 8.367083708622479e-5 0.0
0.001119054977961392 0.0001010691993292827 0.0
0.002543405214953764 -0.00026777434324609656 0.0
0.002383882489690532 -0.0008091501722846767 0.0
0.0015135468282942168 -0.0003217590920661501 0.0
0.0030244421421237217 -0.0005755043326265512 0.0
0.00023054906098445355 -0.00023373224950416142 0.0
0.002642729079456485 -0.0006384679474118719 0.0
0.0012576551394414947 -1.0256052618664701e-5 0.0
0.003562153947756251 -0.00022007426335581595 0.0
0.0012097903956998532 7.653539407747538e-5 0.0
0.0023244564609870323 -8.630904222214099e-5 0.0
0.001993522023449558 -0.00040270737729915316 0.0
0.0017376245981660624 1.7476350771094544e-5 0.0
0.002067040871478116 -5.6650854444070105e-5 0.0
0.0023006992745863526 -0.0008220222213395986 0.0
0.002958616716229573 -0.000599730741947171 0.0
0.0009375033856333306 -0.0003654532101200725 0.0
0.0021198893031137457 0.00011068950615764216 0.0
0.0020683413471576303 5.214603973655602e-5 0.0
0.0029480506616090378 -0.0005350192323980309 0.0
0.0017496374403859751 -0.00016506734118206927 0.0
0.0016808501001433693 8.758859371234547e-5 0.0
0.0009685346147553886 -0.0005910322595446728 0.0
0.0035386866760259714 -0.0002199188239800934 0.0
0.0024845375832568445 -0.0008153287921701734 0.0
0.0016865712652278412 -0.0007703898606458246 0.0
0.0036618951463732482 1.66760567635052e-5 0.0
0.0016629317743859482 -0.0006829033587453015 0.0
0.002788331667888853 0.00014344971514303672 0.0
0.0010036164340514007 -0.00018228687557801787 0.0
0.0024705999471176096 6.999903255846325e-5 0.0
0.0007290780601732763 -1.0130251214594524e-5 0.0
0.0015842259349408245 -7.465334433564166e-5 0.0
0.001069235885178155 0.0003287035794573644 0.0
0.003726703578086901 -3.923047192582803e-5 0.0
0.002313332446520875 -0.0006160203056038736 0.0
SCALARS damage float 1
LOOKUP_TABLE damage
0.3580018681915972
0.11552068742467071
0.4491699891833221
0.13837204178205398
0.9682728096466146
0.9802141144254661
0.031662691175422954
0.5337090928470172
0.5272272981311447
0.5326288195785334
0.5574482693300589
0.5783473902278157
0.6068792593264387
0.6348320265960585
0.6523850898806234
0.6662817111744515
0.662690381318115
0.6566143601825117
0.6425278884645913
0.6221950339872548
0.6023680685247502
0.5896328259791481
0.5679493574692612
0.5443730674360776
0.5284114121978798
0.5067022632928596
0.47750150859857426
0.45073011723128537
0.41342241449108746
0.37529781102780424
0.3270047459757207
0.2707599845932402
0.09876716000381822
0.1821800439365192
0.20060157348006702
0.22859378345589568
0.24771880532170537
0.26207265715872735
0.2783007092321073
0.2899726182954657
0.30205151421879173
0.3140821830133601
0.3235785177787611
0.3344719419390202
0.3456786664707108
0.3533045797133852
0.3610140867077957
0.3705611877844396
0.3812841131474147
0.3937967211319335
0.40113726255115817
0.4108452597902338
0.4201910924352208
0.43331216253012844
0.4379324826049538
0.4532862491933922
0.45981071666656825
0.4736923410103522
0.4828271041182362
0.49909134400787925
0.5033582664172221
0.5207156232209286
0.5315250886299219
0.5465970623672004
0.5570373924886339
0.5720239202983424
0.5800068995686377
0.5921263348635588
0.608037815594364
0.624782376087869
0.6459264591078635
0.661097302690921
0.6770125150983505
0.7026046676890393
0.7178104136296322
0.7378587381032372
0.7614968381434156
0.7750843733660053
0.8002843867007142
0.8167505599387402
0.8358214319060745
0.8574819102650383
0.873966216730219
0.8805133124347876
0.9057740312023582
0.9155445025114252
0.9417531155193191
0.9421036661053058
0.9551556613999654
0.9535037687870404
0.945804298568023
0.9319494507800812
0.9152597356468328
0.895417827086293
0.8776164936978319
0.8533190852540979
0.8396556483981149
0.8194532078416166
0.7922697396174488
0.7739856120177648
0.7555503386225346
0.745130000322627
0.7224669560506155
0.7163994804090978
0.6999815928988706
0.6863795131327113
0.675998350713526
0.6563702341443852
0.649899166087532
0.6376912146888665
0.6254508776801999
0.6093906552322013
0.6098278462338605
0.588723207641141
0.5823077005974958
0.5669503392083475
0.5565697151021151
0.5468303746281664
0.530882292074512
0.5195574246397835
0.5104525126319287
0.4962488202897491
0.47889831449704623
0.4607088581121874
0.44799030325035194
0.430545145075691
0.4146549620907399
0.37463089259126725
0.3420299664668392
0.3262362448559015
0.20920563881725335
0.2750969930297077
0.35069062567809606
0.43338430148558815
0.4781856791619165
0.5030463825488157
0.5209186345819085
0.5335290721736536
0.5420825603297085
0.5486342244899879
0.5584261638069026
0.5651273289860578
0.5716317778230212
0.5779567509532527
0.583816182221395
0.5859200559848359
0.5838791540424287
0.5780006788153241
0.5728650757476735
0.5565120330226513
0.5500564484094133
0.5406279614290691
0.5331857522252815
0.5424892320884084
0.5589550383450783
0.6394545858730667
0.5177799915391161
0.8590589560534797
1.0044027272122815
0.9916373918626019
0.9855600176550342
0.9423368882344976
0.8182246666024732
0.7240534885420649
0.6187952680433799
0.5314529229740013
0.4425387064149978
0.3816018775897903
0.3082386550841057
0.2367387613647404
0.16674306421732701
0.13333438080631596
0.017269748189017275
0.06843453000373473
0.125964046259807
0.19698520608341263
0.27869336194459204
0.37999523744728564
0.49052342534843396
0.6233309975874288
0.7636657751013004
0.9082910160012109
1.0088908166978388
0.9968927177677709
1.0030254907618588
0.9531006240821802
0.8378074184780614
0.5894793114856097
0.513230205216952
0.7516147442504441
0.6065408819045414
0.8698804685100999
0.7253114002760853
0.9429037574533617
0.8411960737117
0.6698102805682863
0.44815209403712325
0.6135452602236021
0.3983087934331236
0.6194030315357596
0.5799105715252857
0.4061723671082574
0.42628430636903214
0.046627223637178625
0.23879876097341277
0.552785062748891
0.3524683785764056
0.5560149719072274
0.5579786076871209
0.5625668551220226
0.6462079999623792
0.5017702143984851
0.3065503854257937
0.6577482344311555
0.4885636720189795
0.4983458407006273
0.5275377462554575
0.6657742988801434
0.7863280078647309
0.9248791948364066
0.8849198489449349
0.8195744681685027
0.7053242100255421
0.5683714770140673
0.4787999542611614
0.4492188444235221
0.26778390908698496
0.5310482805219487
0.6120677010986342
0.4804528290258369
0.40027168087233933
0.8062768932005696
0.7490691860129048
0.5324767588283597
0.5430791896176451
0.5919897004993888
0.5753417853654192
0.3472017304622794
0.12456886484909407
0.214580285946859
0.3800422783512463
0.7761452128859373
0.9202425849184404
0.6327673098673106
0.5379149363058869
0.9459049538224287
0.6442035905417621
0.428073620495982
0.588187883956887
0.37745510975846186
0.3295630931552677
0.5252957369422122
0.7749742426478536
0.793056192968905
0.40060403536604766
0.31569610987512553
0.9792183420355791
0.9588024918850021
0.48308585263060116
0.5854273877374523
0.16914764976193516
0.3155962724308119
0.9577666513742623
0.7618841606778252
0.6142836146538757
0.6263152025866168
0.7195137474140082
0.6000432782246248
0.5580218065591313
0.5368365049897705
0.515272827444648
0.4980587687686155
0.5086202263952183
0.4849084509048233
0.49303623414377706
0.47812863216061124
0.48698210495428507
0.48578111547378344
0.32914316710603664
0.13346514214148206
0.28466695875759956
0.16605486189324986
0.2751991253114293
0.20804773721988956
0.28023990687729783
0.23904058931466093
0.29010943369139996
0.2599731159648148
0.29572500333179175
0.2799942879276739
0.310906181479974
0.29485517391398297
0.32005211800387007
0.30953431527527087
0.32959740814183136
0.319315856546105
0.3367525624338534
0.33001156408628307
0.34454143074787597
0.34072101236910995
0.35207270175882543
0.35001446297621913
0.361893782341104
0.361245092547376
0.3710248753635408
0.36944524200712403
0.3789988438897474
0.37653406214338425
0.3867595499206848
0.38773272641001494
0.3962395711399822
0.39771748391335415
0.4050466265707686
0.4066140362145073
0.41402294439285175
0.4167292796539022
0.22759334538215023
0.42384001524734866
0.3168513814841408
0.38340387202305515
0.42665069686391127
0.4340992936081303
0.43717316805778755
0.42982556118245013
0.4404696813627514
0.44470783619832627
0.44173572446309467
0.39494095345583596
0.4528079660221764
0.4496252168319279
0.4603093244058731
0.433030444686364
0.44400589920486333
0.4571029372533181
0.4368009858447174
0.44776558002446426
0.46943524274395326
0.46660984561431973
0.4415703562983045
0.45240807252579607
0.4792747790680661
0.4768744546630989
0.4456949365104058
0.45605199013471803
0.49012262516505883
0.4879021359392028
0.44863566058394044
0.4598750770434296
0.5015549571655583
0.4994350873862293
0.45175987371549237
0.4647974506868748
0.45580925963142255
0.44409982531519104
0.5038959484568304
0.513502801266422
0.5108415467836023
0.4962256117937915
0.357157409664148
0.5086775303321855
0.4934396401962238
0.5061820619788129
0.4689461963542473
0.4607726048639664
0.4749086202051545
0.5258885561528878
0.4711578824635962
0.462406942346322
0.339266338126051
0.4722903828362308
0.46389302651891046
0.4732266050679436
0.4646287788493475
0.45577257103568825
0.4558812100184359
0.449489867072069
0.47368990799433547
0.45242192315975566
0.4444141845430992
0.48332627117109433
0.48269959229298304
0.4468140417754609
0.4407912974733792
0.4933975456366737
0.5057347310624428
0.4923007095221142
0.49012761999239274
0.4941909957895324
0.5077981609345947
0.5205669583810685
0.521172243139579
0.5385213998413008
0.5363403580199076
0.5542191428373642
0.5499917962088958
0.569463825627372
0.5353388848230076
0.5630839779239603
0.5850421383948959
0.5008195035285262
0.44390860597721987
0.4388296339318147
0.5915509942496561
0.6080887303372058
0.5991063743061552
0.619453336987462
0.4983063686754459
0.6233815549937428
0.6117581710344006
0.5094615925065483
0.5072591183611991
0.4965059848496321
0.6367229927193707
0.623899257429432
0.5197135894841978
0.5228104500664993
0.5041731002533681
0.4929009538611736
0.6459694798002926
0.6336031984968771
0.6072941937865725
0.6596878831166126
0.6148997049500861
0.5931905552461245
0.4423318700694684
0.439510509806569
0.4334713014205234
0.43930352820589186
0.429029212977541
0.436630120796515
0.42487472942276333
0.5335310222527582
0.5364728935132272
0.4995684672666895
0.48868774489701605
0.6394157321044625
0.43806077029953855
0.42475077690970336
0.5475607511917195
0.5507279208476585
0.46176054746088496
0.6210174180954147
0.35707079078691834
0.7114649112490502
0.35236733294580247
0.4970762095319783
0.4407453160534019
0.42656659614701653
0.4960898581130137
0.4856890311942657
0.5620561176057771
0.5663589623762237
0.6451165419783179
0.44566748342099693
0.44658209725347686
0.4504458949228096
0.6232414172570935
0.44938685492086883
0.4314497099874235
0.5579342347764484
0.4908913123816039
0.4803570274315407
0.4839656260733864
0.4903094743128078
0.47688467050071537
0.48797992869884255
0.5779360057593889
0.5819825269700171
0.4341252376404165
0.456705542315145
0.44686029801042954
0.6482596244567064
0.6656199970884663
0.47928653802855187
0.46284235434479465
0.6288536413915619
0.6047285055650718
0.49434087237313207
0.5027409975283603
0.5951086871826993
0.5986978125374108
0.5849778981789406
0.6020736174219822
0.587386816170673
0.6047202806022187
0.5890154046837867
0.6059758629071499
0.5891368138488078
0.6059379945086161
0.623976382149689
0.6240853231388188
0.6433425798658092
0.6430910471976145
0.6635067421042987
0.6627958325104278
0.588431098467208
0.6409896546723373
0.6604375703478368
0.6840042177714905
0.6813236483978191
0.4488053329877796
0.44844571335256933
0.4856786388500435
0.47557357416384266
0.6565903088348753
0.6769209597360136
0.7036323647453124
0.6986545258224608
0.45258712196391954
0.4501625875267661
0.47499393683826985
0.49016069731374207
0.47837570453815503
0.65180618891264
0.6317567409963417
0.6132283953574222
0.40816411711527445
0.4728732889975895
0.7273617042304434
0.7215410077347609
0.6922079718295956
0.7151608825069882
0.45430018582960535
0.49893519680592174
0.5095398007786521
0.4807792711355582
0.48007259896342913
0.4702123452489881
0.48607095424562047
0.7450763497175399
0.7388209727440704
0.7069066650376379
0.7319158779519966
0.699302100485113
0.7227868740575182
0.7565281562593431
0.746210024530355
0.5063485612225309
0.4548288053361609
0.4506558708235735
0.6095251975459348
0.6555709713445701
0.6368562106226342
0.7768603316618449
0.7688196599616502
0.4872731909659473
0.4756440281498679
0.464948336175685
0.42856891318125595
0.48079564351564563
0.6282097216372464
0.5079523631675181
0.47165919802111106
0.6599248160835299
0.6359513942488819
0.6068454497703216
0.5153660231433802
0.6714014747106404
0.46154979953197567
0.4819035844479961
0.5163458123696731
0.5043641500034227
0.6911931590310254
0.46800983812435487
0.4580335115498174
0.4567584344460875
0.4508813574845589
0.47961156876245414
0.7990626720569196
0.7856330391161721
0.45531375696637566
0.4492745983030603
0.8083987087542699
0.6228204132260038
0.45065065038536084
0.442246469397234
0.5730962992676122
0.6072294669685704
0.5802898338948491
0.6360219505873577
0.8144104964780006
0.8001763996083755
0.6692719586691085
0.6615916706952568
0.6423248048223698
0.7728420254649502
0.7846997791531042
0.4593929726187667
0.45054185727870205
0.8086921434013007
0.791786453853603
0.4427123734281502
0.4343100514473144
0.5394856040915825
0.5314271576911938
0.4348067014209631
0.4273688525583884
0.4249988710859991
0.41825084899726145
0.6065013207270147
0.633552788243882
0.4901391995734848
0.5072158400562177
0.4648102931466258
0.6368054600005255
0.8125295030468085
0.7956847462152699
0.4952302343984585
0.7584048018496848
0.662612871197688
0.4215664246262134
0.4132803125634404
0.4097222808177272
0.403876681958478
0.4087653443367897
0.39973339831257415
0.407138253640383
0.3983333986997602
0.4100884518420998
0.4008812889081171
0.41600989775402775
0.38837993912610663
0.39503761862963915
0.4603395778097716
0.4715142470091214
0.3729799554832734
0.38131872631041724
0.47482098225713154
0.44121202931375353
0.6412605512872295
0.6343619882614936
0.44777314788910055
0.6568152103266676
0.6613864468280287
0.6538612180323806
0.6272813149363157
0.6055655655829644
0.6263500309184584
0.6416360557275338
0.49234955585129214
0.5234261427998037
0.6171478942444047
0.6298291898727104
0.6114553517584226
0.3988026648906888
0.5618778556192136
0.5619449367750949
0.4524873198204967
0.8132144194766293
0.7966168778071262
0.7802686457285839
0.7825513797920227
0.4766797653381265
0.4964969666605052
0.5392246590421464
0.8276050296340877
0.4841201037072452
0.7950885362332005
0.7817463179729424
0.7664586039626494
0.7672474470602629
0.7516272662518473
0.753186223287569
0.7646061582720218
0.7512038810818342
0.3632879626844013
0.3672488156293079
0.39300435737759987
0.6754540507944712
0.683092561981921
0.6226024038777636
0.6045365860359392
0.626915697450966
0.6143624114924562
0.4982044253907321
0.5040102851090563
0.5229832133766095
0.5152277606892246
0.35976280673147726
0.49305697202878723
0.46327830006193343
0.6357585777439101
0.4191629162844572
0.47613463098432585
0.7585551749863798
0.7467555759830046
0.4948341332156193
0.48672918827887135
0.46984358148788685
0.44604914434227355
0.4741839562377642
0.4875178284129157
0.4056568559535173
0.7909068419324959
0.5298176961228422
0.7313668983168476
0.5289641861499287
0.34852975257831575
0.3553617064801569
0.452562486132795
0.6464007217806321
0.6200785864779086
0.6409055757815145
0.5004884013524385
0.4949342776482656
0.5060136726754343
0.5031803810742295
0.49514511580526416
0.5026824592317799
0.5115503494622727
0.5093124180355293
0.5203766940671107
0.5222853787413951
0.5294431530982969
0.530774054731177
0.5394842411548277
0.5384049738493251
0.5377290373797928
0.5448589113081266
0.5463321948265054
0.4985282098458709
0.44745248491087
0.4442279836375274
0.45411361671201245
0.552586804587739
0.551462221625422
0.5511195199454025
0.7567855200312052
0.7596624108100699
0.7858463478926038
0.7878130453159565
0.8140845600179535
0.8148175350151428
0.7875662381375729
0.8127377674350296
0.7844241392108504
0.11459830778675979
0.8416605504783529
0.84050228133165
0.45618208777689223
0.5727761769807712
0.5712486518156066
0.5566209972318756
0.5542780144393036
0.5406753544599473
0.5378212451135231
0.5510400263698796
0.5341747336052071
0.5477310383250037
0.5293090540207285
0.5425184343384484
0.5177715212136371
0.5250168752453237
0.5281396742876604
0.5608554947626767
0.555847046351925
0.44557959483127696
0.39936282916065763
0.2735609043315404
0.6516619540573299
0.5732913954627402
0.5682363139911442
0.3458105430805936
0.37183741256589814
0.7481724852901724
0.5222431212341718
0.6112511812382626
0.6002633158570645
0.41309931699496566
0.6150483620526495
0.5972521468598023
0.3373681165447874
0.8064686980065354
0.7773480108294004
0.5870396798590145
0.5809756308374088
0.5705649936529992
0.5656067439694852
0.5750577513336753
0.5598960544082129
0.5698669501784499
0.5542667322681619
0.39629711226857656
0.5482890097170064
0.595941283176457
0.6017165181184105
0.48212989790633765
0.47249526779736967
0.5417492377733333
0.5261189564430871
0.6975051617277387
0.703608450720507
0.8234526128566135
0.41601490274611364
0.4749394895505496
0.5544338831232285
0.6122402711434678
0.7329609647577948
0.5891831303780959
0.7378323650906567
0.7332531289776147
0.7374520015089125
0.7246169962412666
0.42564621710180284
0.4051253869412073
0.5248545028987135
0.524190944722753
0.6686629414835312
0.456192751129191
0.4646406589858588
0.8375626260987743
0.555730842390314
0.6149873274791507
0.6216966726575273
0.5902544849290373
0.5803956516966183
0.583307555784458
0.442810447708897
0.3313710414569785
0.3409207540282293
0.3712372979146738
0.5219021294776515
0.5252830269937436
0.5228402400301528
0.5393213194661269
0.5544436241626243
0.5545362795705092
0.6074760878874352
0.5013455033409211
0.5368496125362074
0.5313049320000591
0.5062816812259973
0.516495542832789
0.5150148561110118
0.7546977517276877
0.5457898700573487
0.5393986678816265
0.5480337560345612
0.5340114432896561
0.7223794403269931
0.7157018080650033
0.7143007006562034
0.7035046049912859
0.6014465810017988
0.5948752277825147
0.8673969758441755
0.8645946477227182
0.5129931853792067
0.5163685746398624
0.6865657892113969
0.5404397528341988
0.52681162770058
0.6505991281134528
0.6460039867510362
0.6610625818217262
0.6513180502986737
0.7205880524326089
0.3281936866181528
0.4224948799624444
0.4305753300916041
0.49456782566273677
0.5093780149968843
0.4985303690835185
0.5252446925558338
0.5132215245368572
0.5409991614676974
0.5290420933507427
0.6268267614885059
0.5256924664407455
0.7273372145243688
0.8421682443747289
0.852215560363354
0.8557649623375508
0.799320613719133
0.5794819019729346
0.6966742145374458
0.5657323219774534
0.5547243427447386
0.43994771261769633
0.5867681060114496
0.6333056945650654
0.6272386823177296
0.8352802982467785
0.7708231976715667
0.44747211153485783
0.5508807968707584
0.5536675053107065
0.551933292193972
0.550652418631076
0.6689414864141511
0.7700240391141369
0.5968160630491706
0.6208945051546741
0.48089638573703025
0.6388943641493785
0.7442038490199948
0.7305393732600614
0.573065380190801
0.5822329242914813
0.4669032691546636
0.4762629327813878
0.5575709159901974
0.545962905774662
0.5164036239668512
0.5328642176271629
0.5617743081530724
0.5485274001291248
0.5749941472950113
0.5617248162194138
0.5847323623965271
0.31578067586370967
0.6036563910127473
0.32712208580651536
0.44709840022445785
0.543467040952816
0.5865298868939682
0.5439902423350861
0.6240061198270165
0.570085351063822
0.39392708144254734
0.3858534672955895
0.5555861302882839
0.8313543241424649
0.6247598257086698
0.6862556258361361
0.5508209928263106
0.5299353567925003
0.5177708199648272
0.5307664938763442
0.3950547309199338
0.5195328004222237
0.4778241091599379
0.8898752278478794
0.8859884564258512
0.8612831703927077
0.881752096383858
0.7436902771575319
0.7168306590104834
0.5358711934989314
0.5427847676026853
0.6387778850078163
0.6679578253405195
0.4367658937775039
0.5331409787975879
0.519870478534777
0.4569733030279906
0.7059740440725633
0.5864439743009733
0.5138730095222837
0.9036886856554323
0.8978078933714164
0.5831595055345733
0.587409459224865
0.5662812858473423
0.4395484650907796
0.4263221259040301
0.2975020260607438
0.854237395659597
0.5414419614150106
0.7917902536468272
0.4506650828589647
0.45329092599905746
0.4013077820084971
0.6946164821988832
0.45389092598500036
0.44719595077784047
0.453109910205275
0.4472371397670396
0.45160931727190246
0.4418696086762606
0.8666647115797683
0.8686823866723878
0.5432859007520503
0.8203493228974503
0.68390810577079
0.6814044481768181
0.47732670430929675
0.502316687363904
0.4806213583363216
0.581101748351489
0.565243595132326
0.5052706565434152
0.48691827912468494
0.4844630048000708
0.48907733571817996
0.46869521222796734
0.5174369599482895
0.5991123853439633
0.6282666848772279
0.5694547759952238
0.8899263856983329
0.6185732950025168
0.5415050975146792
0.5265803295114239
0.4063006885520053
0.5238654536187717
0.5775988559546882
0.5738226335245251
0.4352789294096403
0.3825208425308407
0.3743739757036172
0.37940945639000184
0.4387981444064889
0.310368235366399
0.3489188203192432
0.9155327367622613
0.9049181350002667
0.8850269483782357
0.7098204978485767
0.7108242903748784
0.6829418602143392
0.4429356063332975
0.4388585845406157
0.5900691164812234
0.5537433030272493
0.551313639649885
0.5393272546522909
0.5284670967750453
0.29448661960184974
0.45776992899460267
0.4404193007175709
0.4313314227219613
0.4139208514736013
0.41316112440490316
0.419582248822384
0.6104058313014368
0.5024717850360624
0.49843447612256403
0.3713819966299855
0.36259529490943615
0.4897082017393272
0.49451984126946064
0.5060031636513597
0.5081819915960121
0.5008676564829382
0.7657902983889078
0.7465582098430638
0.7853659927061053
0.5150420477459516
0.46812858685501374
0.492007448521562
0.606959652347098
0.878922280533532
0.5467706649247088
0.6746391855593666
0.43037258596481376
0.4135828226028519
0.4283317066072831
0.41785964031896206
0.4307439968577786
0.4246392400678296
0.43713069487753387
0.4332373153764546
0.44548170867331954
0.4051158143362306
0.4221285212724499
0.8563213127772079
0.5271644020248792
0.5607491781276676
0.5469018287591229
0.5971662503560174
0.5099959837304004
0.39637234679829264
0.5643854884678513
0.5382959219550824
0.3500014401572877
0.37180445878904855
0.5106945641795615
0.5678050188210456
0.5711195328888848
0.5314660082192787
0.5184203711900961
0.41499321620561125
0.2767399625532265
0.5118904734081721
0.4911140809140157
0.2937999626972255
0.703526363858097
0.6898109449858163
0.7023244878308756
0.6767310204591044
0.4316076703964698
0.5518907341307581
0.4112886954149121
0.572434353815843
0.5519962316815201
0.4909299663055731
0.48164353171745655
0.6366967132275043
0.768689534558624
0.7567162416680252
0.7665588937034151
0.7504121816019199
0.756531907866923
0.7758037757759134
0.8038117937624808
0.8550896719834635
0.5260036607862368
0.7337014676440118
0.5330319586825454
0.491565858404879
0.48771517628187705
0.7436116477337369
0.7330756604522773
0.7282871466674673
0.6457660292549341
0.6591875508821469
0.6787847940082778
0.6986413257641702
0.5135511556259635
0.6571197983882515
0.8326749737424897
0.6980840839961524
0.6806361529739946
0.6676701681161962
0.6833839242381374
0.49211102429814263
0.5851404170248823
0.5776939117871736
0.5929265208350738
0.586731967193853
0.68927316817531
0.4482375409235198
0.4290341391487755
0.5494527575835502
0.5753213173113509
0.5911013303149079
0.8818132798557412
0.8887227110930284
0.6156699169457255
0.5202565844213687
0.4286545132305641
0.673927738432482
0.662733791011545
0.5313867791313327
0.5101978834418026
0.6621341774877284
0.7137518645300602
0.7183773246910632
0.6536070505434869
0.6742946705242232
0.5945570475698545
0.9227323721680195
0.536600765006978
0.5579719156172331
0.5870158249556031
0.6448634492628496
0.9096520301013192
0.49598212388384216
0.5415775319361867
0.4413458322796356
0.5174286258876023
0.7463523288738328
0.4457888417208939
0.6441499076391323
0.7821637303726656
0.7646074449717662
0.7859314432432284
0.7360061847520458
0.5679219015166893
0.48632611397543385
0.6951190360549839
0.5399012727663904
0.5318602368915569
0.5275319934615326
0.5006221914339265
0.48146333938780506
0.49376373953601826
0.6004200021956633
0.5832006675683072
0.6887818564257475
0.4282655666629357
0.43527735038118165
0.4317374805379553
0.6932896309294083
0.6324959121839816
0.6024905650869786
0.5584455142991895
0.5468413420331325
0.5844956542837048
0.5870977830431279
0.5939249375629362
0.5533416631354677
0.5464800017976897
0.5460675678431224
0.5338606300940979
0.5432754513843308
0.532503179536576
0.6640081720037279
0.5264900416848978
0.5391286576963096
0.9187741036332594
0.6077522257824228
0.5861924977081161
0.5785812063583547
0.5703568100479702
0.5831830568114441
0.5727201892445044
0.572998937007337
0.45689199370605
0.45548265626933554
0.45039585482681527
0.45341099075556135
0.4591448578604361
0.4548780038480986
0.46149703842222844
0.5278863048246624
0.4578479031115314
0.4637627323293127
0.5919984305521342
0.4727407610316474
0.4689699505288671
0.4499761063335857
0.6973181992211404
0.7108648875475879
0.7654729991642425
0.7836821190251179
0.624367544853366
0.42402163157213957
0.40009812905350517
0.33705626289804214
0.370521205076671
0.39977181512528975
0.3475729303492164
0.36474558098673565
0.30280849300271645
0.3290794780347706
0.28072974545678403
0.31649181081580124
0.2869971433166029
0.3156047642457622
0.2986245905923488
0.32034475117229083
0.31373949511036336
0.32999785818847815
0.32712742217908625
0.34183295367889166
0.3418283667948618
0.35453333277243443
0.3563503911196299
0.36770893336100097
0.37021162490582477
0.3806364895843638
0.37810300361738414
0.390278436616722
0.3854999525031834
0.34630610437346976
0.3606036763402537
0.33104312338904124
0.3842995466884673
0.29494717228512946
0.3889379425128745
0.39968690994811973
0.4026821321287516
0.41100025413375774
0.3394765491423672
0.25724083995607594
0.3778578929261536
0.2703681677966379
0.4148716371026868
0.4221681144266279
0.41830042568995285
0.3896464353262467
0.3821725174896126
0.40717672432316665
0.41986061065573727
0.4132043015853922
0.31158081847339913
0.25074044348700975
0.4285524530038718
0.4254960319605642
0.4166138922138965
0.4236899786803266
0.9084167173757186
0.8863827193552857
0.5403008897020272
0.8233761668909736
0.8486116867168187
0.5519954674084279
0.5659485862361365
0.4806551698775882
0.574807792165976
0.4329725697947069
0.5062282699260557
0.5028823552508095
0.5077333939445273
0.5530761584121722
0.4396504384527535
0.5440929017059346
0.5440644714999826
0.43150150743540966
0.40497630860930023
0.4393363747509546
0.3945429311599464
0.4698777983161392
0.4490599400474119
0.457333507789806
0.4537310883754639
0.48647656531767053
0.49628164111636636
0.4826115118072425
0.49211617521396467
0.478183226466092
0.48797144548110116
0.4742257956335093
0.48356532049921186
0.4978520957224156
0.4917684737681826
0.5472839627599824
0.5340002632125046
0.5376927725519828
0.5215214289610055
0.44638047870535846
0.35977336821806144
0.35198333504496504
0.354411661948862
0.3435237931580821
0.5949937576834239
0.583808088139532
0.6060756119731957
0.4666281450317468
0.4218496039030032
0.41313046904709366
0.6818159360076985
0.5555069742625522
0.5292381822403187
0.5173344311482233
0.5231363364916304
0.5015591577838202
0.4725773787388111
0.4789372797124851
0.4492597063631362
0.45212828134416916
0.4900184330707439
0.5987700381890383
0.45260160874389416
0.38199992609778033
0.42515375572582864
0.5420742856039396
0.5649044400259102
0.70021111572556
0.701729554402339
0.682832149308961
0.6205815789659734
0.6251048068366154
0.49182885714568647
0.2514915641860418
0.2515540318281477
0.44640430576347656
0.6265162156290498
0.655438758923347
0.7080034008864887
0.7249808123398214
0.5999183679382893
0.6493516249736908
0.6623548436229821
0.6651626247875143
0.6478189618676254
0.6502188532648452
0.5532765121436608
0.5647019102102305
0.5705833619182381
0.5619052089900082
0.44062307941877715
0.5639509670561238
0.5625146035769912
0.8222861405185827
0.3392044740035699
0.3288440852362592
0.33771111447010826
0.3230203726314658
0.5167287146360907
0.5474028180032655
0.5544451344422157
0.6678111672087305
0.4923597364456497
0.6406857142273485
0.6238795434629704
0.616776191300365
0.5970273978360671
0.5959360450379263
0.6122679683476366
0.5889425739625047
0.8026541525441833
0.7973170772285106
0.7676313183842463
0.438189769298293
0.4534020632821343
0.42311232152892075
0.42370287126462697
0.5941618943831486
0.5785453130132792
0.4877064871670011
0.5910553520557098
0.5273026300915239
0.5107323569168618
0.5148706340703623
0.5293333434366002
0.6820935905606622
0.41997389022931303
0.41863022808960637
0.7129220391555907
0.8419973838816577
0.45622731695706203
0.44334796586919417
0.4753948394064106
0.711612912500759
0.6832136441776112
0.7216317208178409
0.5837096591066987
0.6961201217222783
0.519526451671567
0.4279203778120683
0.5484736764186827
0.5685800942669748
0.5778261131099806
0.4378911229060293
0.432171335449493
0.7040867062283247
0.6949616568058415
0.2689063867300483
0.9084458429590101
0.9166620274198795
0.6665556524740095
0.6772580834567148
0.6695123132606784
0.6889156445650019
0.6832404501066504
0.367874799657981
0.3748674671686624
0.4822223383436271
0.6012546029338361
0.513439496462376
0.6705850033759526
0.7089699084649561
0.7148117283987244
0.3150746682877522
0.3062581280764546
0.5466644639359156
0.42924105164526244
0.4247910844560297
0.6350366335462114
0.5391774982900259
0.5121890495340367
0.4420658398520464
0.8841048017724932
0.9001527883129756
0.4715802981702628
0.46606163346487683
0.6781165539362004
0.6693677977558401
0.46973278725086065
0.4611483064230711
0.2237931648440437
0.9344461599544186
0.4684401774642126
0.3972566310214434
0.40207188851331255
0.4623177373286679
0.4615556834058953
0.4185362588612876
0.4069924819676084
0.4127542062631524
0.40215485999898465
0.4078818520688173
0.3964467895358755
0.3906141491839389
0.38465456286480826
0.3779054365782879
0.3731833346012172
0.40435417050666606
0.6164588511526593
0.4682271942451805
0.48074207168131144
0.31493775750728703
0.2116663244003753
0.20264825450972024
0.2670832541997098
0.2505049549280515
0.21615362391033816
0.18691536622879953
0.17841062946229522
0.4449571948435144
0.42548786360020596
0.5383628080090849
0.5097460200584575
0.5075054660240061
0.7411446277499798
0.7550934919277816
0.49862041067424373
0.5031336300177065
0.49242656271250507
0.4070041293416171
0.1532964032008477
0.3798907972198175
0.3679287468337394
0.36051479021901156
0.3561820940250351
0.3475832834953187
0.5149275631333969
0.5273740143624889
0.1921026101076362
0.718483727480411
0.6656047598492705
0.5706076992004455
0.4479505382301651
0.39531201463864984
0.3805079027550486
0.4619685978154006
0.5820435677058963
0.6622697227208253
0.6421699787123126
0.501106201738854
0.6974770234912816
0.7100828153723366
0.7227627955748047
0.7377129169902692
0.5138493053221103
0.5425187154753143
0.518997922796179
0.49999352137320735
0.5065961627942401
0.49538849287589587
0.744049795918549
0.4324287799326941
0.33384178525169067
0.2755442023359017
0.2768642252650866
0.2966962524950167
0.288298235312973
0.306203540629039
0.26714479112131706
0.3166945614586896
0.3224692215034892
0.2837633488818636
0.5857508057637303
0.33078048295081
0.5742009990550071
0.4323437286571878
0.7192717796653778
0.724260971240014
0.2550103563659014
0.2435178063945756
0.5319097306634363
0.7925371368758365
0.7984921621850859
0.793800281555504
0.807674434453821
0.8005977074855654
0.8196613978046745
0.5319866339994465
0.5386784753369211
0.5439397051014475
0.5415330741155994
0.5451167898728311
0.5376461132025092
0.5440283423897483
0.5342874418891657
0.5274028893268772
0.5507283790631518
0.5248032811144868
0.5535668592087082
0.5457372186431301
0.5562540335810804
0.535153508360819
0.5354588816362968
0.5621614666708515
0.5463310432331204
0.5560941118662909
0.37204873623171447
0.33059390920574044
0.41964239531183917
0.27366012700005804
0.28058834277042716
0.7326841569815384
0.5485286187752924
0.3963987515668941
0.38154986250793443
0.3796809025203554
0.3853246621480784
0.40024729300040823
0.3919034260961159
0.3990031800661393
0.38893724604610247
0.3125522645874361
0.5089964750358864
0.5145415709738795
0.5351907479536965
0.575492070938907
0.548498988194054
0.5781471303803372
0.47101828918074357
0.3452207366568021
0.3479938653551931
0.36224569311665006
0.3733595729019915
0.38712891661194987
0.3463107382323519
0.6244809630662687
0.4471723269666399
0.4463971241700158
0.21668127570467988
0.6237875691901187
0.819443485456808
0.4561975245137948
0.4562563933613205
0.5343288360502743
0.5231373207636377
0.7719659341166024
0.5773695201177576
0.5606655490424626
0.5620535534447989
0.55400679588751
0.555366721313752
0.5450737243740061
0.5427612004161003
0.550518554336266
0.5350883376442113
0.548358087350829
0.5417838031437071
0.5652829866530948
0.5335087647006928
0.5810535571820117
0.7385989905739287
0.46757695048512926
0.5159917227384613
0.43222725566187575
0.5157660884808732
0.41378612172922125
0.39435430374469843
0.4081185898442318
0.3890225817825834
0.3695903918911922
0.36818819320169477
0.3839202329770785
0.4254884063675097
0.4654954911717481
0.40629144150095703
0.6259527149262931
0.5543258396343242
0.6689372297013126
0.37092052335913905
0.7050618091506439
0.6093407035100732
0.61807587661328
0.36408526283024867
0.46204337618548125
0.4956805620955436
0.4899291966606202
0.48359014355314894
0.46586143054266765
0.3593788663216007
0.8770774608491977
0.7802090047774198
0.8911241378701623
0.2955384279288113
0.6179355676942203
0.6403067565050086
0.7197594429245624
0.7983734709206138
0.4481425730171794
0.4927457092279198
0.5992283739256216
0.39196867227756527
0.39862983814755076
0.39119693484533813
0.4446171005422674
0.4123862532014033
0.4494337610597965
0.39366876838880005
0.3994119350764756
0.5635082581774824
0.5745210405993383
0.49912687091474855
0.5192464368648649
0.3917120101688794
0.6060202616533464
0.5713796944700518
0.6849434795733809
0.506472383464053
0.3022475696718692
0.5556478526087434
0.3449625269641281
0.6610476328017502
0.5611131137761657
0.5144322558868385
0.5229746253620926
0.5089508823658281
0.4958657344250991
0.4379676338168259
0.38417023237826964
0.4186893139993875
0.4647324380562618
0.4628707616340245
0.5394425059644493
0.9061592961108735
0.8813696028938094
0.8929294645471398
0.8732203936513382
0.8595657838579329
0.8479005184783615
0.861197193408978
0.7595199527967739
0.502443851805667
0.4719516851065116
0.47748241987097056
0.5539965800590276
0.6598682296259192
0.5077365093540744
0.566445945667937
0.5680887642027481
0.5562361739687848
0.5559579686957071
0.6006017279650483
0.5073249163617849
0.43369531534106637
0.4089820264597512
0.5786078741991274
0.5630213224964363
0.43865191456003727
0.479368424299468
0.46988251738398773
0.45851564300470155
0.4575436206998012
0.3801201178208563
0.1744923879159552
0.8689632759829056
0.8576483268725933
0.8431120568431515
0.8694902379547264
0.5280436862447556
0.7764091065758671
0.2762727877048056
0.31332428742046564
0.5060509885279691
0.4927007561040903
0.5076497564720225
0.44857431999958153
0.43681951651493767
0.3890783766234826
0.4928491843244074
0.6018524289080789
0.8856295733832852
0.41524054428326146
0.41100189445890895
0.616863316817349
0.7766193394444106
0.6366263586216853
0.6533589237334418
0.5726133928964994
0.479093310397
0.47030399296225806
0.4606244954947257
0.46269230688034146
0.46932534661208897
0.47633198775631935
0.4477997789449133
0.8462529445553494
0.8309863007018694
0.8418394098313088
0.8565075452533073
0.8696176473636414
0.8784635598537043
0.840163669175317
0.8429065468378751
0.36764961286958964
0.45519213732323016
0.6773073115879866
0.927551598729959
0.5334224125849065
0.9086595314833755
0.9264437678664983
0.6835275465457094
0.5488090930261034
0.5350081983550484
0.5618761929263052
0.43412906228028003
0.5485198178627885
0.7232877571085063
0.5031063771672905
0.5033695921896825
0.5146984528046247
0.4921974973352415
0.5125079211391528
0.5042906921103364
0.4938637019626876
0.4816663307662452
0.5304677678592826
0.5230440589523709
0.5146363477074226
0.6577807129078584
0.5953460379308507
0.5196337678310585
0.45509189604739114
0.4167351786485701
0.4823204225641801
0.4588096628402095
0.459687903945372
0.46783254685684633
0.8130266083770645
0.8405062194795859
0.8552553276863831
0.8286030626284183
0.7361477961762782
0.4269235799969816
0.6359217064820881
0.5907445611199912
0.8399090253979458
0.6378217120814195
0.5235196876969516
0.5132483646883735
0.43868401130454443
0.5748076205099157
0.5917036870091096
0.541988107994185
0.6336302434014681
0.6478887046162066
0.6554126335436713
0.6763525501316392
0.5113407672265559
0.6230786973956579
0.5141636982094341
0.4426171450419604
0.4530380687020577
0.3926237074050633
0.5139792482821626
0.8432485277665928
0.39945711611670115
0.7071066830527691
0.7085860033780271
0.7338104752295499
0.7076844112875628
0.7310430801333636
0.7606931737486784
0.4915172323927362
0.5580682416842412
0.5564718876003975
0.6110902640560633
0.5388095989425029
0.9271426060299784
0.6170148591845339
0.6849050245176401
0.7818004464063943
0.5100215725485635
0.5426052585973882
0.6195257399649334
0.4591225385714142
0.09404550636948511
0.8099488710047549
0.49980175653549636
0.5471821051436302
0.553549856652165
0.5234529608860314
0.528916825607832
0.5020685820539189
0.5110866437676846
0.7013931882310444
0.5067373688038593
0.5647520749012082
0.6039184069965563
0.5584165708368253
0.581445134400402
0.6495326866710323
0.76120036085384
0.4386133608898548
0.5941895963742291
0.5781389002255418
0.5567537763788547
0.5216152816429129
0.586878481678288
0.453474572023842
0.5298050143141649
0.3978925136516699
0.4212635712896631
0.45771524003993225
0.5899681510955057
0.5725214005860272
0.5770704867758198
0.5684223306955102
0.7051967766393444
0.655670997203576
0.4289548382826474
0.41693079040892567
0.48897989527004193
0.6050388886556756
0.4606058484446747
0.5833312899083567
0.8121109840308901
0.5450443859323992
0.4649461794853861
0.47783110392935746
0.5511285964380369
0.9255790524075792
0.42467174487249343
0.5395107095705066
0.5434715660411231
0.5651377657949829
0.78948238682944
0.7642103562848703
0.7514891369176192
0.5217671708527912
0.9493308689353123
0.9068321072705385
0.7651982039546443
0.8264527039016547
0.7952789755227133
0.8262111921306935
0.6189224187034353
0.5255935151439733
0.9375277539861963
0.6515405889065844
0.4691982122920384
0.5585428557940105
0.7282498914621289
0.7528783730797889
0.5257640895026374
0.5920370613057748
0.7480930899567791
0.4940116370990577
0.44090466315397703
0.5438713567392804
0.507041582436508
0.34390825349456233
0.5023600953621491
0.6366114095413395
0.29807578317990124
0.29024246687025806
0.6484386936377884
0.5769140636186612
0.6375505806018646
0.5089182438865453
0.8659708773524826
0.4335020573185398
0.38665887261677206
0.43233578410683854
0.5732213158231473
0.6421070377128842
0.5339648565298879
0.1573018982159083
0.8274220791318568
0.7690932978399924
0.5195749396752831
0.6826553401475852
0.5431068343469498
0.6658668833476858
0.6955154073175934
0.6572980517153215
0.46613938463581656
0.5317895648792648
0.936019926049288
0.6386682718163708
0.6479394494143802
0.4488729604349953
0.8903198436150978
0.6044059190262445
0.5045862970062928
0.5477403951096542
0.44889764798280934
0.5216856300992104
0.39238751920598897
0.6085720782619111
0.5601428399821329
0.4462605291854354
0.764949843696603
0.3688237589376956
0.36370612244410055
0.8748509894787778
0.671311017783036
0.8374270780636529
0.780987690568101
0.5384632713007723
0.19928481000657317
0.5413500134054486
0.6744947484205639
0.6697974885559336
0.33981856274041916
0.5511613561968578
0.6826253906309303
0.25376554331117146
0.7133637881803323
0.5152562406998602
0.4128057053357217
0.4832023349119148
0.30289713417948955
0.3296829827506417
0.5040767535783505
0.5730228620482308
0.4041748956517785
0.6510956212231384
0.5369180195244052
0.6841537901258308
0.6563457503132317
0.5200644540414828
0.7562873911259309
0.7434101531227858
0.45006070529727
0.4167156155725623
0.35098725707390965
0.4449430252091861
0.37267204504931845
0.6846759057989854
0.7756312337241905
0.19539370433845718
0.22999140235970608
0.25334923372151696
0.46693338710857424
0.28019608840272775
0.5176783803989196
0.5689707414774317
0.5998413356257929
0.3858906125887841
0.4086084830652862
0.489128319335777
0.5120641897130518
0.4817947430677866
0.6518934647537519
0.5265556789582756
0.5790626337510435
0.5630848856812063
0.36553453352011456
0.31966919757022877
0.5426095771588041
0.5588209493698943
0.92699139374506
0.3398096347021074
0.7259297049075646
0.43546284983566946
0.7049040117581186
0.5396166205385409
0.7480536885483375
0.5380863624635079
0.48246069826889115
0.4415283616624981
0.5936917429949078
0.622766152555734
0.5981695468915416
0.85508563950126
0.412259875846744
0.34024696815711686
0.6137008908168848
0.7390763135772445
0.45066699136697347
0.6312360133883768
0.4889778203789775
0.6852632241172202
0.5258076807112473
0.5474743221638764
0.35302669105902895
0.5676994502298996
0.08185219035457682
0.4316615244778555
0.5565553607642716
0.4764444556570823
0.4465628228335409
0.6505990427405475
0.7252546191325427
0.4613503702964385
0.3889175267739267
0.73674142276649
0.40881459423114647
0.5779171283635416
0.48095567652492244
0.5509920952514985
0.3423455914714976
0.3905425020310243
0.5238229576554958
0.5337620487375923
0.5181882832028373
0.359862986828082
0.3857220538683207
0.6601597634500146
0.7042408320328393
0.4489960856204813
0.43811020977100157
0.3662307833433719
0.7592001411928889
0.48646736092158355
0.46605927871559605
0.5099026597610054
0.399784085655087
0.5581800789906952
0.6377211788664282
0.6025655565586917
0.5751562006717406
0.5988279275149884
0.5329901209332312
0.6040696244116316
0.4810616193992158
0.3395653656469162
0.4492537884856852
0.42964856492031694
0.4923638638645723
0.41757934821068243
0.8034093321949717
0.4692841158832956
0.5311670764766272
0.7236561972400678
0.6006866001274606
0.3989982205785695
0.5043607996920184
0.4645445597113392
0.5834369531256693
0.4548132607412881
0.4558816616091595
0.17499769640377477
0.5624152941581814
0.6723355932874798
0.4465096003875955
0.5795401334491078
0.4890354764897508
0.6379759451038111
0.41778650463884465
0.5179310964660502
0.44791643001695347
0.6451610606871653
0.6177484171002378
0.6037356261839518
0.4244575519552979
0.5885910995009841
0.47204209803843056
0.5678069162786551
0.34847508684113415
0.6307496055412898
0.8079107680291417
0.47967037242445976
0.5436978424517793
0.6104056195033434
0.4212870842075581
0.4030448308274494
0.8051653816838302
0.4287001828512837
0.5929016051334671
0.41811642982593966
0.5570637555440378
0.4718786367135515
0.3275275091853916
0.6316637515751582
0.22267835840672906
0.42406047661699653
0.6714967405469592
0.6270706815553502
0.5735696574571831
0.4630397855211186
0.4797195242745037
0.5712379649338031
0.33952323342655366
0.554404465133057
0.5184355076786559
0.5752304971560558
0.5916993573210768
0.4616105679186637
0.2955703646433261
0.6981842370824146
0.7254780435237869
0.38071732082261156
0.5373457780259884
0.5219721167922351
0.2627900135533863
0.38648732490596815
0.23995302819202535
0.3335363472050657
0.5329874177321139
0.5533080034765252
0.5228411863393222
0.8245809757183894
0.424206516733119
0.8930130862387293
0.4648668174352863
0.5749298097557037
0.5693981757599157
0.3946787856504268
0.3026465127609944
0.3183450868269099
0.49819749475062514
0.6640546067030428
0.6000312605165311
0.570719161675679
0.5527774350075499
0.5582819308368646
0.554948943895554
0.7079131886077282
0.33428546070533055
0.36617836296265455
0.529137764743745
0.36690278643778657
0.45514541375574497
0.6320297757636787
0.6070260170226414
0.40367482011990985
0.5795393095160961
0.5382934426566474
0.5234143699660737
0.514487287970909
0.536282814030884
0.508434480796654
0.8286393133031302
0.5163692430092726
0.3580106837555535
0.4675860029768978
0.4357713749754717
0.39513537434884777
0.5246723397537363
0.5817024967543
0.45804368818002006
0.5418708370222307
0.46612421168947665
0.7604965426507921
0.6872083128309113
0.35571598714171715
0.4942144191411652
0.48110998616066825
0.4166599225785996
0.6796995856621517
0.45433176059048985
0.4919214483634306
0.6186439384302267
0.34492401411875834
0.685403139990065
0.6966093868090913
0.4733585315237848
0.7672739944769698
0.442793366918766
0.6815347990035986
0.5541376399895096
0.6060569696657432
0.4650536969360939
0.17828890149792206
0.35587160362632203
0.6700298195683919
0.41955869809188345
0.33212397059439175
0.5054581146071659
0.5128313989365244
0.44362003661973204
0.7986599611283981
0.7448094416624053
0.4929194043142255
0.7272312377244109
0.4140059460183603
0.4715755656059223
0.5614772837731686
0.8021726003864407
0.5415898103702328
0.5549086270153384
0.5135319869252967
0.443353487118791
0.8444077685853644
0.5401416632213067
0.5411454718026665
0.4501624330533495
0.47706872176060444
0.5187992237052916
0.5698973594371182
0.6249362160910161
0.3257726756269071
0.5644858762465279
0.6694485061907796
0.7153333020333442
0.5672393646421418
0.8335911327757755
0.6509402946469386
0.4574152417253213
0.45721495259295536
0.42067852303827813
0.45982221572857107
0.2274274481245554
0.5028168504097533
0.48310350610997976
0.3407496707471517
0.2334497395538999
0.41499905235645734
0.40886204771011053
0.4757170713529039
0.4346882655451167
0.6386067713373917
0.7927354870509296
0.4638224660375876
0.31418424224109426
0.38663430722029557
0.23036075566568567
0.558094983783296
0.3560802455754074
0.4529678274385474
0.6347780174840008
0.42979835472340333
0.5652544693787286
0.7237315128716617
0.5592771200227258
0.6067706456973672
0.8680768110596659
0.6673087260483533
0.685622067722685
0.5535199741230543
0.5938369432876459
0.5268964277257145
0.5681405900325709
0.42233822192472004
0.692415375478299
0.4455835967838811
0.38228307806620376
0.5355956756497295
0.4513646627775585
0.6678151945661489
0.9779863759090537
0.9850429917584169
0.586525255480218
0.2950086579960149
0.5703876655334797
0.8653991408718233
0.8512628387751475
0.4800123456845139
0.4597048413653658
0.44681970571746193
0.4580641642860826
0.4764656709742271
0.5279839852674524
0.4100615623274411
0.35883949268024434
0.3793304790480715
0.5983923136819674
0.5705096769060044
0.39568039622495105
0.4841973303034135
0.37233807272249153
0.7393018210421143
0.36637838424880537
0.5533853884886927
0.534928609709337
0.5314509075680095
0.5988589093330069
0.4319883407051282
0.4423421237623433
0.2600343373881643
0.42823252328942707
0.5383245930024413
0.9000513008043386
0.5501496710788121
0.5180063611055035
0.3615684992953268
0.5186864373432628
0.3373155418425641
0.5006952647105332
0.4926983008563452
0.675503047497642
0.44013677461020956
0.3790557427458229
0.6161371886196056
0.4185729063781287
0.44029616484931233
0.3641297578368924
0.3020393210170343
0.7134767456424728
0.38136471137635003
0.5439474977263814
0.6011674682351487
0.735570214666941
0.5228301080137755
0.46798801648455796
0.48134549381362773
0.9377571907500071
0.6251683838781024
0.7060106810446379
0.4575872493929216
0.730298949346729
0.4738772034283696
0.4239628193647538
0.3616320656355842
0.7243995448396753
0.5377730023845992
0.5231593970620042
0.8408545858154115
0.5358895661182537
0.5401390308160187
0.938457679113426
0.6926590710875749
0.40714121124086194
0.5591913428582881
0.7678598620570958
0.7424123653758519
0.8237299350605062
0.382359329574392
0.6478119174893794
0.3719511728883734
0.4490700729434982
0.5359280493928087
0.5570755095152378
0.3276362365982203
0.4860568701403925
0.5876957411577951
0.5454288912244489
0.4380620465925215
0.7812628952734021
0.5495152889816519
0.4234037882256658
0.5570866556526898
0.5769211967197595
0.6494279786679313
0.49499181389404273
0.4499443953469771
0.4217396578090368
0.6831519715639218
0.5303484230562735
0.4364834144506196
0.4887300379702203
0.6207766310037521
0.5639104211709222
0.4368979974409401
0.47030791357763985
0.5558323750426042
0.4968912136590157
0.5109324586604086
0.5004415134973256
0.4280934002773802
0.4418313335736417
0.6918095160166756
0.9045324090412953
0.5761418018278548
0.610048747819018
0.6014738203272433
0.5152540912240152
0.935975603811815
0.6523416859644942
0.5385850988327583
0.5358975580257066
0.4871244558711937
0.5321949920464859
0.5244069964067425
0.4844223631804832
0.44819801482295496
0.5002113500615484
0.4656576577075643
0.5259867450484996
0.8214732248114456
0.5096205698183872
0.404179110369091
0.5306872652335098
0.7460548450621333
0.48111056504130323
0.5392393655784723
0.5563696785968151
0.24672288089197206
0.5060837137184526
0.46856523304500336
0.23496857948357391
0.2246884810438845
0.1437524932444357
0.37760087097515777
0.41249877519660827
0.574215570293024
0.5523782449733529
0.706706760039788
0.5333564597534842
0.3963933734394523
0.4831818454593888
0.8941907686404752
0.5617072932652163
0.4923835378184059
0.5888445693802626
0.4527981915012684
0.3874297504149401
0.6236355634558157
0.35521078797540095
0.5074719131142351
0.4863719167332791
0.5223864752558753
0.7215379549935046
0.4499615120856375
0.5542273003037973
0.4260219273825467
0.5511188865217407
0.6070822489325648
0.6788071212340488
0.7897058711176222
0.7348978573121865
0.3986011691727862
0.5069606875149005
0.3007376876215293
0.6490119228271692
0.5425049993377631
0.3342639036536767
0.5126415451763494
0.4213548878685978
0.6263843926466164
0.5078792762503297
0.408422216028548
0.3579630550691448
0.3755945584143078
0.6667296145436297
0.5291486684265428
0.3090994425761214
0.5520942656644845
0.931159616295082
0.5675996334539168
0.37145946228781845
0.41746412649084735
0.41080075856255394
0.8677081013008398
0.4767149588436953
0.475540422372059
0.6807159463074307
0.6008023448266911
0.557081885015455
0.4492609773832924
0.5353852773598435
0.8905270528476324
0.4797070300983787
0.6564972549246934
0.2749144827169175
0.8130170397981471
0.3497911733703682
0.46777323944793464
0.3973003732167964
0.44721331158859123
0.5604187074216603
0.2079246058434804
0.381887124263621
0.9168169669233345
0.6812871938844058
0.4701935327327074
0.673955140438639
0.4462359945205473
0.7200669856180958
0.389624296364825
0.12411033364701861
0.5043692090793043
0.5187001629001141
0.8344442465928611
0.7427990869019493
0.5403908117004846
0.6902837294084799
0.9260877346811149
0.435627985627007
0.6203725578573416
0.48127990948378985
0.32173992658731965
0.9191534139856771
0.5304871176063868
0.8213233299206825
CELL_DATA 4886
TENSORS stress float
-1.0381694204177713e7 7.441418205136511e6 0.0
7.441418205136511e6 3.431792998549283e7 0.0
0.0 0.0 0.0

-2.03375007236009e7 1.2016667326929368e7 0.0
1.2016667326929368e7 8.398507416150544e6 0.0
0.0 0.0 0.0

-9.413587426126149e6 2.3393428202350672e7 0.0
2.3393428202350672e7 -8.178781630113405e6 0.0
0.0 0.0 0.0

-3.656324102258211e6 2.22415080388035e7 0.0
2.22415080388035e7 1.3252684985249486e7 0.0
0.0 0.0 0.0

-2.012299834889624e6 2.5655494090300687e7 0.0
2.5655494090300687e7 -1.2296841528434935e6 0.0
0.0 0.0 0.0

1.6520019622653003e6 2.811070743337469e6 0.0
2.811070743337469e6 -4.342313066486934e6 0.0
0.0 0.0 0.0

5.76548403700025e7 2.7330627395950783e7 0.0
2.7330627395950783e7 1.477600785448797e7 0.0
0.0 0.0 0.0

2.6845731125021335e6 3.031126824470924e6 0.0
3.031126824470924e6 -4.566066998550505e7 0.0
0.0 0.0 0.0

-1.0088793037862483e7 9.295801369785143e6 0.0
9.295801369785143e6 3.572407341863346e7 0.0
0.0 0.0 0.0

1.2947174185884213e6 1.9380828282678887e7 0.0
1.9380828282678887e7 2.1038340310111117e7 0.0
0.0 0.0 0.0

-950762.0934537058 2.0825589245130077e7 0.0
2.0825589245130077e7 -7.953846816048783e6 0.0
0.0 0.0 0.0

-367723.68872867414 3.094374938021242e7 0.0
3.094374938021242e7 -1.0644745452966846e6 0.0
0.0 0.0 0.0

1.3710519445833322e6 9.413279496721389e6 0.0
9.413279496721389e6 -4.1850940134011015e7 0.0
0.0 0.0 0.0

8.269204339870611e7 3.0437399594248928e7 0.0
3.0437399594248928e7 1.6157288638056427e7 0.0
0.0 0.0 0.0

-697084.7361471714 2.1467640684772234e7 0.0
2.1467640684772234e7 -7.9435775991028305e6 0.0
0.0 0.0 0.0

3.4636592109339936e6 4.0004594694957007e6 0.0
4.0004594694957007e6 -1.6655532537743373e7 0.0
0.0 0.0 0.0

-3.2986350813592975e6 1.7584787909637548e7 0.0
1.7584787909637548e7 -2.1696444037418224e7 0.0
0.0 0.0 0.0

154953.86240965687 1.4081776703678109e7 0.0
1.4081776703678109e7 -2.893793984594909e7 0.0
0.0 0.0 0.0

-9.30310038119498e6 -2.157498206575847e6 0.0
-2.157498206575847e6 2.7338605049121797e7 0.0
0.0 0.0 0.0

-243593.397018441 2.404741156516536e7 0.0
2.404741156516536e7 -7.186495848203219e6 0.0
0.0 0.0 0.0

2.292216881977995e6 1.1394063136934556e7 0.0
1.1394063136934556e7 -2.0743312669067625e7 0.0
0.0 0.0 0.0

838882.320151322 3.0619857951983254e7 0.0
3.0619857951983254e7 -1.0506471298170309e6 0.0
0.0 0.0 0.0

-1.0601763885524014e7 7.829164184004061e6 0.0
7.829164184004061e6 1.84700473810429e7 0.0
0.0 0.0 0.0

-1.4215081112123819e7 2.3930924543564834e7 0.0
2.3930924543564834e7 -275340.49074439146 0.0
0.0 0.0 0.0

-233458.3268481437 1.2474028838334063e7 0.0
1.2474028838334063e7 -3.771448903851576e7 0.0
0.0 0.0 0.0

2.3317767902276266e7 4.201005976114426e7 0.0
4.201005976114426e7 -9.961312568210946e6 0.0
0.0 0.0 0.0

3.8653655627677046e7 2.204129946086031e7 0.0
2.204129946086031e7 8.286602079582471e6 0.0
0.0 0.0 0.0

-9.533540902913518e6 1.6660133767678363e7 0.0
1.6660133767678363e7 2.53613400423674e7 0.0
0.0 0.0 0.0

3.5907172343981816e6 4.027096319429926e6 0.0
4.027096319429926e6 -1.7023437238304608e7 0.0
0.0 0.0 0.0

-7.395225552854032e6 -3.2516714402453387e6 0.0
-3.2516714402453387e6 1.4129125642221991e7 0.0
0.0 0.0 0.0

-1.1493934624719232e7 9.524871635520775e6 0.0
9.524871635520775e6 1.6389451835435627e7 0.0
0.0 0.0 0.0

1.4294417313926523e6 8.814017761864113e6 0.0
8.814017761864113e6 -8.755375738652818e6 0.0
0.0 0.0 0.0

1.712350342879889e6 2.1015489454178154e7 0.0
2.1015489454178154e7 8.82375396387981e6 0.0
0.0 0.0 0.0

-13220.653797970663 1.8739819424048502e7 0.0
1.8739819424048502e7 235441.32828460794 0.0
0.0 0.0 0.0

-3.216840500878942e6 2.316153890354963e7 0.0
2.316153890354963e7 4.967053368887273e6 0.0
0.0 0.0 0.0

-1.1323244138892721e7 6.49000467258499e6 0.0
6.49000467258499e6 1.5269417988913618e7 0.0
0.0 0.0 0.0

105472.27573845908 1.2559658663547976e7 0.0
1.2559658663547976e7 -7.637944890157178e6 0.0
0.0 0.0 0.0

-2.6749771872179382e6 2.287676496771704e7 0.0
2.287676496771704e7 5.457264755088033e6 0.0
0.0 0.0 0.0

-4.317045237800453e6 1.552023468170738e7 0.0
1.552023468170738e7 -3.902563323631757e7 0.0
0.0 0.0 0.0

-2.648440919771574e6 2.7648500318595354e7 0.0
2.7648500318595354e7 1.6297420782832243e6 0.0
0.0 0.0 0.0

447516.9904874638 9.557188790543009e6 0.0
9.557188790543009e6 -4.566904982164042e7 0.0
0.0 0.0 0.0

-1.195257549582837e7 2.5016046032877594e7 0.0
2.5016046032877594e7 -9.370442485133965e6 0.0
0.0 0.0 0.0

-2.6335674649915835e6 2.6955944666125886e7 0.0
2.6955944666125886e7 1.4813759024013404e6 0.0
0.0 0.0 0.0

-1.123722338555259e7 4.562901119482073e6 0.0
4.562901119482073e6 2.5013610701791637e7 0.0
0.0 0.0 0.0

1.7702685577819739e6 1.1297021695344962e7 0.0
1.1297021695344962e7 -2.269047990630106e7 0.0
0.0 0.0 0.0

-8.028874050177814e6 1.781001098407147e7 0.0
1.781001098407147e7 2.4109849401279014e7 0.0
0.0 0.0 0.0

614053.6605906426 2.057679659977998e7 0.0
2.057679659977998e7 -1.2425380171621244e7 0.0
0.0 0.0 0.0

-613191.6039631092 1.2095648407056706e7 0.0
1.2095648407056706e7 -8.417278106663521e6 0.0
0.0 0.0 0.0

3.1415998722012527e6 3.104025108016928e6 0.0
3.104025108016928e6 -3.7825123087840736e7 0.0
0.0 0.0 0.0

4.715175796033529e6 1.699367188782636e7 0.0
1.699367188782636e7 1.5717252779203296e7 0.0
0.0 0.0 0.0

-1.1497072355090168e6 2.675553563699346e7 0.0
2.675553563699346e7 -419508.05842563504 0.0
0.0 0.0 0.0

-1.4959399366268257e7 9.870454316117726e6 0.0
9.870454316117726e6 7.610931863698057e6 0.0
0.0 0.0 0.0

3.1780204796766117e6 3.1439831994654085e6 0.0
3.1439831994654085e6 -3.921891636784553e7 0.0
0.0 0.0 0.0

-1.8753686099928347e6 2.4888284112610996e7 0.0
2.4888284112610996e7 883675.7934922923 0.0
0.0 0.0 0.0

4.932572576108869e6 1.7234512953161903e7 0.0
1.7234512953161903e7 1.902232560140832e7 0.0
0.0 0.0 0.0

-7.897316308320773e6 2.4921451206312694e7 0.0
2.4921451206312694e7 5.979218072052093e6 0.0
0.0 0.0 0.0

2.301236629207831e6 3.7066717078624805e6 0.0
3.7066717078624805e6 -5.005428970565077e7 0.0
0.0 0.0 0.0

-2.0486372511562398e6 2.7856813416868564e7 0.0
2.7856813416868564e7 1.6867174174413395e6 0.0
0.0 0.0 0.0

4.405002801092544e6 1.8754811790743966e7 0.0
1.8754811790743966e7 3.713123126827173e7 0.0
0.0 0.0 0.0

2.4950982999712843e6 1.030152693190658e7 0.0
1.030152693190658e7 -2.502044662185272e7 0.0
0.0 0.0 0.0

-2.2177587599003343e6 1.6774219103398396e7 0.0
1.6774219103398396e7 -1.0992790628132248e7 0.0
0.0 0.0 0.0

2.811936945812349e7 2.4192159434956625e7 0.0
2.4192159434956625e7 -4322.040565423667 0.0
0.0 0.0 0.0

-4.025068579842922e6 1.9671368075017866e7 0.0
1.9671368075017866e7 -1.307626389574353e7 0.0
0.0 0.0 0.0

-8.887814554269087e6 -344835.0725192924 0.0
-344835.0725192924 1.470494106793344e7 0.0
0.0 0.0 0.0

159577.98514022748 6.347714383719143e6 0.0
6.347714383719143e6 -1.76633963315867e6 0.0
0.0 0.0 0.0

2.905249088273937e6 4.403793914944582e6 0.0
4.403793914944582e6 -3.6911902634815685e7 0.0
0.0 0.0 0.0

1.991612447512757e6 8.188066769488445e6 0.0
8.188066769488445e6 -4.157157224943909e7 0.0
0.0 0.0 0.0

-2.5500797091390206e6 2.4472264814723577e7 0.0
2.4472264814723577e7 165511.19974922854 0.0
0.0 0.0 0.0

1.5540972863906445e6 1.8701206144071605e7 0.0
1.8701206144071605e7 3.058446351944326e7 0.0
0.0 0.0 0.0

2.062623807994757e7 1.766506091196034e7 0.0
1.766506091196034e7 4.39488627229209e6 0.0
0.0 0.0 0.0

-1.2158976829908732e7 6.288759782731048e6 0.0
6.288759782731048e6 2.2559176788314536e7 0.0
0.0 0.0 0.0

579855.933667969 1.2522659929138066e7 0.0
1.2522659929138066e7 -3.490367183387267e7 0.0
0.0 0.0 0.0

-3.994905168679678e6 1.6480580390692059e7 0.0
1.6480580390692059e7 -3.598139041739027e7 0.0
0.0 0.0 0.0

6.108725257209513e6 1.8357514862315003e7 0.0
1.8357514862315003e7 5.090024241698605e7 0.0
0.0 0.0 0.0

-3.521764916676902e6 2.23668291307554e7 0.0
2.23668291307554e7 1.258095384923865e7 0.0
0.0 0.0 0.0

-8.216066117357092e6 1.8002075668095056e7 0.0
1.8002075668095056e7 2.3701078906020798e7 0.0
0.0 0.0 0.0

-2.6956548282073187e6 1.3730701167989647e7 0.0
1.3730701167989647e7 1.015477140045286e7 0.0
0.0 0.0 0.0

-2.4978843616533587e6 1.72949094239628e7 0.0
1.72949094239628e7 -2.1306632304025717e7 0.0
0.0 0.0 0.0

-753525.1689556907 1.8478758376825903e7 0.0
1.8478758376825903e7 -1.1384745383264719e7 0.0
0.0 0.0 0.0

982165.5554470886 1.409203174808867e7 0.0
1.409203174808867e7 -1.836559043499025e7 0.0
0.0 0.0 0.0

2.2108247606685136e7 2.590997378870616e7 0.0
2.590997378870616e7 -4.1658215855229814e6 0.0
0.0 0.0 0.0

-9.42131652203325e6 -1.6242351629266748e6 0.0
-1.6242351629266748e6 3.2095596508782927e7 0.0
0.0 0.0 0.0

1.386883832406365e6 1.9065063882531144e7 0.0
1.9065063882531144e7 -2.1906358802847546e6 0.0
0.0 0.0 0.0

938974.3366823136 3.2013500635103222e7 0.0
3.2013500635103222e7 -1.8574488522902215e6 0.0
0.0 0.0 0.0

-3.8940805191083355e6 2.232964420578809e7 0.0
2.232964420578809e7 1.3351312613074323e7 0.0
0.0 0.0 0.0

3.6641352411184963e6 3.528849042950634e6 0.0
3.528849042950634e6 -2.348848843606996e7 0.0
0.0 0.0 0.0

952003.632130384 7.917031087158268e6 0.0
7.917031087158268e6 -9.869477277863536e6 0.0
0.0 0.0 0.0

1.5256232024623915e6 1.9925846417402133e7 0.0
1.9925846417402133e7 8.057378111151033e6 0.0
0.0 0.0 0.0

1.9051466436942883e7 4.3520913047013946e7 0.0
4.3520913047013946e7 -1.2325092765516184e7 0.0
0.0 0.0 0.0

-8.85041714670924e6 8.430537122243293e6 0.0
8.430537122243293e6 4.337028149600695e7 0.0
0.0 0.0 0.0

1.3689804390416085e6 2.0596943716933936e7 0.0
2.0596943716933936e7 -7.248829786027156e6 0.0
0.0 0.0 0.0

-1.74883129357728e6 1.8865702518451367e7 0.0
1.8865702518451367e7 -1.3983077189793918e7 0.0
0.0 0.0 0.0

-545663.828814104 1.1027029257232578e7 0.0
1.1027029257232578e7 -7.185775785054921e6 0.0
0.0 0.0 0.0

-819333.3163013788 5.341041892802581e6 0.0
5.341041892802581e6 -3.2031243987250715e6 0.0
0.0 0.0 0.0

4.828977846457284e6 2.146320426582205e7 0.0
2.146320426582205e7 -4.4117954047967065e6 0.0
0.0 0.0 0.0

-3.5665423653855287e6 1.7128476033230614e7 0.0
1.7128476033230614e7 -2.9222379676795535e7 0.0
0.0 0.0 0.0

2.633916790555466e6 3.0318310868399995e6 0.0
3.0318310868399995e6 -4.543335471170356e7 0.0
0.0 0.0 0.0

-4.0036471934123063e6 2.2815042389616936e7 0.0
2.2815042389616936e7 1.136281019804987e7 0.0
0.0 0.0 0.0

2.0866951539752558e6 9.016867221869681e6 0.0
9.016867221869681e6 -3.3037634307259247e7 0.0
0.0 0.0 0.0

2.2864756523315236e6 3.695641275080303e6 0.0
3.695641275080303e6 -5.079725846164262e7 0.0
0.0 0.0 0.0

-3.2266706639511697e6 2.1045904540033136e7 0.0
2.1045904540033136e7 1.422395028223626e7 0.0
0.0 0.0 0.0

-5.213839200640691e6 1.8437110738472667e7 0.0
1.8437110738472667e7 -1.681715248756431e7 0.0
0.0 0.0 0.0

-1.12444792422743e7 8.120457102772315e6 0.0
8.120457102772315e6 2.026937854746943e7 0.0
0.0 0.0 0.0

-1.7425915684001914e6 2.6249546211011607e7 0.0
2.6249546211011607e7 1.0469342419419605e6 0.0
0.0 0.0 0.0

-182801.8568848765 1.1210753834304152e7 0.0
1.1210753834304152e7 -5.182780883680731e6 0.0
0.0 0.0 0.0

-5.567375252796157e6 1.3923315256742805e7 0.0
1.3923315256742805e7 1.1948071594945677e7 0.0
0.0 0.0 0.0

-9.201516144126292e6 -1.4435414944700003e6 0.0
-1.4435414944700003e6 3.244620745420413e7 0.0
0.0 0.0 0.0

1.4242024492540983e6 1.431218147691459e7 0.0
1.431218147691459e7 -1.713825263902534e7 0.0
0.0 0.0 0.0

237401.9940801905 3.027413548549676e7 0.0
3.027413548549676e7 -1.2476497431671964e6 0.0
0.0 0.0 0.0

-9.416308152889743e6 7.340381174079924e6 0.0
7.340381174079924e6 1.6496963873309506e7 0.0
0.0 0.0 0.0

921365.3776433524 8.330426539612627e6 0.0
8.330426539612627e6 -4.5119786581393406e7 0.0
0.0 0.0 0.0

-2.349665400793655e6 1.2005133868405437e7 0.0
1.2005133868405437e7 -3.3978296846104614e6 0.0
0.0 0.0 0.0

8.896970016124224e6 2.234255423519773e7 0.0
2.234255423519773e7 1.1544171781291485e7 0.0
0.0 0.0 0.0

3.934149038804778e7 2.2921378455600455e7 0.0
2.2921378455600455e7 7.896675057178421e6 0.0
0.0 0.0 0.0

3.3782193536678283e6 6.153802852060402e6 0.0
6.153802852060402e6 -2.1484934117098685e7 0.0
0.0 0.0 0.0

-5.40038732321922e6 1.7052343071978167e7 0.0
1.7052343071978167e7 -3.664582092915776e7 0.0
0.0 0.0 0.0

3.16271456358644e6 6.108491403029507e6 0.0
6.108491403029507e6 -2.262510317739707e7 0.0
0.0 0.0 0.0

3.8716193048054446e6 3.5557508726014467e6 0.0
3.5557508726014467e6 -2.4361294465791367e7 0.0
0.0 0.0 0.0

3.2818243170222353e7 1.4667886554114334e7 0.0
1.4667886554114334e7 1.4213233073295075e6 0.0
0.0 0.0 0.0

-1.0398522485947521e7 3.6485952510308035e7 0.0
3.6485952510308035e7 3.325851693382268e6 0.0
0.0 0.0 0.0

-3.253150347191902e6 1.5738148158032734e7 0.0
1.5738148158032734e7 -3.309536954690912e7 0.0
0.0 0.0 0.0

-1.0970824186384698e7 2.324316365383187e7 0.0
2.324316365383187e7 -3.1051394198222067e6 0.0
0.0 0.0 0.0

3.7547219309609886e6 3.468030677641644e6 0.0
3.468030677641644e6 -3.166654105160632e7 0.0
0.0 0.0 0.0

-8.243155298961714e6 2.472329498925658e7 0.0
2.472329498925658e7 6.668742127985278e6 0.0
0.0 0.0 0.0

8.754127229428802e6 3.0682882588375002e7 0.0
3.0682882588375002e7 -5.073928666399619e6 0.0
0.0 0.0 0.0

-1.0537181402011119e7 1.0559684859309483e7 0.0
1.0559684859309483e7 3.2833475640045505e7 0.0
0.0 0.0 0.0

1.2866942198483158e7 4.234494047603917e7 0.0
4.234494047603917e7 -7.744639898857399e6 0.0
0.0 0.0 0.0

-748009.7990340975 1.967884926216487e7 0.0
1.967884926216487e7 -740929.6777518445 0.0
0.0 0.0 0.0

3.0132274249570034e6 3.014060746170815e6 0.0
3.014060746170815e6 -4.023784825939891e7 0.0
0.0 0.0 0.0

2.8869866350597955e7 1.9483408057590347e7 0.0
1.9483408057590347e7 5.510871772455311e6 0.0
0.0 0.0 0.0

-2.7877588551856503e6 2.057769050204385e7 0.0
2.057769050204385e7 1.4473360103891816e7 0.0
0.0 0.0 0.0

2.3814276513451952e6 6.268929398094954e6 0.0
6.268929398094954e6 -3.631948387146351e7 0.0
0.0 0.0 0.0

639206.876116645 2.4531132507949237e7 0.0
2.4531132507949237e7 -6.391414468844581e6 0.0
0.0 0.0 0.0

1.3332438549716542e6 1.9884937946273077e7 0.0
1.9884937946273077e7 -8.127365045019948e6 0.0
0.0 0.0 0.0

-3.5162120209331405e6 1.8465370192830645e7 0.0
1.8465370192830645e7 -1.3443653786160527e7 0.0
0.0 0.0 0.0

-784045.9702733206 1.932088673725816e7 0.0
1.932088673725816e7 -1.0002208963046946e7 0.0
0.0 0.0 0.0

1.1729995933698522e7 2.28653074813147e7 0.0
2.28653074813147e7 1.1597752420204312e7 0.0
0.0 0.0 0.0

466910.80318334326 6.7579069670675015e6 0.0
6.7579069670675015e6 -6.303580045604719e7 0.0
0.0 0.0 0.0

-4.792038309156216e6 2.358271160460239e7 0.0
2.358271160460239e7 1.09851600436823e7 0.0
0.0 0.0 0.0

1.1871097127056362e6 4.489079553941974e6 0.0
4.489079553941974e6 -3.7994658776512514e6 0.0
0.0 0.0 0.0

-9.973591606480561e6 1.525363467024217e7 0.0
1.525363467024217e7 2.604702733687885e7 0.0
0.0 0.0 0.0

4.020452327190254e6 4.0254007345246053e6 0.0
4.0254007345246053e6 -2.128109953419287e7 0.0
0.0 0.0 0.0

-8.459571044070661e6 -1.9385641139803608e6 0.0
-1.9385641139803608e6 3.8724728080213234e7 0.0
0.0 0.0 0.0

1.3515986547475802e6 1.5143098810195716e7 0.0
1.5143098810195716e7 -2.078189802788401e7 0.0
0.0 0.0 0.0

953614.6924218147 2.500701788190159e6 0.0
2.500701788190159e6 -3.8709920704064285e6 0.0
0.0 0.0 0.0

3.997202539439963e6 1.791731382479992e7 0.0
1.791731382479992e7 1.827954785091066e7 0.0
0.0 0.0 0.0

-2.622750773989329e6 2.723563149440823e7 0.0
2.723563149440823e7 3.6417704079039693e6 0.0
0.0 0.0 0.0

-9.26818171036879e6 -593930.8658626113 0.0
-593930.8658626113 3.69157557503958e7 0.0
0.0 0.0 0.0

-1.6009549653161569e6 2.0185935717789732e7 0.0
2.0185935717789732e7 8.557202719435154e6 0.0
0.0 0.0 0.0

5.204524420520383e6 2.275123849317907e7 0.0
2.275123849317907e7 -5.383649502900724e6 0.0
0.0 0.0 0.0

-2.606820901802236e6 2.3678296221185934e7 0.0
2.3678296221185934e7 -65329.45090226072 0.0
0.0 0.0 0.0

-4.5911037768508885e6 2.1355121373914868e7 0.0
2.1355121373914868e7 -9.898698816746172e6 0.0
0.0 0.0 0.0

-2.0971656942044483e6 2.382929215456688e7 0.0
2.382929215456688e7 1.5474848581186642e6 0.0
0.0 0.0 0.0

-5.801426555146381e6 1.6905105364816666e7 0.0
1.6905105364816666e7 -2.0072625285415947e7 0.0
0.0 0.0 0.0

1.855483395334015e7 2.5218652818098653e7 0.0
2.5218652818098653e7 -4.510159104577759e6 0.0
0.0 0.0 0.0

-1.7021060375612653e6 1.7866670180535827e7 0.0
1.7866670180535827e7 -1.5167052516540216e7 0.0
0.0 0.0 0.0

-4.159723446495964e6 1.9554429217303544e7 0.0
1.9554429217303544e7 2.3484637754318498e7 0.0
0.0 0.0 0.0

4.550155265553972e6 2.1160399282516774e7 0.0
2.1160399282516774e7 1.408496166930788e7 0.0
0.0 0.0 0.0

2.170874351329281e6 1.043870564734828e7 0.0
1.043870564734828e7 -2.419514082874402e7 0.0
0.0 0.0 0.0

-6.795630652195752e6 1.3114154176574519e7 0.0
1.3114154176574519e7 1.0948258996036822e7 0.0
0.0 0.0 0.0

-2.9900636191008906e6 3.1373723517445877e7 0.0
3.1373723517445877e7 1.2959364409636813e6 0.0
0.0 0.0 0.0

-5.562693949520247e6 1.967709690440997e7 0.0
1.967709690440997e7 1.6676997956595777e7 0.0
0.0 0.0 0.0

3.2517434338163245e6 3.310814122428351e7 0.0
3.310814122428351e7 -1.6439727770705083e6 0.0
0.0 0.0 0.0

851036.0351016633 1.48192423385692e7 0.0
1.48192423385692e7 -2.2119906964013994e7 0.0
0.0 0.0 0.0

-2.2113927466596246e7 2.6791611981086634e7 0.0
2.6791611981086634e7 -8.861176469964921e6 0.0
0.0 0.0 0.0

2.9087949203562215e6 4.64335134469608e6 0.0
4.64335134469608e6 -4.473647251648509e7 0.0
0.0 0.0 0.0

1.1923352346951317e7 3.3155839049264885e7 0.0
3.3155839049264885e7 -4.937443821135241e6 0.0
0.0 0.0 0.0

-1.8865120803306524e7 3.1658071222543e7 0.0
3.1658071222543e7 6.783112072315083e6 0.0
0.0 0.0 0.0

951765.6923804702 1.917162260362062e7 0.0
1.917162260362062e7 1.928406006116362e7 0.0
0.0 0.0 0.0

-3.552877395946027e7 3.1917035087508246e7 0.0
3.1917035087508246e7 6.467657657505859e6 0.0
0.0 0.0 0.0

3.2060545386312883e6 3.062202043682789e6 0.0
3.062202043682789e6 -4.1444127576631136e7 0.0
0.0 0.0 0.0

-5.1320381591357365e6 1.9499393078645233e7 0.0
1.9499393078645233e7 1.796645646964301e7 0.0
0.0 0.0 0.0

-1.0195331064876566e7 7.131545408955543e6 0.0
7.131545408955543e6 1.3686350638202472e7 0.0
0.0 0.0 0.0

3.6957294268849716e6 3.164753111587727e6 0.0
3.164753111587727e6 -2.2451822479551718e7 0.0
0.0 0.0 0.0

592119.7331518582 1.98465979794643e7 0.0
1.98465979794643e7 -9.899917209986353e6 0.0
0.0 0.0 0.0

-6.701476629032868e6 3.788068304497236e7 0.0
3.788068304497236e7 4.543821445328234e6 0.0
0.0 0.0 0.0

-1.3152440011102958e7 1.7405095987450745e7 0.0
1.7405095987450745e7 6.585842175776331e6 0.0
0.0 0.0 0.0

-3.5082000539416775e7 2.722933879714486e7 0.0
2.722933879714486e7 707333.1115218326 0.0
0.0 0.0 0.0

4.135912086876217e7 2.2591331067076486e7 0.0
2.2591331067076486e7 1.5253712828969058e7 0.0
0.0 0.0 0.0

-7.395816283609685e6 1.6114803786337242e7 0.0
1.6114803786337242e7 -8.085907473462442e7 0.0
0.0 0.0 0.0

-277720.88139291387 1.8773453061364558e7 0.0
1.8773453061364558e7 -1.2595037329188602e7 0.0
0.0 0.0 0.0

-3.855424078757135e6 1.9065840077005554e7 0.0
1.9065840077005554e7 2.3515564252376467e7 0.0
0.0 0.0 0.0

821956.7391815153 2.2535012941565428e7 0.0
2.2535012941565428e7 -9.541892130630746e6 0.0
0.0 0.0 0.0

-1.2776063187203545e6 2.605517502015347e7 0.0
2.605517502015347e7 -573624.5546220494 0.0
0.0 0.0 0.0

2.7903554838736365e6 1.6756848596976925e7 0.0
1.6756848596976925e7 1.0579124288211694e7 0.0
0.0 0.0 0.0

2.6848004543138e6 3.235588103326591e7 0.0
3.235588103326591e7 -1.596603859166458e6 0.0
0.0 0.0 0.0

-1.0648906937628787e7 7.780654990969814e6 0.0
7.780654990969814e6 1.6701057041900253e7 0.0
0.0 0.0 0.0

5.512832542372276e7 3.3782173153349794e7 0.0
3.3782173153349794e7 2.2193458168313507e7 0.0
0.0 0.0 0.0

1.2578738166557197e6 2.5906571448732834e7 0.0
2.5906571448732834e7 -6.105388116813835e6 0.0
0.0 0.0 0.0

3.8101331772596464e6 1.6038923074188402e7 0.0
1.6038923074188402e7 1.4533643935835399e7 0.0
0.0 0.0 0.0

-1.1157894189188233e7 2.4861219940587796e7 0.0
2.4861219940587796e7 2.047939074500003e6 0.0
0.0 0.0 0.0

122323.88478785753 1.8032733530961197e7 0.0
1.8032733530961197e7 1.6678421689357005e7 0.0
0.0 0.0 0.0

290202.65793249407 2.4480201824867915e7 0.0
2.4480201824867915e7 -5.971496495954646e6 0.0
0.0 0.0 0.0

2.508070671579227e6 8.009767871676427e6 0.0
8.009767871676427e6 -3.228618253232945e7 0.0
0.0 0.0 0.0

-3.0701272106647473e6 2.2126204264332194e7 0.0
2.2126204264332194e7 5.943442945461648e6 0.0
0.0 0.0 0.0

-6.125680762720104e6 2.2290614892892875e7 0.0
2.2290614892892875e7 3.819203899881513e6 0.0
0.0 0.0 0.0

1.3690435126725328e6 7.968883726911118e6 0.0
7.968883726911118e6 -1.194092779801554e7 0.0
0.0 0.0 0.0

-3.6032733930247203e6 2.2941613840063196e7 0.0
2.2941613840063196e7 1.1615853412690524e7 0.0
0.0 0.0 0.0

-8.31119620373502e6 5.770641344469947e6 0.0
5.770641344469947e6 4.713053979198571e7 0.0
0.0 0.0 0.0

-969530.9280009 1.1464665086547025e7 0.0
1.1464665086547025e7 -2.5452414704707675e6 0.0
0.0 0.0 0.0

-1.1053482280002568e7 2.3541757715434253e7 0.0
2.3541757715434253e7 -8.666824912879903e6 0.0
0.0 0.0 0.0

3.812937880637432e7 2.8289433279643584e7 0.0
2.8289433279643584e7 1.6463601844392166e7 0.0
0.0 0.0 0.0

533621.1824661586 1.4381574127225803e7 0.0
1.4381574127225803e7 -2.827501050902118e7 0.0
0.0 0.0 0.0

3.0575664164458644e6 6.306960442779921e6 0.0
6.306960442779921e6 -3.406703959229134e7 0.0
0.0 0.0 0.0

8.714935866037777e6 2.126602032714977e7 0.0
2.126602032714977e7 3.7950588374073207e6 0.0
0.0 0.0 0.0

-3.8859540033957195e6 1.1380484867016507e7 0.0
1.1380484867016507e7 1.5667274831978403e7 0.0
0.0 0.0 0.0

-1.656231621722437e6 2.5095645722833194e7 0.0
2.5095645722833194e7 -9685.87084921205 0.0
0.0 0.0 0.0

-1.2466868073536225e6 2.1599449458463453e7 0.0
2.1599449458463453e7 -7.454876553264619e6 0.0
0.0 0.0 0.0

-577306.3953946405 2.182272754230071e7 0.0
2.182272754230071e7 -9.246247813728657e6 0.0
0.0 0.0 0.0

-1.0209478350483757e6 1.894033700238701e7 0.0
1.894033700238701e7 -7.676683879553766e6 0.0
0.0 0.0 0.0

2.017818066423526e6 8.742000741132334e6 0.0
8.742000741132334e6 -1.0781551843644232e7 0.0
0.0 0.0 0.0

3.169983185481783e7 2.5608481448322996e7 0.0
2.5608481448322996e7 1.3534653487855148e7 0.0
0.0 0.0 0.0

2.449504877337213e6 1.749193184318083e7 0.0
1.749193184318083e7 9.491774265735885e6 0.0
0.0 0.0 0.0

-3.264902052238886e6 3.0719612999599762e7 0.0
3.0719612999599762e7 3.2514869510943294e6 0.0
0.0 0.0 0.0

-3.5947181610376835e7 2.1518089008065626e7 0.0
2.1518089008065626e7 6.998620534857864e6 0.0
0.0 0.0 0.0

3.914187138937558e6 3.733310688651777e6 0.0
3.733310688651777e6 -1.9941187558778115e7 0.0
0.0 0.0 0.0

537347.0372805959 1.9242500136310816e7 0.0
1.9242500136310816e7 6.661955954247804e6 0.0
0.0 0.0 0.0

-4.305227749425495e6 1.6170103860838912e7 0.0
1.6170103860838912e7 -1.917809739838853e7 0.0
0.0 0.0 0.0

-157059.52680383064 1.7139259243034642e7 0.0
1.7139259243034642e7 -2.0831237485993e7 0.0
0.0 0.0 0.0

-9.532276869890202e6 -2.902539433665344e6 0.0
-2.902539433665344e6 2.6261941822218075e7 0.0
0.0 0.0 0.0

1.1888625973811634e6 1.3544046712239927e7 0.0
1.3544046712239927e7 -1.9689146092723113e7 0.0
0.0 0.0 0.0

-9.621127725332249e6 1.7131222578028724e7 0.0
1.7131222578028724e7 -4.76887926688302e7 0.0
0.0 0.0 0.0

1.4043026609509354e6 1.2955231285207056e7 0.0
1.2955231285207056e7 -2.0790869044915516e7 0.0
0.0 0.0 0.0

1.6539045590171982e6 2.0454055270671666e7 0.0
2.0454055270671666e7 -9.16115358708083e6 0.0
0.0 0.0 0.0

3.039263589505481e7 2.1442810633665215e7 0.0
2.1442810633665215e7 7.0222071908127405e6 0.0
0.0 0.0 0.0

-8.1028192817844e6 1.4806372861337379e7 0.0
1.4806372861337379e7 3.391396470325134e7 0.0
0.0 0.0 0.0

-4.950519146605508e6 2.233505129175256e7 0.0
2.233505129175256e7 -1.0505594080769096e7 0.0
0.0 0.0 0.0

285579.5533018566 1.776369981920669e7 0.0
1.776369981920669e7 764366.5516090555 0.0
0.0 0.0 0.0

-5.992808229726285e6 2.0475933540236264e7 0.0
2.0475933540236264e7 -1.3353657574406255e7 0.0
0.0 0.0 0.0

3.0028283827626064e7 2.5970745582284473e7 0.0
2.5970745582284473e7 1.3231553185854003e7 0.0
0.0 0.0 0.0

-4.330716573258795e6 2.3007694183804624e7 0.0
2.3007694183804624e7 1.23174194750285e7 0.0
0.0 0.0 0.0

1.7797752258563347e6 2.0121390047372717e7 0.0
2.0121390047372717e7 -3.3553756276407763e6 0.0
0.0 0.0 0.0

-269173.9590996244 2.7798344257665195e7 0.0
2.7798344257665195e7 -1.53806831156509e6 0.0
0.0 0.0 0.0

-3.0162903545249766e6 2.2120927899655554e7 0.0
2.2120927899655554e7 6.782833099269127e6 0.0
0.0 0.0 0.0

-5.73134352957144e6 1.68752736520514e6 0.0
1.68752736520514e6 7.113899907297023e7 0.0
0.0 0.0 0.0

311266.57830647565 1.9968690966065828e7 0.0
1.9968690966065828e7 -1.3722023132267883e7 0.0
0.0 0.0 0.0

-2.0078819181522368e6 2.7268892146657195e7 0.0
2.7268892146657195e7 2.0155682787007596e6 0.0
0.0 0.0 0.0

-281765.29423852614 3.9387683627809244e6 0.0
3.9387683627809244e6 219830.9483698853 0.0
0.0 0.0 0.0

-8.938193710984265e6 1.6737331551697262e7 0.0
1.6737331551697262e7 2.5267435071590967e7 0.0
0.0 0.0 0.0

-3.732891025783979e6 1.7934320188583042e7 0.0
1.7934320188583042e7 -1.2220114947136763e7 0.0
0.0 0.0 0.0

3.41884729015813e6 3.7293296627781037e6 0.0
3.7293296627781037e6 -2.7669391348907538e7 0.0
0.0 0.0 0.0

-1.8398814887328804e6 3.1821737563666377e7 0.0
3.1821737563666377e7 1.984670151927316e6 0.0
0.0 0.0 0.0

1.7486897783925533e6 1.3803484869223997e7 0.0
1.3803484869223997e7 -1.799660599841637e7 0.0
0.0 0.0 0.0

-5.954362409138984e6 1.8986212659677476e7 0.0
1.8986212659677476e7 1.9630338184226893e7 0.0
0.0 0.0 0.0

1.6244931552188285e6 6.06727798128415e6 0.0
6.06727798128415e6 -5.830754618553968e7 0.0
0.0 0.0 0.0

-3.9760061836176794e6 3.0348329192451663e7 0.0
3.0348329192451663e7 2.78367541615449e6 0.0
0.0 0.0 0.0

-7.641811611844591e6 1.714192131963895e7 0.0
1.714192131963895e7 -2.829733398261012e7 0.0
0.0 0.0 0.0

3.5618890539573487e6 2.7866963596009393e6 0.0
2.7866963596009393e6 -1.3232016703305105e7 0.0
0.0 0.0 0.0

-561181.9294078544 1.0722152870371144e7 0.0
1.0722152870371144e7 -3.946790687234701e6 0.0
0.0 0.0 0.0

-1.5686982618700642e7 3.1771012989935663e7 0.0
3.1771012989935663e7 5.970520005914889e6 0.0
0.0 0.0 0.0

5.055730646815679e6 1.6114488731655737e7 0.0
1.6114488731655737e7 1.7106796738730147e7 0.0
0.0 0.0 0.0

-7.710176961646565e6 3.5746982220810786e7 0.0
3.5746982220810786e7 3.0181507406990174e6 0.0
0.0 0.0 0.0

-1.1195348776826508e7 6.089582510584894e6 0.0
6.089582510584894e6 2.584601420568564e7 0.0
0.0 0.0 0.0

306388.33584398404 9.093884184962975e6 0.0
9.093884184962975e6 -6.501616472057265e7 0.0
0.0 0.0 0.0

7.201223339958996e7 2.4257108124519773e7 0.0
2.4257108124519773e7 4.816596842512634e6 0.0
0.0 0.0 0.0

-1.5684833568474331e6 2.5819665675087277e7 0.0
2.5819665675087277e7 163835.12425515056 0.0
0.0 0.0 0.0

-5.144880419547306e6 2.6974763374866646e7 0.0
2.6974763374866646e7 6.51907321016942e6 0.0
0.0 0.0 0.0

-2.5026089696769863e6 2.4090349036047507e7 0.0
2.4090349036047507e7 4.4215321601769095e6 0.0
0.0 0.0 0.0

6.547115046490647e6 1.97474103330058e7 0.0
1.97474103330058e7 5.214165050767794e7 0.0
0.0 0.0 0.0

3.0617323993909247e6 3.992627835111495e6 0.0
3.992627835111495e6 -3.2442516666559078e7 0.0
0.0 0.0 0.0

276561.90223813197 1.3016322079773284e7 0.0
1.3016322079773284e7 -8.546150726699777e6 0.0
0.0 0.0 0.0

6.886739443372974e6 3.0619036144926153e7 0.0
3.0619036144926153e7 -4.581907586765425e6 0.0
0.0 0.0 0.0

934552.7260943446 1.0747548089292154e7 0.0
1.0747548089292154e7 -3.6799552024125114e7 0.0
0.0 0.0 0.0

-1.9539566193975028e7 1.9561259671448678e7 0.0
1.9561259671448678e7 6.155745687288796e6 0.0
0.0 0.0 0.0

-6.089842380676219e6 2.2561426097978417e7 0.0
2.2561426097978417e7 2.6061948465966024e6 0.0
0.0 0.0 0.0

422834.5079691366 1.807425664515937e7 0.0
1.807425664515937e7 3.9974232587062307e6 0.0
0.0 0.0 0.0

1.9089405045167804e6 1.3226897323763099e7 0.0
1.3226897323763099e7 -1.9177307415511765e7 0.0
0.0 0.0 0.0

2.3096003782434883e6 1.906233720227516e7 0.0
1.906233720227516e7 3.283602121889903e7 0.0
0.0 0.0 0.0

1.1532812786801258e7 3.0770309893809807e7 0.0
3.0770309893809807e7 -5.5702072971244715e6 0.0
0.0 0.0 0.0

-4.2399450068927795e7 3.4280095747615546e6 0.0
3.4280095747615546e6 6.80861148970614e6 0.0
0.0 0.0 0.0

4.124644212886867e7 4.087125016709472e7 0.0
4.087125016709472e7 -9.912629908741418e6 0.0
0.0 0.0 0.0

1.0905225254592452e7 3.1061987668985352e7 0.0
3.1061987668985352e7 -6.056629824167838e6 0.0
0.0 0.0 0.0

3.596686746371975e6 3.8146880427821577e6 0.0
3.8146880427821577e6 -1.922993813054142e7 0.0
0.0 0.0 0.0

-3.0060622565182354e6 2.7342563145942714e7 0.0
2.7342563145942714e7 2.2606160351154273e6 0.0
0.0 0.0 0.0

3.665870180701635e7 1.5021249248578617e7 0.0
1.5021249248578617e7 1.9043804153560512e6 0.0
0.0 0.0 0.0

-7.289759111109886e6 7.976073156681517e6 0.0
7.976073156681517e6 5.0825570752632715e7 0.0
0.0 0.0 0.0

298024.3196722735 2.0189516145773742e7 0.0
2.0189516145773742e7 -1.3269663351282282e7 0.0
0.0 0.0 0.0

2.3027316250213735e7 1.857756532630875e7 0.0
1.857756532630875e7 4.779696683376142e6 0.0
0.0 0.0 0.0

1.2186125313539044e6 2.0468170893562235e7 0.0
2.0468170893562235e7 -1.0734324732829832e7 0.0
0.0 0.0 0.0

3.2523986873551235e6 4.476620570089492e6 0.0
4.476620570089492e6 -3.48618008224061e7 0.0
0.0 0.0 0.0

-1.1471709988727104e6 2.5597941987469796e7 0.0
2.5597941987469796e7 -1.5024286298278682e6 0.0
0.0 0.0 0.0

-3.7254560387972547e6 1.6465618223935394e7 0.0
1.6465618223935394e7 -1.7447642508579947e7 0.0
0.0 0.0 0.0

1.6635603240967877e6 2.7337798939396583e7 0.0
2.7337798939396583e7 -4.910218125086836e6 0.0
0.0 0.0 0.0

-5.922837829545539e6 1.064692099680637e7 0.0
1.064692099680637e7 5.278939958785689e7 0.0
0.0 0.0 0.0

-862338.7133213752 1.809726901114998e7 0.0
1.809726901114998e7 -9.994828394508557e6 0.0
0.0 0.0 0.0

2.1374263038406875e6 1.0123513200500827e7 0.0
1.0123513200500827e7 -2.601900022676906e7 0.0
0.0 0.0 0.0

3.7066544989608726e6 2.2964747045906555e7 0.0
2.2964747045906555e7 -6.471026559683332e6 0.0
0.0 0.0 0.0

-2.6288595645644157e6 1.7661846895647395e7 0.0
1.7661846895647395e7 -9.155659980485884e6 0.0
0.0 0.0 0.0

-8.280434930646842e6 3.2226531857627966e6 0.0
3.2226531857627966e6 4.716458988008561e7 0.0
0.0 0.0 0.0

1.8343873712563403e6 1.9467443074480034e7 0.0
1.9467443074480034e7 2.049879464063567e7 0.0
0.0 0.0 0.0

740783.3285258524 1.0389113038166171e7 0.0
1.0389113038166171e7 -3.963623107717277e7 0.0
0.0 0.0 0.0

2.3607426864867103e6 2.7099188702856738e7 0.0
2.7099188702856738e7 -4.801136587665846e6 0.0
0.0 0.0 0.0

2.981208346306196e6 2.1420989702667966e7 0.0
2.1420989702667966e7 1.3583383941803448e7 0.0
0.0 0.0 0.0

2.8651281218356397e6 9.101225478239585e6 0.0
9.101225478239585e6 -2.543695348279706e7 0.0
0.0 0.0 0.0

5.4032540338972405e7 2.4737823376397345e7 0.0
2.4737823376397345e7 1.211143224340586e7 0.0
0.0 0.0 0.0

1.6378117883113388e6 2.652551924811045e7 0.0
2.652551924811045e7 -4.981019973513727e6 0.0
0.0 0.0 0.0

-9.435692468532572e6 -2.411824832621248e6 0.0
-2.411824832621248e6 2.937090572682747e7 0.0
0.0 0.0 0.0

-9.325564591965392e6 3.497978664439027e6 0.0
3.497978664439027e6 4.379953234098709e7 0.0
0.0 0.0 0.0

3.801880738664208e6 2.09551045744331e6 0.0
2.09551045744331e6 -2.9322277233146403e7 0.0
0.0 0.0 0.0

-3.092382788899253e6 2.3680378331950452e7 0.0
2.3680378331950452e7 3.869770551092807e6 0.0
0.0 0.0 0.0

-1.4116819656940256e6 1.8209570553741273e7 0.0
1.8209570553741273e7 -8.511718060971925e6 0.0
0.0 0.0 0.0

791967.3935898957 2.1971994933099285e7 0.0
2.1971994933099285e7 -1.0688937633665677e7 0.0
0.0 0.0 0.0

-9.90644733860469e6 -74297.69332700146 0.0
-74297.69332700146 2.260009237900538e7 0.0
0.0 0.0 0.0

-202573.74827087205 2.2261125875613265e7 0.0
2.2261125875613265e7 -7.808360517841345e6 0.0
0.0 0.0 0.0

-8.518259219088148e6 3.093051224015633e6 0.0
3.093051224015633e6 4.692260989789204e7 0.0
0.0 0.0 0.0

8.42343770629556e6 2.0113940748224933e7 0.0
2.0113940748224933e7 5.444469715196775e6 0.0
0.0 0.0 0.0

219834.0684451796 1.2461482993690351e7 0.0
1.2461482993690351e7 -3.779445662148314e7 0.0
0.0 0.0 0.0

1.3174434812346902e6 1.0364682877679035e7 0.0
1.0364682877679035e7 -3.980559344920747e7 0.0
0.0 0.0 0.0

-9.093271926897978e6 1.6387165282526098e7 0.0
1.6387165282526098e7 2.6531113601458117e7 0.0
0.0 0.0 0.0

-2.8328803516009534e6 1.9984266747437574e7 0.0
1.9984266747437574e7 4.734981900625654e6 0.0
0.0 0.0 0.0

687766.7378368904 4.707695811618688e6 0.0
4.707695811618688e6 -2.2029200125200627e6 0.0
0.0 0.0 0.0

-1.1084022804681705e6 1.899766425615792e7 0.0
1.899766425615792e7 -8.571942709720364e6 0.0
0.0 0.0 0.0

-3.3375632737632105e6 2.5925619533679392e7 0.0
2.5925619533679392e7 6.556436455726938e6 0.0
0.0 0.0 0.0

5.8521601699370155e6 1.9649439296944495e7 0.0
1.9649439296944495e7 4.091891553881015e7 0.0
0.0 0.0 0.0

1.2186575250571338e7 2.261513861541492e7 0.0
2.261513861541492e7 -2.453817348367084e6 0.0
0.0 0.0 0.0

-5.251039673328448e6 1.2878339096139944e6 0.0
1.2878339096139944e6 6.893440289452736e7 0.0
0.0 0.0 0.0

-8.298028501257954e6 1.0399207699537467e7 0.0
1.0399207699537467e7 4.163785100140764e7 0.0
0.0 0.0 0.0

-9.251649391561948e6 1.6158074949050996e7 0.0
1.6158074949050996e7 2.1987728217056554e7 0.0
0.0 0.0 0.0

1.8437178475650959e6 1.817354341506496e7 0.0
1.817354341506496e7 1.0276500520063324e7 0.0
0.0 0.0 0.0

-1.0320180105425188e7 3.7215512234049942e6 0.0
3.7215512234049942e6 1.6912474976805124e7 0.0
0.0 0.0 0.0

-1.0233820571321903e7 2.0956381348363318e7 0.0
2.0956381348363318e7 -5.744458452492496e6 0.0
0.0 0.0 0.0

3.580830554425005e6 4.927313118978185e6 0.0
4.927313118978185e6 -3.0912378296490487e7 0.0
0.0 0.0 0.0

-7.197674640650338e6 1.6908280482320253e7 0.0
1.6908280482320253e7 -4.034061996065427e7 0.0
0.0 0.0 0.0

1.5759462346119531e6 1.742315719856031e7 0.0
1.742315719856031e7 6.599565008355303e6 0.0
0.0 0.0 0.0

1.6300848191833101e7 2.7661320352901928e7 0.0
2.7661320352901928e7 -6.0849375239183465e6 0.0
0.0 0.0 0.0

1.6515418789161826e6 2.1043023519898236e7 0.0
2.1043023519898236e7 -8.237335855849662e6 0.0
0.0 0.0 0.0

-2.1946352894500434e7 2.5946676173928395e7 0.0
2.5946676173928395e7 -6.716991029592871e6 0.0
0.0 0.0 0.0

-1.5647878291858186e6 2.656693823513285e7 0.0
2.656693823513285e7 -1.6698485317227426e6 0.0
0.0 0.0 0.0

-1.4580078055262836e6 6.986557697414916e6 0.0
6.986557697414916e6 -2.773691839025461e6 0.0
0.0 0.0 0.0

-5.12996674313147e6 3.66503201831033e7 0.0
3.66503201831033e7 4.421517747821808e6 0.0
0.0 0.0 0.0

-2.6883465533903744e6 2.0458633594319813e7 0.0
2.0458633594319813e7 3.4845687016467187e6 0.0
0.0 0.0 0.0

-1.2135989586691607e7 8.084580980359524e6 0.0
8.084580980359524e6 1.726729844455077e7 0.0
0.0 0.0 0.0

-3.200765962173421e6 2.0407334663110588e7 0.0
2.0407334663110588e7 1.6529457307101334e6 0.0
0.0 0.0 0.0

-4.795635278123485e6 2.071660087649194e6 0.0
2.071660087649194e6 4.556922207609639e6 0.0
0.0 0.0 0.0

821033.1159434607 1.0170183338596534e7 0.0
1.0170183338596534e7 -1.6894132206767514e7 0.0
0.0 0.0 0.0

518609.9947554525 1.3061538261504754e7 0.0
1.3061538261504754e7 -3.2761873805230778e7 0.0
0.0 0.0 0.0

-9.504269058319017e6 2.2281064308841936e7 0.0
2.2281064308841936e7 -8.227003911962489e6 0.0
0.0 0.0 0.0

-4.0410967763693314e6 1.9617028802054442e7 0.0
1.9617028802054442e7 2.21665185605411e7 0.0
0.0 0.0 0.0

-1.0436772805500564e6 1.8090112453377925e7 0.0
1.8090112453377925e7 -6.151085256512899e6 0.0
0.0 0.0 0.0

3.2914056740125343e6 4.1814563725261777e6 0.0
4.1814563725261777e6 -1.3435709201867543e7 0.0
0.0 0.0 0.0

-1.1448074751308758e6 2.397707509415026e7 0.0
2.397707509415026e7 -5.1384047128479015e6 0.0
0.0 0.0 0.0

-653463.8235891387 2.7602229579420347e7 0.0
2.7602229579420347e7 -2.630179990313541e6 0.0
0.0 0.0 0.0

5.145367598671244e6 2.250952120087711e7 0.0
2.250952120087711e7 -5.754113176519343e6 0.0
0.0 0.0 0.0

-1.177736114587205e7 1.1242368121868974e7 0.0
1.1242368121868974e7 1.857191341387348e7 0.0
0.0 0.0 0.0

-2.0851842746874765e6 1.7397345560580127e7 0.0
1.7397345560580127e7 -1.9448037956246898e7 0.0
0.0 0.0 0.0

-5.562972216737543e6 3.175717379106972e7 0.0
3.175717379106972e7 3.1693000347746173e6 0.0
0.0 0.0 0.0

-4.677557282511913e6 3.1059226343444467e7 0.0
3.1059226343444467e7 2.9682276850439296e6 0.0
0.0 0.0 0.0

-2.5529265973135177e6 1.5622466162543379e7 0.0
1.5622466162543379e7 -3.045668198856993e7 0.0
0.0 0.0 0.0

-3.383947799494417e6 1.7536956277735043e7 0.0
1.7536956277735043e7 -1.1773390269764232e7 0.0
0.0 0.0 0.0

807813.8693428779 1.8161521998877194e7 0.0
1.8161521998877194e7 5.481999765099502e6 0.0
0.0 0.0 0.0

1.9887618098194972e6 9.622847657190595e6 0.0
9.622847657190595e6 -3.1363895259137392e7 0.0
0.0 0.0 0.0

-9.736831403158663e6 1.1664178253223518e7 0.0
1.1664178253223518e7 3.43032970721508e7 0.0
0.0 0.0 0.0

-1.5963378457138464e6 1.2348420269693661e7 0.0
1.2348420269693661e7 -6.750583901111189e7 0.0
0.0 0.0 0.0

9.367093224173633e6 3.41855378521772e7 0.0
3.41855378521772e7 -6.402981523302516e6 0.0
0.0 0.0 0.0

6.218117912233386e6 1.758642284022463e7 0.0
1.758642284022463e7 2.8152512456760235e7 0.0
0.0 0.0 0.0

3.681781083764578e6 1.861300797311081e7 0.0
1.861300797311081e7 3.686180902533107e7 0.0
0.0 0.0 0.0

2.2317055176261503e7 2.342476227375632e7 0.0
2.342476227375632e7 1.0913324748618271e7 0.0
0.0 0.0 0.0

-306699.37081047264 1.86116556760864e7 0.0
1.86116556760864e7 3.0172807471589576e6 0.0
0.0 0.0 0.0

-1.0527512202328886e6 2.358468667700836e7 0.0
2.358468667700836e7 -4.900172360258968e6 0.0
0.0 0.0 0.0

-2.883137593336552e7 2.638785599753892e7 0.0
2.638785599753892e7 -7.756016762353651e6 0.0
0.0 0.0 0.0

-281104.97487210133 1.7721509769611605e7 0.0
1.7721509769611605e7 1.0555181855667795e6 0.0
0.0 0.0 0.0

-3.6129216833271207e6 2.147545765958634e7 0.0
2.147545765958634e7 5.5553774378375895e6 0.0
0.0 0.0 0.0

3.9753060114460215e6 3.84500059725747e6 0.0
3.84500059725747e6 -2.562279740623312e7 0.0
0.0 0.0 0.0

-1.1413925555970399e7 2.2494926179906394e7 0.0
2.2494926179906394e7 -4.063001604528572e6 0.0
0.0 0.0 0.0

-1.3914761676942807e7 3.85073038465059e7 0.0
3.85073038465059e7 5.170255388385752e6 0.0
0.0 0.0 0.0

-1.0290574534053912e7 1.8121324759426832e6 0.0
1.8121324759426832e6 2.5545320841105673e7 0.0
0.0 0.0 0.0

1.1164872538441585e7 2.8596981907544512e7 0.0
2.8596981907544512e7 -5.33352049050997e6 0.0
0.0 0.0 0.0

-3.7421289477738924e6 1.0365458932662599e7 0.0
1.0365458932662599e7 7.486222734711438e7 0.0
0.0 0.0 0.0

-9.333813687401848e6 -2.459437978989409e6 0.0
-2.459437978989409e6 2.9163386261680733e7 0.0
0.0 0.0 0.0

-1.261700537628333e7 1.9241307185772356e7 0.0
1.9241307185772356e7 -5.223795182654311e7 0.0
0.0 0.0 0.0

-308858.1773243826 1.956201386531609e7 0.0
1.956201386531609e7 -1.1271540464137021e7 0.0
0.0 0.0 0.0

-440775.1660901408 2.8457553788637705e7 0.0
2.8457553788637705e7 -1.3761572955269266e6 0.0
0.0 0.0 0.0

-7.4831479262440475e6 1.9093472533454873e7 0.0
1.9093472533454873e7 -8.751622365565736e6 0.0
0.0 0.0 0.0

-729042.0363379938 1.0158138315208808e7 0.0
1.0158138315208808e7 -2.66599914385696e6 0.0
0.0 0.0 0.0

-1.6018797912303992e6 2.536958751834685e7 0.0
2.536958751834685e7 -2.8029013778824564e6 0.0
0.0 0.0 0.0

-3.0266273593880637e6 3.0100860358433586e7 0.0
3.0100860358433586e7 2.712752655485203e6 0.0
0.0 0.0 0.0

-196416.42576393305 2.8610376218644872e7 0.0
2.8610376218644872e7 -1.7552605655614533e6 0.0
0.0 0.0 0.0

-3.449853892874431e6 1.1469528611331902e7 0.0
1.1469528611331902e7 -7.360688362890407e7 0.0
0.0 0.0 0.0

-5.220903326348941e6 1.8904468167986292e7 0.0
1.8904468167986292e7 -1.7709879203931645e7 0.0
0.0 0.0 0.0

-7.070166527058158e6 2.384504953584328e6 0.0
2.384504953584328e6 5.586928059195003e7 0.0
0.0 0.0 0.0

1.23823055287172e7 2.229061815822292e7 0.0
2.229061815822292e7 5.876802573886391e7 0.0
0.0 0.0 0.0

-4.72794097980392e7 3.3667471873477567e6 0.0
3.3667471873477567e6 6.694170539367013e6 0.0
0.0 0.0 0.0

3.746722432122482e7 2.646170253766672e7 0.0
2.646170253766672e7 5.472554818349566e6 0.0
0.0 0.0 0.0

120081.39625639841 1.5341920645702748e7 0.0
1.5341920645702748e7 -2.7277391872310337e7 0.0
0.0 0.0 0.0

2.256142414628608e6 5.502332003640703e6 0.0
5.502332003640703e6 -8.380875386811208e6 0.0
0.0 0.0 0.0

5.104382095851806e7 2.5101559140149772e7 0.0
2.5101559140149772e7 -2.472726334941305e6 0.0
0.0 0.0 0.0

3.1698462773332857e6 1.178262398818075e7 0.0
1.178262398818075e7 -2.2007164555342533e7 0.0
0.0 0.0 0.0

2.7843057616567757e7 2.3504249939329896e7 0.0
2.3504249939329896e7 1.149075738527321e7 0.0
0.0 0.0 0.0

-1.8941087911751634e6 2.6359196636622686e7 0.0
2.6359196636622686e7 -1.0652727456438874e6 0.0
0.0 0.0 0.0

-4.470779984443083e6 2.6406181727414552e7 0.0
2.6406181727414552e7 6.708567755656395e6 0.0
0.0 0.0 0.0

-798175.2565018092 1.3467041776783466e7 0.0
1.3467041776783466e7 -9.251425680355083e6 0.0
0.0 0.0 0.0

-7.002819275433101e6 1.3988566130048782e7 0.0
1.3988566130048782e7 -4.040583798295186e6 0.0
0.0 0.0 0.0

-4.981063562884155e6 1.745151483047666e7 0.0
1.745151483047666e7 -1.888959148491793e7 0.0
0.0 0.0 0.0

-1.9266773895235234e6 2.0576589646157067e7 0.0
2.0576589646157067e7 8.380982773081474e6 0.0
0.0 0.0 0.0

2.650129427778512e6 2.0358450688271224e7 0.0
2.0358450688271224e7 1.0035865230762217e7 0.0
0.0 0.0 0.0

-4.299038055882771e6 8.9270675850614e6 0.0
8.9270675850614e6 7.017566272158217e7 0.0
0.0 0.0 0.0

-2.334448060163961e6 2.4742311205512352e7 0.0
2.4742311205512352e7 -609208.5177132185 0.0
0.0 0.0 0.0

3.766925893243963e6 2.074280860630305e6 0.0
2.074280860630305e6 -2.954017972409615e7 0.0
0.0 0.0 0.0

-3.5148734312395863e6 2.1378724980074152e7 0.0
2.1378724980074152e7 1.5093173231787376e7 0.0
0.0 0.0 0.0

1.6775013051942969e6 2.03460551793293e7 0.0
2.03460551793293e7 1.1559162773641115e7 0.0
0.0 0.0 0.0

1.126201291881108e7 2.436277315746943e7 0.0
2.436277315746943e7 -4.345583344891949e6 0.0
0.0 0.0 0.0

184001.16703839926 2.3927244895095363e7 0.0
2.3927244895095363e7 -7.737480726389274e6 0.0
0.0 0.0 0.0

-3.908521020645907e6 3.338952266092321e7 0.0
3.338952266092321e7 1.8580656189708326e6 0.0
0.0 0.0 0.0

-2.443758844137701e6 7.563091286818142e6 0.0
7.563091286818142e6 -1.2804196443288298e6 0.0
0.0 0.0 0.0

-1.1333748770257393e7 3.1380673418167707e7 0.0
3.1380673418167707e7 5.285016566324387e6 0.0
0.0 0.0 0.0

-2.22864903877928e6 2.6992341622473884e7 0.0
2.6992341622473884e7 2.8363813704805765e6 0.0
0.0 0.0 0.0

-8.739869059560852e6 1.7228769638668176e7 0.0
1.7228769638668176e7 2.1985210595312644e7 0.0
0.0 0.0 0.0

3.0768783240708392e7 2.3408540837515667e7 0.0
2.3408540837515667e7 -359087.15718190745 0.0
0.0 0.0 0.0

660328.8718252704 1.859057477322713e7 0.0
1.859057477322713e7 -1.4427302818628315e7 0.0
0.0 0.0 0.0

-2.1751881360204923e6 2.6129315034088828e7 0.0
2.6129315034088828e7 -349369.2833821486 0.0
0.0 0.0 0.0

-533089.7691120165 1.2292467146503523e7 0.0
1.2292467146503523e7 -9.586700038023997e6 0.0
0.0 0.0 0.0

-1.4657918073516265e6 2.0247590938562986e7 0.0
2.0247590938562986e7 1.3173795767158113e7 0.0
0.0 0.0 0.0

-1.0952592921203163e7 1.4898020568650816e7 0.0
1.4898020568650816e7 -957077.1821930069 0.0
0.0 0.0 0.0

-1.1899602338519583e7 2.1793496725774813e7 0.0
2.1793496725774813e7 -4.354219813610854e6 0.0
0.0 0.0 0.0

172192.0233882852 1.927561762118782e7 0.0
1.927561762118782e7 -1.124015141316613e7 0.0
0.0 0.0 0.0

9.34284576782175e6 1.561444656287028e7 0.0
1.561444656287028e7 4.476311896713616e6 0.0
0.0 0.0 0.0

-23633.59313408658 1.8048907313149832e7 0.0
1.8048907313149832e7 -1.792640868980846e7 0.0
0.0 0.0 0.0

-4.1275273139678687e6 1.9429745770137712e7 0.0
1.9429745770137712e7 2.20898493676379e7 0.0
0.0 0.0 0.0

-1.6134649703978496e7 2.069545636468295e7 0.0
2.069545636468295e7 1.292871966762337e6 0.0
0.0 0.0 0.0

-2.622747142034046e6 2.0366704237468846e7 0.0
2.0366704237468846e7 3.454100181197786e6 0.0
0.0 0.0 0.0

-1.2279558935824918e7 7.303162069018832e6 0.0
7.303162069018832e6 2.3561597872595496e7 0.0
0.0 0.0 0.0

2.149288115925729e6 1.8562396967316534e7 0.0
1.8562396967316534e7 1.8659052492621824e7 0.0
0.0 0.0 0.0

1.35619726739395e7 3.1162719109997686e7 0.0
3.1162719109997686e7 -6.82482287002441e6 0.0
0.0 0.0 0.0

-3.8359417434363484e7 2.6043884863923486e7 0.0
2.6043884863923486e7 2.341244132095037e6 0.0
0.0 0.0 0.0

8.641267671641538e6 3.838668619046959e7 0.0
3.838668619046959e7 -3.465929618981666e6 0.0
0.0 0.0 0.0

-1.3547306047775848e7 2.3672460641252927e7 0.0
2.3672460641252927e7 -12893.213569608517 0.0
0.0 0.0 0.0

5.004450710128764e6 3.500068156596877e7 0.0
3.500068156596877e7 -2.0543312421644905e6 0.0
0.0 0.0 0.0

-1.1744947838272512e7 3.4184276836195127e6 0.0
3.4184276836195127e6 2.302867669171092e7 0.0
0.0 0.0 0.0

1.402963814344669e7 2.332135423607853e7 0.0
2.332135423607853e7 -2.7103572424833933e6 0.0
0.0 0.0 0.0

-3.7774612920752913e6 3.142097518648747e7 0.0
3.142097518648747e7 3.532484874273302e6 0.0
0.0 0.0 0.0

-4.782063586371555e6 2.1244495888135966e7 0.0
2.1244495888135966e7 985000.118757345 0.0
0.0 0.0 0.0

-257146.85238660127 1.6896064592636928e7 0.0
1.6896064592636928e7 -2.26632647641417e7 0.0
0.0 0.0 0.0

-6.087570189413782e6 2.8520862033322353e7 0.0
2.8520862033322353e7 5.730137683871552e6 0.0
0.0 0.0 0.0

-7.4634563835406415e6 1.882196994049824e7 0.0
1.882196994049824e7 -5.00058593513543e6 0.0
0.0 0.0 0.0

4.252013520408791e6 3.4347621586421564e7 0.0
3.4347621586421564e7 -3.8784016471542967e6 0.0
0.0 0.0 0.0

-1.448344077416401e7 3.1829356501605257e7 0.0
3.1829356501605257e7 6.4363905055801915e6 0.0
0.0 0.0 0.0

9.56375307555537e6 2.3616934311273288e7 0.0
2.3616934311273288e7 -3.9132559034973686e6 0.0
0.0 0.0 0.0

3.580935218700706e6 5.69564863295371e6 0.0
5.69564863295371e6 -1.7085322767281476e7 0.0
0.0 0.0 0.0

-5.536358201623508e6 1.7366968018935904e7 0.0
1.7366968018935904e7 -3.2758535018930748e7 0.0
0.0 0.0 0.0

3.2507876234652745e6 4.073878373030431e6 0.0
4.073878373030431e6 -1.4627121569079436e7 0.0
0.0 0.0 0.0

4.506112223346584e6 1.8043640960692145e7 0.0
1.8043640960692145e7 2.6754237766571973e7 0.0
0.0 0.0 0.0

4.938300356355093e6 2.1847649836975146e7 0.0
2.1847649836975146e7 -3.953123054678129e6 0.0
0.0 0.0 0.0

8.455369836523999e6 2.8893730503094234e7 0.0
2.8893730503094234e7 -5.236112507000721e6 0.0
0.0 0.0 0.0

-8.832041174267052e6 1.7320135437617607e7 0.0
1.7320135437617607e7 2.5166708558330163e7 0.0
0.0 0.0 0.0

-32421.265043280553 1.410080884189143e7 0.0
1.410080884189143e7 -8.291209440003377e6 0.0
0.0 0.0 0.0

-161323.98666978558 8.899415787226392e6 0.0
8.899415787226392e6 4.532955859215461e6 0.0
0.0 0.0 0.0

-272655.69714525715 1.0754929647175102e7 0.0
1.0754929647175102e7 -5.570988702550155e7 0.0
0.0 0.0 0.0

2.0227188317586528e6 1.580086277035987e7 0.0
1.580086277035987e7 6.212696279630219e6 0.0
0.0 0.0 0.0

-1.3926410400623366e7 2.8595764757816017e7 0.0
2.8595764757816017e7 5.38434258463626e6 0.0
0.0 0.0 0.0

-1.205650085140186e6 1.8009724577567115e7 0.0
1.8009724577567115e7 -1.2725788134514417e7 0.0
0.0 0.0 0.0

2.345881009021537e7 2.2536011306444112e7 0.0
2.2536011306444112e7 9.29978762256957e6 0.0
0.0 0.0 0.0

-1.0911875824989943e7 6.216035796983026e6 0.0
6.216035796983026e6 3.0596188680985738e7 0.0
0.0 0.0 0.0

-3.1735608950446695e7 2.955458050269053e7 0.0
2.955458050269053e7 2.116869303817738e6 0.0
0.0 0.0 0.0

2.941173469884743e7 3.244265710800147e7 0.0
3.244265710800147e7 -9.992258874258626e6 0.0
0.0 0.0 0.0

-4.682159676270678e6 2.6538490329488646e7 0.0
2.6538490329488646e7 7.471215574433237e6 0.0
0.0 0.0 0.0

-68655.21841313667 1.6291318826974766e7 0.0
1.6291318826974766e7 2.4125749999354705e6 0.0
0.0 0.0 0.0

-7.4176393307247795e6 1.6357199609953262e7 0.0
1.6357199609953262e7 3.083343365467174e7 0.0
0.0 0.0 0.0

-9.875607964385074e6 -1.2400427544713458e6 0.0
-1.2400427544713458e6 3.005858542177593e7 0.0
0.0 0.0 0.0

162167.2268442884 1.8223289485158905e7 0.0
1.8223289485158905e7 -1.569731558605573e7 0.0
0.0 0.0 0.0

-9.40266187103821e6 2.451336600750026e7 0.0
2.451336600750026e7 -1.0830875627321107e7 0.0
0.0 0.0 0.0

-164137.09176063305 1.8576993092719886e7 0.0
1.8576993092719886e7 -1.0495074160938397e7 0.0
0.0 0.0 0.0

-6.44171587539578e6 1.1079366906758023e7 0.0
1.1079366906758023e7 4.8465869730848774e7 0.0
0.0 0.0 0.0

613031.8084445689 1.4370811087220885e7 0.0
1.4370811087220885e7 -2.6792620372036837e7 0.0
0.0 0.0 0.0

-9.381780150863975e6 2.437553595528218e7 0.0
2.437553595528218e7 -1.1009623453277173e7 0.0
0.0 0.0 0.0

-294726.730583746 1.6472140210673714e7 0.0
1.6472140210673714e7 -2.2566689362956874e7 0.0
0.0 0.0 0.0

2.4063965328194197e7 2.2254362297573347e7 0.0
2.2254362297573347e7 1.1578872432289103e7 0.0
0.0 0.0 0.0

-8.015123578976968e6 9.335834452036053e6 0.0
9.335834452036053e6 4.463148234626595e7 0.0
0.0 0.0 0.0

1.1966749118589337e6 2.0028049026416633e7 0.0
2.0028049026416633e7 -1.10498456923967e6 0.0
0.0 0.0 0.0

-2.3587661100402633e6 2.0339775362410188e7 0.0
2.0339775362410188e7 1.8109928665947165e7 0.0
0.0 0.0 0.0

3.110038837824895e6 2.7779712332630992e7 0.0
2.7779712332630992e7 -4.762346512137996e6 0.0
0.0 0.0 0.0

2.677150227063991e6 9.87996919381658e6 0.0
9.87996919381658e6 -2.7305326794757653e7 0.0
0.0 0.0 0.0

2.0161578885687701e6 9.319733830187341e6 0.0
9.319733830187341e6 -1.1622054225450799e7 0.0
0.0 0.0 0.0

-198832.433626147 1.124731720219275e7 0.0
1.124731720219275e7 -4.82372626202145e7 0.0
0.0 0.0 0.0

-9.202006656707594e6 2.276456744073653e7 0.0
2.276456744073653e7 -4.218122949064808e6 0.0
0.0 0.0 0.0

-9.391192056274991e6 9.084685985536419e6 0.0
9.084685985536419e6 4.009475934891099e7 0.0
0.0 0.0 0.0

-7.9877225207084175e6 2.2562712324008014e7 0.0
2.2562712324008014e7 -7.723975262129563e6 0.0
0.0 0.0 0.0

-39061.38721874729 1.7618649683641348e7 0.0
1.7618649683641348e7 -1.0876943098000878e7 0.0
0.0 0.0 0.0

1.1413626532302536e6 8.7830066001068e6 0.0
8.7830066001068e6 -4.249580491248715e7 0.0
0.0 0.0 0.0

-8.377935164058326e6 1.5238303474091291e7 0.0
1.5238303474091291e7 3.1761689529503644e7 0.0
0.0 0.0 0.0

3.0929234622574993e6 1.747313882076413e7 0.0
1.747313882076413e7 1.2072267752737597e7 0.0
0.0 0.0 0.0

-240044.40923252702 1.2837365538138637e7 0.0
1.2837365538138637e7 -3.5398884545059815e7 0.0
0.0 0.0 0.0

3.318638973289039e6 2.7726059986182507e6 0.0
2.7726059986182507e6 -3.291402286593644e7 0.0
0.0 0.0 0.0

-3.880686079203978e6 2.0888091597376473e7 0.0
2.0888091597376473e7 1.5034959688758738e7 0.0
0.0 0.0 0.0

-7.528797423500357e6 2.3195324251925774e7 0.0
2.3195324251925774e7 -1.039390302567419e7 0.0
0.0 0.0 0.0

1.24228126553185e6 1.3153196291641317e7 0.0
1.3153196291641317e7 -1.3534470564841146e7 0.0
0.0 0.0 0.0

-9.604462314329686e6 2.579854822078389e6 0.0
2.579854822078389e6 3.698782152883114e7 0.0
0.0 0.0 0.0

-2.862571629022329e6 1.7142083360261973e6 0.0
1.7142083360261973e6 5.07474313389632e6 0.0
0.0 0.0 0.0

-6.424879851166607e6 1.919696502819401e7 0.0
1.919696502819401e7 1.822060566961965e7 0.0
0.0 0.0 0.0

2.5546317094002087e7 2.4648992362534937e7 0.0
2.4648992362534937e7 1.4750391802971799e7 0.0
0.0 0.0 0.0

1.9377619155248296e7 2.279018614196175e7 0.0
2.279018614196175e7 1.1457736952049527e7 0.0
0.0 0.0 0.0

-1.4530909130318211e7 2.3579395943774104e7 0.0
2.3579395943774104e7 -9.48146913898746e6 0.0
0.0 0.0 0.0

-3.644049453390176e6 1.6035017331758808e7 0.0
1.6035017331758808e7 -1.1899286920433877e7 0.0
0.0 0.0 0.0

-8.313678980904371e6 2.3588289783352762e7 0.0
2.3588289783352762e7 -8.956646950084675e6 0.0
0.0 0.0 0.0

-8.977962242031958e6 2.2270171538338475e7 0.0
2.2270171538338475e7 -8.93075667588631e6 0.0
0.0 0.0 0.0

-28004.639644904062 1.1863374176591465e7 0.0
1.1863374176591465e7 -4.284338032194739e7 0.0
0.0 0.0 0.0

-851561.5795849671 4.197371400442573e6 0.0
4.197371400442573e6 -1.9135082906995013e6 0.0
0.0 0.0 0.0

-695795.8522531133 6.891181296723149e6 0.0
6.891181296723149e6 -222970.45032577502 0.0
0.0 0.0 0.0

1.0674206014161026e6 1.6865153609675247e7 0.0
1.6865153609675247e7 1.6652210738880113e6 0.0
0.0 0.0 0.0

1.73478052970033e7 2.30283629476239e7 0.0
2.30283629476239e7 1.117724070218056e7 0.0
0.0 0.0 0.0

1.0732127780058496e6 1.754346248259366e7 0.0
1.754346248259366e7 7.749605759344175e6 0.0
0.0 0.0 0.0

-4.753818121921244e6 2.00883491011885e7 0.0
2.00883491011885e7 1.5523288666497644e7 0.0
0.0 0.0 0.0

-2.3873583716103777e7 1.1625488433450252e7 0.0
1.1625488433450252e7 8.876104366746733e6 0.0
0.0 0.0 0.0

2.1904697807501513e6 1.752434970657693e7 0.0
1.752434970657693e7 9.516523689055858e6 0.0
0.0 0.0 0.0

2.7353133107222747e6 6.219040067713853e6 0.0
6.219040067713853e6 -1.788266845298068e7 0.0
0.0 0.0 0.0

-1.387823269240081e7 3.022690784410496e7 0.0
3.022690784410496e7 6.045146049971849e6 0.0
0.0 0.0 0.0

-9.071561064927612e6 645829.175295171 0.0
645829.175295171 3.915127357070998e7 0.0
0.0 0.0 0.0

-1.5379029472696977e6 1.9685881857344348e7 0.0
1.9685881857344348e7 -8.7872342863258e6 0.0
0.0 0.0 0.0

7.867592182841453e6 2.1071295665869817e7 0.0
2.1071295665869817e7 1.148297667116232e7 0.0
0.0 0.0 0.0

-7.196029374264874e6 2.2953892683698222e7 0.0
2.2953892683698222e7 -1.0391387545625223e7 0.0
0.0 0.0 0.0

-2.7629476572745414e6 1.6222291760204168e7 0.0
1.6222291760204168e7 -2.766745035860584e7 0.0
0.0 0.0 0.0

2.020418006786703e7 2.3854994244865492e7 0.0
2.3854994244865492e7 1.374601628610754e7 0.0
0.0 0.0 0.0

-2.7697165302946884e6 1.7944085614619233e7 0.0
1.7944085614619233e7 -2.022392334868022e7 0.0
0.0 0.0 0.0

1.4598086779957563e6 1.8458840091887258e7 0.0
1.8458840091887258e7 1.1234759607953519e7 0.0
0.0 0.0 0.0

3.9009935120742517e6 2.0476965024797175e7 0.0
2.0476965024797175e7 1.4261321723368421e7 0.0
0.0 0.0 0.0

-3.55074908004692e6 2.0682025004801612e7 0.0
2.0682025004801612e7 1.5963651514265567e7 0.0
0.0 0.0 0.0

-2.665054189414863e6 2.0575754416184943e7 0.0
2.0575754416184943e7 1.0631349623727014e7 0.0
0.0 0.0 0.0

2.8737813225902393e6 5.457842571180139e6 0.0
5.457842571180139e6 -3.1705664254976787e7 0.0
0.0 0.0 0.0

541453.253707818 2.986134801505509e7 0.0
2.986134801505509e7 -1.8748442796014983e6 0.0
0.0 0.0 0.0

-5.707528069294863e6 1.960890524795554e7 0.0
1.960890524795554e7 -1.4426034908265393e7 0.0
0.0 0.0 0.0

2.936722744908682e7 2.083341680061407e7 0.0
2.083341680061407e7 1.1277385031339712e7 0.0
0.0 0.0 0.0

-8.245776466403208e6 2.7751740491244715e7 0.0
2.7751740491244715e7 6.330960721129621e6 0.0
0.0 0.0 0.0

3.072920081495242e6 4.51110774726388e6 0.0
4.51110774726388e6 -3.660919709104255e7 0.0
0.0 0.0 0.0

-3.1565766299800575e6 1.8439873930192806e7 0.0
1.8439873930192806e7 6.230312144111443e6 0.0
0.0 0.0 0.0

1.4676857933316652e7 2.074568007635814e7 0.0
2.074568007635814e7 7.8911597513700705e6 0.0
0.0 0.0 0.0

3.795642079958813e7 1.9125073691168662e7 0.0
1.9125073691168662e7 8.619304253355857e6 0.0
0.0 0.0 0.0

-5.167184871623646e6 3.1305053676601525e7 0.0
3.1305053676601525e7 4.481253547485512e6 0.0
0.0 0.0 0.0

391359.25854881573 1.889298541971096e7 0.0
1.889298541971096e7 -1.6795969900027137e7 0.0
0.0 0.0 0.0

-1.0949456526478887e7 1.0398381945244e7 0.0
1.0398381945244e7 2.0101882065058824e7 0.0
0.0 0.0 0.0

-9.497044845032953e6 763100.7768823442 0.0
763100.7768823442 3.754458635105011e7 0.0
0.0 0.0 0.0

1.8076478104751466e6 1.7540887514161706e7 0.0
1.7540887514161706e7 6.562385737046081e6 0.0
0.0 0.0 0.0

1.1618794674922012e7 1.785508431587349e7 0.0
1.785508431587349e7 9.682321792161088e6 0.0
0.0 0.0 0.0

-1.085382832420566e7 3.917715832275716e6 0.0
3.917715832275716e6 2.9234819904125594e7 0.0
0.0 0.0 0.0

-3.0104190509702303e6 1.2610093412566248e7 0.0
1.2610093412566248e7 -1.8966185530899398e6 0.0
0.0 0.0 0.0

-3.6978709155145646e6 1.9742297956945986e7 0.0
1.9742297956945986e7 -1.3497808176148592e7 0.0
0.0 0.0 0.0

-3.8205305262441523e6 1.6563354312732335e7 0.0
1.6563354312732335e7 -2.570154167991873e7 0.0
0.0 0.0 0.0

-354050.4837129683 2.922728771313803e7 0.0
2.922728771313803e7 -1.489504860539829e6 0.0
0.0 0.0 0.0

3.902038472471779e6 2.8332874490407273e7 0.0
2.8332874490407273e7 -4.985551628673569e6 0.0
0.0 0.0 0.0

3.757502409699219e6 3.746777691259719e7 0.0
3.746777691259719e7 -3.615847864763508e6 0.0
0.0 0.0 0.0

-1.365885505235231e7 3.633871483455967e7 0.0
3.633871483455967e7 6.395329500113846e6 0.0
0.0 0.0 0.0

7.012297037826611e6 1.8551724446358066e7 0.0
1.8551724446358066e7 2.6635268704714965e7 0.0
0.0 0.0 0.0

-7.183028747860363e6 1.6921058349651992e7 0.0
1.6921058349651992e7 -7.078416433528484e7 0.0
0.0 0.0 0.0

-1.060748055158495e7 -812093.2740486158 0.0
-812093.2740486158 2.1005888339680657e7 0.0
0.0 0.0 0.0

-8.839106998378536e6 1.5740349452857515e7 0.0
1.5740349452857515e7 -3.065309324006104e7 0.0
0.0 0.0 0.0

-3.988798597758125e6 1.51561105988539e7 0.0
1.51561105988539e7 -1.3584630202736387e7 0.0
0.0 0.0 0.0

5.469864445050949e6 1.8943980775650896e7 0.0
1.8943980775650896e7 2.5830215916813307e7 0.0
0.0 0.0 0.0

-8.428283308382373e6 1.7455161474418074e7 0.0
1.7455161474418074e7 -3.656014468974972e7 0.0
0.0 0.0 0.0

-6.442809882034982e6 1.603078516730277e7 0.0
1.603078516730277e7 -2.585878933472957e7 0.0
0.0 0.0 0.0

1.6874559688744478e7 2.2736261266226765e7 0.0
2.2736261266226765e7 9.669048410588164e6 0.0
0.0 0.0 0.0

-5.2103272657371685e6 2.017073655947498e7 0.0
2.017073655947498e7 -1.290144430980002e7 0.0
0.0 0.0 0.0

2.5947167942168005e6 9.101158775417034e6 0.0
9.101158775417034e6 -3.0673229933427386e7 0.0
0.0 0.0 0.0

1.1502895531605391e6 1.762237977729227e7 0.0
1.762237977729227e7 3.600389771926878e6 0.0
0.0 0.0 0.0

-8.872242618516188e6 2.370001601646296e7 0.0
2.370001601646296e7 -1.0996658840337638e7 0.0
0.0 0.0 0.0

4.0438673850375866e6 1.7304330449217305e7 0.0
1.7304330449217305e7 1.6398643289253946e7 0.0
0.0 0.0 0.0

3.3388290177176967e6 4.088881523234064e6 0.0
4.088881523234064e6 -1.5031737775993818e7 0.0
0.0 0.0 0.0

-2.391002545166348e6 2.59078765532274e7 0.0
2.59078765532274e7 478355.5123399934 0.0
0.0 0.0 0.0

-3.686691845070587e6 2.942647069110241e7 0.0
2.942647069110241e7 2.6031386675228896e6 0.0
0.0 0.0 0.0

-8.787223460325172e6 1.5414985604910372e7 0.0
1.5414985604910372e7 3.055848949086309e7 0.0
0.0 0.0 0.0

1.6629100448171953e6 1.8787026453374155e7 0.0
1.8787026453374155e7 8.602626789716387e6 0.0
0.0 0.0 0.0

3.822297942839766e6 2.0774948416483365e7 0.0
2.0774948416483365e7 1.5106843256036563e7 0.0
0.0 0.0 0.0

-3.6980259769007945e6 3.2925136710852727e7 0.0
3.2925136710852727e7 2.9832559209547513e6 0.0
0.0 0.0 0.0

-4.541183442257492e6 1.9989730165127784e7 0.0
1.9989730165127784e7 1.6142592815587344e7 0.0
0.0 0.0 0.0

-1.0136124069084724e7 -2.10851805921665e6 0.0
-2.10851805921665e6 2.4400771817042124e7 0.0
0.0 0.0 0.0

-3.2755749956314648e6 2.9305121405258343e7 0.0
2.9305121405258343e7 3.9038797353581963e6 0.0
0.0 0.0 0.0

-1.0070464127339122e6 2.5111180815525416e7 0.0
2.5111180815525416e7 -2.482980190741801e6 0.0
0.0 0.0 0.0

-3.44735998550307e6 2.002345898002148e7 0.0
2.002345898002148e7 2.690710859406747e6 0.0
0.0 0.0 0.0

257876.6538739435 2.9539086584830202e7 0.0
2.9539086584830202e7 -1.9795855720734373e6 0.0
0.0 0.0 0.0

211181.8636971541 2.8969631999127142e7 0.0
2.8969631999127142e7 -1.6112057251663872e6 0.0
0.0 0.0 0.0

-1.9524729181863486e6 1.903987290295879e7 0.0
1.903987290295879e7 -9.771318511100816e6 0.0
0.0 0.0 0.0

3.4554199341544025e6 1.903998118640104e7 0.0
1.903998118640104e7 1.1518067042197272e7 0.0
0.0 0.0 0.0

2.2774817975242306e6 8.968350063640958e6 0.0
8.968350063640958e6 -2.88116112169905e7 0.0
0.0 0.0 0.0

-1.1599713576316757e7 1.6668591464864917e7 0.0
1.6668591464864917e7 -4.38093968540655e7 0.0
0.0 0.0 0.0

-4.238803906490365e6 2.160111278117512e7 0.0
2.160111278117512e7 3.3339248810466384e6 0.0
0.0 0.0 0.0

-3.3906913382658854e7 3.2304674985131048e7 0.0
3.2304674985131048e7 -1.1871833714482062e7 0.0
0.0 0.0 0.0

-6.853760197900766e6 1.701517002843044e7 0.0
1.701517002843044e7 -2.460541544663142e7 0.0
0.0 0.0 0.0

-3.8076135585102834e7 3.1657293993308436e7 0.0
3.1657293993308436e7 -5.953098197689269e6 0.0
0.0 0.0 0.0

-3.7742140501846108e6 2.2210845986919343e7 0.0
2.2210845986919343e7 1.1481212594642973e7 0.0
0.0 0.0 0.0

-8.372105659982199e6 -386637.2940977585 0.0
-386637.2940977585 4.343447424867068e7 0.0
0.0 0.0 0.0

2.438910833679902e6 2.7653225534910653e7 0.0
2.7653225534910653e7 -4.703046732886161e6 0.0
0.0 0.0 0.0

-1.4719466440082721e7 2.545924925817404e7 0.0
2.545924925817404e7 -9.961232019337539e6 0.0
0.0 0.0 0.0

274630.5421972424 1.947015992046492e7 0.0
1.947015992046492e7 -1.5295223540714424e7 0.0
0.0 0.0 0.0

-1.1052785594259392e7 3.028429318795783e7 0.0
3.028429318795783e7 5.841242663783174e6 0.0
0.0 0.0 0.0

-1.1678404455994198e7 7.065244330397203e6 0.0
7.065244330397203e6 2.3379211338279113e7 0.0
0.0 0.0 0.0

1.627783107255878e6 9.962921860806718e6 0.0
9.962921860806718e6 -3.6016227357060514e7 0.0
0.0 0.0 0.0

-1.450605522111904e7 2.999858941579618e7 0.0
2.999858941579618e7 5.70052991683067e6 0.0
0.0 0.0 0.0

1.2567375278127522e6 1.8307402367596097e7 0.0
1.8307402367596097e7 5.5057284533392e6 0.0
0.0 0.0 0.0

-1.2220943215694308e7 9.027868980892178e6 0.0
9.027868980892178e6 1.842178455061331e7 0.0
0.0 0.0 0.0

-718955.3929071049 1.7895381946765892e7 0.0
1.7895381946765892e7 -1.1314233286272101e7 0.0
0.0 0.0 0.0

2.280129456526329e6 2.6286234111331377e7 0.0
2.6286234111331377e7 -5.510989064797126e6 0.0
0.0 0.0 0.0

-2.5542077846478667e7 1.2137721312120881e7 0.0
1.2137721312120881e7 8.504020440780334e6 0.0
0.0 0.0 0.0

-5.976401099919163e6 2.7900805910671037e7 0.0
2.7900805910671037e7 6.457323235085862e6 0.0
0.0 0.0 0.0

-241309.49170374405 1.8589779612885978e7 0.0
1.8589779612885978e7 -1.7872111693959706e7 0.0
0.0 0.0 0.0

2.349720140435476e6 9.218460438612256e6 0.0
9.218460438612256e6 -2.5554387777267218e7 0.0
0.0 0.0 0.0

81881.97651564889 4.843429206943858e6 0.0
4.843429206943858e6 -4.267254886730127e6 0.0
0.0 0.0 0.0

960323.7978112716 1.6711863325240005e7 0.0
1.6711863325240005e7 -1.9623295212647244e7 0.0
0.0 0.0 0.0

-2.077444470269991e7 2.5457920791995633e7 0.0
2.5457920791995633e7 -4.233060335677674e6 0.0
0.0 0.0 0.0

6.069953844711084e6 3.718684273412669e7 0.0
3.718684273412669e7 -2.8766265141981454e6 0.0
0.0 0.0 0.0

774106.864327481 1.8471988889575865e7 0.0
1.8471988889575865e7 3.02179474580368e7 0.0
0.0 0.0 0.0

2.5853384486456476e6 1.917758114260511e7 0.0
1.917758114260511e7 1.0557203999419719e7 0.0
0.0 0.0 0.0

7.278579700200958e6 1.6629688609632965e7 0.0
1.6629688609632965e7 2.5882360040802203e7 0.0
0.0 0.0 0.0

-3.7783313064819863e6 1.8802253788684633e7 0.0
1.8802253788684633e7 -1.2594437985616457e7 0.0
0.0 0.0 0.0

-8.90135921837096e6 1.4978853187687859e7 0.0
1.4978853187687859e7 3.1316450209560513e7 0.0
0.0 0.0 0.0

-2.841382563461425e6 1.717825825193779e7 0.0
1.717825825193779e7 -1.3471364716739716e7 0.0
0.0 0.0 0.0

-2.5589789020201042e7 3.3330208593653783e7 0.0
3.3330208593653783e7 7.906099082982339e6 0.0
0.0 0.0 0.0

-1.0009039152132697e7 3.9483667918838705e6 0.0
3.9483667918838705e6 3.510206980010975e7 0.0
0.0 0.0 0.0

-8.340458338289671e6 -396294.12850493536 0.0
-396294.12850493536 4.4086279500559025e7 0.0
0.0 0.0 0.0

723386.0440621851 1.2988402816158067e7 0.0
1.2988402816158067e7 -1.5359611014596736e7 0.0
0.0 0.0 0.0

483969.9594493565 3.2394096477198084e6 0.0
3.2394096477198084e6 9122.974455931631 0.0
0.0 0.0 0.0

640435.0180246532 9.668483608608022e6 0.0
9.668483608608022e6 -4.511187436035774e7 0.0
0.0 0.0 0.0

-8.585399258175706e6 1.2340208255491618e7 0.0
1.2340208255491618e7 3.759720718439253e7 0.0
0.0 0.0 0.0

399920.117423255 1.2100342410316544e7 0.0
1.2100342410316544e7 -3.509852697180763e7 0.0
0.0 0.0 0.0

-9.757246452299235e6 -90881.56567102276 0.0
-90881.56567102276 2.8965616599115584e7 0.0
0.0 0.0 0.0

-3.175643374316165e6 2.686640670751541e7 0.0
2.686640670751541e7 3.0583910976979816e6 0.0
0.0 0.0 0.0

3.024115462510717e6 2.6759417673460517e7 0.0
2.6759417673460517e7 -5.3912096855220115e6 0.0
0.0 0.0 0.0

-3.6127843430469297e6 3.094775502612674e7 0.0
3.094775502612674e7 1.9761348481785893e6 0.0
0.0 0.0 0.0

3.3105364028088823e6 3.619104618715271e7 0.0
3.619104618715271e7 -2.1515367809768626e6 0.0
0.0 0.0 0.0

1.1168390282930017e6 3.270034463523737e7 0.0
3.270034463523737e7 -2.2091545359711815e6 0.0
0.0 0.0 0.0

-9.545938209844906e6 698052.2000584764 0.0
698052.2000584764 3.606165738864979e7 0.0
0.0 0.0 0.0

2.613983195664536e6 4.8749576513761645e6 0.0
4.8749576513761645e6 -3.925709996314751e7 0.0
0.0 0.0 0.0

535577.2519189748 2.0162486069041654e7 0.0
2.0162486069041654e7 -1.1286881590768307e7 0.0
0.0 0.0 0.0

-33991.35448507499 2.1627955560796645e7 0.0
2.1627955560796645e7 -8.957209476148266e6 0.0
0.0 0.0 0.0

2.12298349537024e6 1.1777068753430774e7 0.0
1.1777068753430774e7 -2.125268696817398e7 0.0
0.0 0.0 0.0

-6.024777938810741e6 1.5240776989806835e7 0.0
1.5240776989806835e7 -2.0134962669397134e7 0.0
0.0 0.0 0.0

1.4301797804655223e6 1.6703750389059907e7 0.0
1.6703750389059907e7 4.767265937519542e6 0.0
0.0 0.0 0.0

-3.64231966940198e6 2.379820946137862e7 0.0
2.379820946137862e7 8.468154146971582e6 0.0
0.0 0.0 0.0

-8.885458948107332e6 2.8663593747653425e7 0.0
2.8663593747653425e7 5.866542445512686e6 0.0
0.0 0.0 0.0

-2.2121495212042495e6 1.7146114630265333e7 0.0
1.7146114630265333e7 -7.331775362883125e6 0.0
0.0 0.0 0.0

-1.3643753182783232e6 1.2704527152229454e7 0.0
1.2704527152229454e7 -2.4345071816195333e6 0.0
0.0 0.0 0.0

3.3582279287043847e6 3.3651724789261385e6 0.0
3.3651724789261385e6 -3.1523297745200355e7 0.0
0.0 0.0 0.0

2.2495818026694376e6 1.9857099015781946e7 0.0
1.9857099015781946e7 -5.974822484327108e6 0.0
0.0 0.0 0.0

2.1895415464421976e6 9.596003100912591e6 0.0
9.596003100912591e6 -2.7416093768904865e7 0.0
0.0 0.0 0.0

-3.4193703049307046e6 8.190310621102624e6 0.0
8.190310621102624e6 399817.4075498618 0.0
0.0 0.0 0.0

-1.6513753275659943e6 1.1437791981163701e7 0.0
1.1437791981163701e7 -4.967079496892137e6 0.0
0.0 0.0 0.0

-2.56126628509051e6 3.178895208810975e6 0.0
3.178895208810975e6 728085.4027145996 0.0
0.0 0.0 0.0

-2.3819759838917553e6 2.4551924289152954e7 0.0
2.4551924289152954e7 3.41132931400765e6 0.0
0.0 0.0 0.0

-67180.61129234079 1.727994000891391e7 0.0
1.727994000891391e7 -2.094156189172435e7 0.0
0.0 0.0 0.0

-132252.39748222008 9.345569562227372e6 0.0
9.345569562227372e6 -5.2121644656162724e7 0.0
0.0 0.0 0.0

-6.9453355219580745e6 2.18973330430065e7 0.0
2.18973330430065e7 -6.094383056499269e6 0.0
0.0 0.0 0.0

-2.476506813734937e7 2.9157130771996602e7 0.0
2.9157130771996602e7 -1.1678473368868098e7 0.0
0.0 0.0 0.0

-1.8771206592691235e7 2.9243289738838732e7 0.0
2.9243289738838732e7 5.1639152830649335e6 0.0
0.0 0.0 0.0

-1.0109742661130385e7 2.4450314339977637e7 0.0
2.4450314339977637e7 -1.0405052255481191e7 0.0
0.0 0.0 0.0

-4.222337670273318e6 1.5713282768598866e7 0.0
1.5713282768598866e7 -3.463194562586427e7 0.0
0.0 0.0 0.0

-7.669776936491391e6 1.6465114007530157e7 0.0
1.6465114007530157e7 -2.5565924038146656e7 0.0
0.0 0.0 0.0

-1.9101591069272753e7 2.684957288128434e7 0.0
2.684957288128434e7 -1.0258098217790786e7 0.0
0.0 0.0 0.0

-1.1053454481151234e7 1.727712718258325e7 0.0
1.727712718258325e7 -3.684484946971662e7 0.0
0.0 0.0 0.0

-6.984035448364895e6 1.903816586136584e7 0.0
1.903816586136584e7 2.1495661416141585e7 0.0
0.0 0.0 0.0

-1.0846304582217798e7 665.9519783915366 0.0
665.9519783915366 1.9443806056573458e7 0.0
0.0 0.0 0.0

-997415.8193977502 2.4757055842057258e7 0.0
2.4757055842057258e7 -3.9952971003287695e6 0.0
0.0 0.0 0.0

-4.369713732485096e6 2.133528443250966e7 0.0
2.133528443250966e7 1.3370486155961609e7 0.0
0.0 0.0 0.0

-1.0493172998976832e7 -864844.1662339702 0.0
-864844.1662339702 2.5046648595785774e7 0.0
0.0 0.0 0.0

962903.2436907757 1.4093525880624847e7 0.0
1.4093525880624847e7 -2.6399966829978418e7 0.0
0.0 0.0 0.0

-2.252684773689419e6 2.542750082663311e7 0.0
2.542750082663311e7 -479604.255621626 0.0
0.0 0.0 0.0

464340.18932997517 1.736387938261648e7 0.0
1.736387938261648e7 -1.5395016545826765e6 0.0
0.0 0.0 0.0

-4.1892224053921252e6 2.641921942927698e7 0.0
2.641921942927698e7 5.9294748893870665e6 0.0
0.0 0.0 0.0

-1.754253355021239e7 2.714417605011003e7 0.0
2.714417605011003e7 -1.1245980066718638e7 0.0
0.0 0.0 0.0

-8.671366494184311e6 1.6743745551913887e7 0.0
1.6743745551913887e7 -2.890455548093909e7 0.0
0.0 0.0 0.0

4.0249939321582355e6 2.050345925942665e7 0.0
2.050345925942665e7 1.6241219818581957e7 0.0
0.0 0.0 0.0

-2.858867924410962e7 2.9620689244147833e7 0.0
2.9620689244147833e7 4.2039576240589935e6 0.0
0.0 0.0 0.0

-1.0548996547224633e7 9.22955639544763e6 0.0
9.22955639544763e6 1.9384364847197317e7 0.0
0.0 0.0 0.0

-7.891687487195108e6 9.826622150709061e6 0.0
9.826622150709061e6 4.691716059265769e7 0.0
0.0 0.0 0.0

-2.089311338334821e6 1.9132147801757775e7 0.0
1.9132147801757775e7 -9.683788301386831e6 0.0
0.0 0.0 0.0

2.7069868196015097e6 3.244493208263096e7 0.0
3.244493208263096e7 -3.1589834903065464e6 0.0
0.0 0.0 0.0

7.295377334433549e6 1.746287367767762e7 0.0
1.746287367767762e7 2.43179247407273e7 0.0
0.0 0.0 0.0

2.26760561440818e7 1.9699266923325647e7 0.0
1.9699266923325647e7 4.998811674425646e6 0.0
0.0 0.0 0.0

-1.3531405022019867e7 2.5649070528136265e7 0.0
2.5649070528136265e7 -1.086073379627919e7 0.0
0.0 0.0 0.0

4.1684229233720917e6 3.0103606703685928e7 0.0
3.0103606703685928e7 -4.52316941804772e6 0.0
0.0 0.0 0.0

9.928579950728219e6 1.729247433579762e7 0.0
1.729247433579762e7 3.7906213372526854e7 0.0
0.0 0.0 0.0

1.9940504757986814e6 6.7668098159831315e6 0.0
6.7668098159831315e6 -5.031514162854377e7 0.0
0.0 0.0 0.0

-5.718204132133941e6 2.705988236130316e7 0.0
2.705988236130316e7 7.077369989071353e6 0.0
0.0 0.0 0.0

691097.2029139893 1.6092469838018987e7 0.0
1.6092469838018987e7 187945.98333546147 0.0
0.0 0.0 0.0

-1.2478805278625745e7 1.7913982440789472e7 0.0
1.7913982440789472e7 -4.159601928451622e7 0.0
0.0 0.0 0.0

-5.669389560171152e6 2.211343848245776e7 0.0
2.211343848245776e7 -2.236242470545386e6 0.0
0.0 0.0 0.0

2.9463394439316206e6 3.088439843036774e6 0.0
3.088439843036774e6 -4.319426316681708e7 0.0
0.0 0.0 0.0

-874678.3589998991 2.0466153224457227e7 0.0
2.0466153224457227e7 -9.313448034845745e6 0.0
0.0 0.0 0.0

3.261322560589355e6 2.25475126003254e7 0.0
2.25475126003254e7 -7.727663660204148e6 0.0
0.0 0.0 0.0

2.1738697767250106e7 2.2793713560703833e7 0.0
2.2793713560703833e7 194082.7501186449 0.0
0.0 0.0 0.0

-8.396540610844305e6 1.7685167456746977e7 0.0
1.7685167456746977e7 2.199646408777408e7 0.0
0.0 0.0 0.0

-2.1109787729902007e6 1.5641812055626966e7 0.0
1.5641812055626966e7 -6.193281540683467e6 0.0
0.0 0.0 0.0

-8.286622799046749e6 2.3098544082733877e7 0.0
2.3098544082733877e7 -1.0433161100103771e7 0.0
0.0 0.0 0.0

-1.3422759141238767e6 2.4958017993460223e7 0.0
2.4958017993460223e7 -3.5002175654732804e6 0.0
0.0 0.0 0.0

-8.279831640975952e6 2.203770860129769e6 0.0
2.203770860129769e6 4.6766748277296275e7 0.0
0.0 0.0 0.0

-1.864649458394837e6 1.7419365373541273e7 0.0
1.7419365373541273e7 -8.774438608775385e6 0.0
0.0 0.0 0.0

-1.0258727500116307e7 2.9076330843143687e7 0.0
2.9076330843143687e7 6.01345655140657e6 0.0
0.0 0.0 0.0

1.3995290936111948e6 8.57210427782992e6 0.0
8.57210427782992e6 -1.275147898577163e7 0.0
0.0 0.0 0.0

9.253105280549064e6 2.0239771771189194e7 0.0
2.0239771771189194e7 1.2457728194877343e7 0.0
0.0 0.0 0.0

-4.350145626393705e7 3.0953570875901133e7 0.0
3.0953570875901133e7 4.661402012840258e6 0.0
0.0 0.0 0.0

2.6284652395066423e6 1.5808118985271657e7 0.0
1.5808118985271657e7 9.035273997235596e6 0.0
0.0 0.0 0.0

3.315818844985537e6 6.99567964959771e6 0.0
6.99567964959771e6 -1.6665478405070212e7 0.0
0.0 0.0 0.0

3.558720345379649e6 1.97573317184445e7 0.0
1.97573317184445e7 1.891216551732246e7 0.0
0.0 0.0 0.0

978723.5722106099 2.435893763519995e7 0.0
2.435893763519995e7 -7.024606836155422e6 0.0
0.0 0.0 0.0

1.882999758572825e7 3.0386260460596632e7 0.0
3.0386260460596632e7 -6.175582060889944e6 0.0
0.0 0.0 0.0

-3.5641078496538415e6 1.6119829147903632e7 0.0
1.6119829147903632e7 -1.18803598842981e7 0.0
0.0 0.0 0.0

-3.7045677356363162e6 1.6743197852983348e7 0.0
1.6743197852983348e7 8.068178543326493e6 0.0
0.0 0.0 0.0

804804.910825117 8.675975300611828e6 0.0
8.675975300611828e6 -1.0808262938437479e7 0.0
0.0 0.0 0.0

-4.493569005095812e6 1.773128059761817e7 0.0
1.773128059761817e7 -2.4224861619719837e7 0.0
0.0 0.0 0.0

-61182.095864966046 2.0763256059062872e7 0.0
2.0763256059062872e7 -9.68627665113505e6 0.0
0.0 0.0 0.0

1.5644182682791634e7 2.3293739134598162e7 0.0
2.3293739134598162e7 1.2349887721006438e7 0.0
0.0 0.0 0.0

-6.857166455021619e6 2.235705626780429e7 0.0
2.235705626780429e7 -1.0785223726135623e7 0.0
0.0 0.0 0.0

2.793294981649233e6 2.240980676315976e7 0.0
2.240980676315976e7 -7.201559020792447e6 0.0
0.0 0.0 0.0

-8.0613217872738335e6 3.50644272585088e6 0.0
3.50644272585088e6 1.1392181124542698e7 0.0
0.0 0.0 0.0

-512445.42910333513 7.1007768197662e6 0.0
7.1007768197662e6 327246.14369425765 0.0
0.0 0.0 0.0

9.25844095554486e6 2.1933115395461436e7 0.0
2.1933115395461436e7 -1.9973688297266122e6 0.0
0.0 0.0 0.0

2.1656480652545528e6 1.6695823948258843e7 0.0
1.6695823948258843e7 7.732116658927148e6 0.0
0.0 0.0 0.0

5.170113185416801e7 2.155711860731598e7 0.0
2.155711860731598e7 1.3085354062817816e7 0.0
0.0 0.0 0.0

-1.0298126088110162e7 -641951.8712433612 0.0
-641951.8712433612 2.8024835542317994e7 0.0
0.0 0.0 0.0

-1.6771968140284086e7 2.5444255460793145e7 0.0
2.5444255460793145e7 -7.8533043331124075e6 0.0
0.0 0.0 0.0

-1.3981105035710853e7 2.3824999783922732e7 0.0
2.3824999783922732e7 -5.033556398222179e6 0.0
0.0 0.0 0.0

-3.1923246969312444e7 2.6907069676298767e7 0.0
2.6907069676298767e7 -1.1141009610039057e7 0.0
0.0 0.0 0.0

3.48765599976283e7 5.904474495734722e6 0.0
5.904474495734722e6 -1.992676571638858e6 0.0
0.0 0.0 0.0

-6.568254443012867e6 8.715092744408257e6 0.0
8.715092744408257e6 5.463130809913591e7 0.0
0.0 0.0 0.0

-1.6359111532946958e6 1.20484683437773e7 0.0
1.20484683437773e7 -1.0048746759051584e6 0.0
0.0 0.0 0.0

-1.5846692245532872e7 2.4820363941711728e7 0.0
2.4820363941711728e7 -1.0675192121485349e7 0.0
0.0 0.0 0.0

-4.185339230785008e6 2.660297104871663e7 0.0
2.660297104871663e7 7.041401310951463e6 0.0
0.0 0.0 0.0

-519348.8996047885 2.0366132537374265e7 0.0
2.0366132537374265e7 -1.0983737378129805e7 0.0
0.0 0.0 0.0

1.07153583919519e6 1.3767298523124488e7 0.0
1.3767298523124488e7 -1.640341500062729e7 0.0
0.0 0.0 0.0

-72824.27810692019 1.7294819572539672e7 0.0
1.7294819572539672e7 -5.865104747740547e6 0.0
0.0 0.0 0.0

-7.37949912869713e6 1.5438084425523931e7 0.0
1.5438084425523931e7 -2.70111507510884e7 0.0
0.0 0.0 0.0

-9.43757333563852e6 1.8025375229465347e7 0.0
1.8025375229465347e7 -5.9857306086384505e7 0.0
0.0 0.0 0.0

1.254243963009726e7 5.786425912675049e6 0.0
5.786425912675049e6 -2.3147148773400486e6 0.0
0.0 0.0 0.0

8.50847773019654e6 3.0825887265608624e7 0.0
3.0825887265608624e7 -5.303001467352056e6 0.0
0.0 0.0 0.0

-5.654478962612293e6 1.6293648841700021e7 0.0
1.6293648841700021e7 -1.8848264008243706e7 0.0
0.0 0.0 0.0

1.7156617490737647e7 1.6935407489994943e7 0.0
1.6935407489994943e7 4.340019883815885e6 0.0
0.0 0.0 0.0

-453534.02788975206 1.8145363365856025e7 0.0
1.8145363365856025e7 -7.165135201190924e6 0.0
0.0 0.0 0.0

-887631.2549894447 2.4339675174977448e7 0.0
2.4339675174977448e7 -3.733134018314058e6 0.0
0.0 0.0 0.0

-4.2048376801191345e6 1.740672182276902e7 0.0
1.740672182276902e7 -1.6000268038588686e7 0.0
0.0 0.0 0.0

-1.8991014867278583e7 1.9257852859533083e7 0.0
1.9257852859533083e7 3.9125755047462275e6 0.0
0.0 0.0 0.0

-8.262449047772095e6 -3.618394062444638e6 0.0
-3.618394062444638e6 1.4025539130230848e7 0.0
0.0 0.0 0.0

-6.706589450331752e6 1.853077184508335e7 0.0
1.853077184508335e7 2.118442312760031e7 0.0
0.0 0.0 0.0

-488665.65395124897 1.7056862202909637e7 0.0
1.7056862202909637e7 2.1596991681970293e6 0.0
0.0 0.0 0.0

-6.026433512704729e6 1.8025388207613163e7 0.0
1.8025388207613163e7 -1.6593213061459215e7 0.0
0.0 0.0 0.0

-728247.489478922 1.8387863074148525e7 0.0
1.8387863074148525e7 -7.778565101073231e6 0.0
0.0 0.0 0.0

-2.642225303648631e6 1.3213467903032992e7 0.0
1.3213467903032992e7 -3.2403530931277177e6 0.0
0.0 0.0 0.0

2.533273752469743e7 2.247774330742307e7 0.0
2.247774330742307e7 -453359.69408422895 0.0
0.0 0.0 0.0

-1.0158480060169052e7 3.184380686942012e7 0.0
3.184380686942012e7 5.952901806127621e6 0.0
0.0 0.0 0.0

5.700446673202342e6 2.3316247904675342e7 0.0
2.3316247904675342e7 -5.518649854254605e6 0.0
0.0 0.0 0.0

-4.502648639870388e6 2.0966562171942294e7 0.0
2.0966562171942294e7 -3.6941297562139714e6 0.0
0.0 0.0 0.0

-2.629374177302393e6 3.132814308651286e7 0.0
3.132814308651286e7 2.572149202690398e6 0.0
0.0 0.0 0.0

-6.106377029611595e6 1.971471980759107e7 0.0
1.971471980759107e7 1.8283366753853608e7 0.0
0.0 0.0 0.0

1.295258623377923e6 7.95707690236396e6 0.0
7.95707690236396e6 -8.377164025481464e6 0.0
0.0 0.0 0.0

-1.605218634253301e6 7.484522022548495e6 0.0
7.484522022548495e6 1.5121987109622404e6 0.0
0.0 0.0 0.0

-1.027778657112583e7 1.6202977108117953e7 0.0
1.6202977108117953e7 -3.898427579393324e7 0.0
0.0 0.0 0.0

-3.2748501595541495e6 2.0906946215854872e7 0.0
2.0906946215854872e7 5.814468425426904e6 0.0
0.0 0.0 0.0

1.6337764202008424e6 5.318538387460164e6 0.0
5.318538387460164e6 -8.545043219370227e6 0.0
0.0 0.0 0.0

-5.224305425250853e7 3.190165228261979e7 0.0
3.190165228261979e7 -4.222132857749775e6 0.0
0.0 0.0 0.0

-446309.8759184964 8.76509041781932e6 0.0
8.76509041781932e6 -6.0456020680284716e7 0.0
0.0 0.0 0.0

-1.4275443091568383e6 1.017641744658634e7 0.0
1.017641744658634e7 -4.99775643985381e6 0.0
0.0 0.0 0.0

-9.229713736798044e6 1.6812232986483313e7 0.0
1.6812232986483313e7 -4.170097628663094e7 0.0
0.0 0.0 0.0

2.9008668590809405e6 4.557754512291873e6 0.0
4.557754512291873e6 -3.8315803112029605e7 0.0
0.0 0.0 0.0

2.328956821986261e7 3.409644462664975e7 0.0
3.409644462664975e7 -8.640991064259868e6 0.0
0.0 0.0 0.0

2.7785911900681797e6 9.858513967726827e6 0.0
9.858513967726827e6 -2.5661868134105474e7 0.0
0.0 0.0 0.0

-6.499737284667386e6 1.3147440407454306e7 0.0
1.3147440407454306e7 4.318840644924205e7 0.0
0.0 0.0 0.0

-8.1157573962921705e6 1.7936707771540873e7 0.0
1.7936707771540873e7 2.2378413639048584e7 0.0
0.0 0.0 0.0

-3.931650129272368e6 2.297640457364389e7 0.0
2.297640457364389e7 1.0890776313231952e7 0.0
0.0 0.0 0.0

-8.517019174672522e6 2.1669572256433748e7 0.0
2.1669572256433748e7 -8.735191201271154e6 0.0
0.0 0.0 0.0

-7.050951589088036e6 1.857720045579658e7 0.0
1.857720045579658e7 2.3059638617763698e7 0.0
0.0 0.0 0.0

-2.798483361249314e6 2.453300258457991e7 0.0
2.453300258457991e7 1.9175097686573113e6 0.0
0.0 0.0 0.0

1.0725700620979516e7 1.859492000900112e7 0.0
1.859492000900112e7 3.5752336827449895e7 0.0
0.0 0.0 0.0

-1.0267395167527035e7 -589436.5326427908 0.0
-589436.5326427908 1.6672992288392814e7 0.0
0.0 0.0 0.0

685684.5318820635 1.9950295666571304e7 0.0
1.9950295666571304e7 -1.370836485366079e7 0.0
0.0 0.0 0.0

-3.1956603269865215e6 1.2397635946569089e7 0.0
1.2397635946569089e7 -6.785538424905078e7 0.0
0.0 0.0 0.0

-8.820922830059882e6 3.3450571180796076e7 0.0
3.3450571180796076e7 5.734927116202609e6 0.0
0.0 0.0 0.0

2.767792135535916e6 2.5917226146003865e7 0.0
2.5917226146003865e7 -6.285151566984438e6 0.0
0.0 0.0 0.0

2.8531824608637732e6 2.0427511419199035e7 0.0
2.0427511419199035e7 2.436004085696608e6 0.0
0.0 0.0 0.0

-7.998939649229104e6 1.785852931347753e7 0.0
1.785852931347753e7 2.3738239125180934e7 0.0
0.0 0.0 0.0

-2.0140415365385633e7 3.3792829401064426e7 0.0
3.3792829401064426e7 6.80959761220113e6 0.0
0.0 0.0 0.0

1.0594715269847047e6 2.2328303833531797e7 0.0
2.2328303833531797e7 -9.851698033182085e6 0.0
0.0 0.0 0.0

-4.455086194213124e6 1.6288416575963981e7 0.0
1.6288416575963981e7 -3.109318909206081e7 0.0
0.0 0.0 0.0

-1.5240494526286583e7 3.582478489281741e7 0.0
3.582478489281741e7 5.638261661951908e6 0.0
0.0 0.0 0.0

3.2878222058717996e7 3.1419236994269773e7 0.0
3.1419236994269773e7 -9.67632567349444e6 0.0
0.0 0.0 0.0

2.144007176281835e6 1.9450308493677076e7 0.0
1.9450308493677076e7 3.6931132172227926e6 0.0
0.0 0.0 0.0

2.0047472134226887e6 1.1649080840861576e7 0.0
1.1649080840861576e7 -2.292330274889917e7 0.0
0.0 0.0 0.0

-1.1625851602496285e7 1.858756566810571e7 0.0
1.858756566810571e7 -4.555130544236125e7 0.0
0.0 0.0 0.0

1.4900507821013395e7 3.061110998896248e7 0.0
3.061110998896248e7 -5.955519279970058e6 0.0
0.0 0.0 0.0

-534163.4871604964 1.8528509285666768e7 0.0
1.8528509285666768e7 -1.4109124223431364e7 0.0
0.0 0.0 0.0

170734.47919687605 2.8334086564511754e7 0.0
2.8334086564511754e7 -3.0682296095915525e6 0.0
0.0 0.0 0.0

-1.944548713051226e6 1.1487145210837157e7 0.0
1.1487145210837157e7 -5.6793844926062934e7 0.0
0.0 0.0 0.0

1.0853757888801638e6 1.8761038054376308e7 0.0
1.8761038054376308e7 7.779511716362464e6 0.0
0.0 0.0 0.0

-2.425257190161275e7 3.0860502082138624e7 0.0
3.0860502082138624e7 6.421167927424779e6 0.0
0.0 0.0 0.0

-2.220213600496835e6 2.4980370397080027e7 0.0
2.4980370397080027e7 2.563788633540705e6 0.0
0.0 0.0 0.0

2.2786072899736553e7 2.0273218329238642e7 0.0
2.0273218329238642e7 8.336810907834408e6 0.0
0.0 0.0 0.0

-3.4025887116795955e6 3.2060707901792895e7 0.0
3.2060707901792895e7 1.4638563217858844e6 0.0
0.0 0.0 0.0

2.995595381606931e6 1.8622950528381582e7 0.0
1.8622950528381582e7 1.2411305613807406e7 0.0
0.0 0.0 0.0

-1.1433867549572156e6 3.184217312338089e6 0.0
3.184217312338089e6 -1.0118306388723734e6 0.0
0.0 0.0 0.0

8.958660046291836e6 3.2609598242658086e7 0.0
3.2609598242658086e7 -4.474456123613887e6 0.0
0.0 0.0 0.0

-87654.30899829976 1.798894148615186e7 0.0
1.798894148615186e7 -1.9489869494014233e7 0.0
0.0 0.0 0.0

2.644439046592487e6 3.701573875191009e6 0.0
3.701573875191009e6 -4.7781505415167525e7 0.0
0.0 0.0 0.0

-229273.76402060967 1.1168952183485873e7 0.0
1.1168952183485873e7 -7.199351252440644e6 0.0
0.0 0.0 0.0

1.7697927668893551e6 6.57069330762293e6 0.0
6.57069330762293e6 -8.73791863460416e6 0.0
0.0 0.0 0.0

1.1290224875423498e6 1.461515876018189e7 0.0
1.461515876018189e7 -1.6265228352803677e7 0.0
0.0 0.0 0.0

-2.1126039502493758e7 2.9067352637576465e7 0.0
2.9067352637576465e7 5.413183836399527e6 0.0
0.0 0.0 0.0

-2.7907755802960484e6 2.0986992815667633e7 0.0
2.0986992815667633e7 3.2021288418818857e6 0.0
0.0 0.0 0.0

4.5994608977039475e6 2.369292331429992e7 0.0
2.369292331429992e7 -6.100155976202082e6 0.0
0.0 0.0 0.0

3.056949717740493e6 5.842886118294819e6 0.0
5.842886118294819e6 -3.752439437452438e7 0.0
0.0 0.0 0.0

-327333.15097590955 2.0312978296295095e7 0.0
2.0312978296295095e7 -9.380512602212353e6 0.0
0.0 0.0 0.0

-97787.70712563954 1.713226276564828e7 0.0
1.713226276564828e7 -1.4127327993530102e7 0.0
0.0 0.0 0.0

-1.246586540272485e7 2.383177120837994e7 0.0
2.383177120837994e7 -1.0324197298232283e7 0.0
0.0 0.0 0.0

1.322240625476225e7 2.8318531817779116e7 0.0
2.8318531817779116e7 -5.8631965376169495e6 0.0
0.0 0.0 0.0

-4.690221338960547e6 2.4228775395944104e7 0.0
2.4228775395944104e7 1.0181421655226864e7 0.0
0.0 0.0 0.0

2.5759869773660423e6 1.9516777637663458e7 0.0
1.9516777637663458e7 1.2512077815884642e7 0.0
0.0 0.0 0.0

3.482141337399058e6 1.7747513867866375e7 0.0
1.7747513867866375e7 7.127656300961962e7 0.0
0.0 0.0 0.0

-3.9598312206417997e6 3.550606339775411e7 0.0
3.550606339775411e7 3.4473506361108534e6 0.0
0.0 0.0 0.0

1.034106906352533e6 2.048158955492949e7 0.0
2.048158955492949e7 -9.227713142759524e6 0.0
0.0 0.0 0.0

2.3135605896138065e6 1.0521705596161874e7 0.0
1.0521705596161874e7 -2.9768149098954134e7 0.0
0.0 0.0 0.0

2.386626597759351e6 9.688361549600638e6 0.0
9.688361549600638e6 -3.1373809461571522e7 0.0
0.0 0.0 0.0

4.01807683721802e6 3.2371215745460545e6 0.0
3.2371215745460545e6 -2.6792521348940548e7 0.0
0.0 0.0 0.0

-3.31266625370592e6 2.3526422049433805e7 0.0
2.3526422049433805e7 9.985396527860412e6 0.0
0.0 0.0 0.0

3.6590684894257244e6 3.4970990284833387e6 0.0
3.4970990284833387e6 -2.671314494064103e7 0.0
0.0 0.0 0.0

-1.0342345517406877e7 2.60321444406166e6 0.0
2.60321444406166e6 3.3839430038499184e7 0.0
0.0 0.0 0.0

-3.902475357511105e6 2.137675996471859e7 0.0
2.137675996471859e7 1.5933663731004145e7 0.0
0.0 0.0 0.0

-2.0847793828467757e6 1.0724315317886535e7 0.0
1.0724315317886535e7 -3.5704770904238233e6 0.0
0.0 0.0 0.0

1.934664633569945e6 2.6473010266058583e7 0.0
2.6473010266058583e7 -5.831447715381341e6 0.0
0.0 0.0 0.0

5.45552487938487e6 2.9639952141313683e7 0.0
2.9639952141313683e7 -4.0866308949521235e6 0.0
0.0 0.0 0.0

1.380734347389277e6 1.5901763857823538e7 0.0
1.5901763857823538e7 3.270445009997259e6 0.0
0.0 0.0 0.0

-1.1137522938954644e6 1.1612001736810569e7 0.0
1.1612001736810569e7 -4.880304453351751e7 0.0
0.0 0.0 0.0

3.1764714300837647e6 4.220483068088226e6 0.0
4.220483068088226e6 -4.120599486949531e7 0.0
0.0 0.0 0.0

-4.7684572449644275e7 3.653437476988826e7 0.0
3.653437476988826e7 -1.0638506853314493e7 0.0
0.0 0.0 0.0

2.2543363620413065e7 2.3854087014653865e7 0.0
2.3854087014653865e7 1.0990132406352412e7 0.0
0.0 0.0 0.0

4.288637968595477e6 2.920044259540603e7 0.0
2.920044259540603e7 -4.049903718720849e6 0.0
0.0 0.0 0.0

-628202.457074876 1.9095260908955522e7 0.0
1.9095260908955522e7 1.8407586637001846e7 0.0
0.0 0.0 0.0

1.066227152639085e6 1.7470161830835655e7 0.0
1.7470161830835655e7 3.5566919831349817e6 0.0
0.0 0.0 0.0

-9.821528030604497e6 7.563264133986545e6 0.0
7.563264133986545e6 3.94808690064734e7 0.0
0.0 0.0 0.0

-1.1120975692763833e7 3.019697655331587e7 0.0
3.019697655331587e7 5.68574201390566e6 0.0
0.0 0.0 0.0

-1.110190911806514e6 1.4512477962045921e7 0.0
1.4512477962045921e7 -8.937953448499711e6 0.0
0.0 0.0 0.0

-1.0971309915956974e7 1.3149276560279045e6 0.0
1.3149276560279045e6 2.655699928635343e7 0.0
0.0 0.0 0.0

-760021.8702721186 1.2409027210534656e7 0.0
1.2409027210534656e7 8.601655502849826e7 0.0
0.0 0.0 0.0

683329.3010081835 2.0540690517527953e7 0.0
2.0540690517527953e7 -1.269699355993728e7 0.0
0.0 0.0 0.0

2.580839602868347e6 4.447011309074508e6 0.0
4.447011309074508e6 -9.214139083579844e6 0.0
0.0 0.0 0.0

-6.630281395422194e6 8.589739982052483e6 0.0
8.589739982052483e6 5.677860047876854e7 0.0
0.0 0.0 0.0

3.5875964517666977e6 3.4073386081364974e6 0.0
3.4073386081364974e6 -3.381963841254005e7 0.0
0.0 0.0 0.0

-6.304965737717097e6 2.1346234234203402e7 0.0
2.1346234234203402e7 -1.172689587250826e7 0.0
0.0 0.0 0.0

-2.0670009005889744e7 2.5849099405499388e7 0.0
2.5849099405499388e7 -1.105338796363701e7 0.0
0.0 0.0 0.0

45607.263575188816 1.86245714086516e7 0.0
1.86245714086516e7 -1.638190903406927e7 0.0
0.0 0.0 0.0

-3.1376915848700637e6 1.1535403090764377e7 0.0
1.1535403090764377e7 3.709272703999791e6 0.0
0.0 0.0 0.0

-4.99266827510838e6 2.1872509008086983e7 0.0
2.1872509008086983e7 846122.2145346655 0.0
0.0 0.0 0.0

1.6863379922592774e7 2.7398141448935688e7 0.0
2.7398141448935688e7 -5.654382081841743e6 0.0
0.0 0.0 0.0

-8.074608060455857e6 -3.944368823943991e6 0.0
-3.944368823943991e6 1.6670961812156014e7 0.0
0.0 0.0 0.0

1.033140889458372e7 2.0250556041021354e7 0.0
2.0250556041021354e7 6.262510753172401e6 0.0
0.0 0.0 0.0

1.6047869339512434e7 3.548593691360502e7 0.0
3.548593691360502e7 -8.142616560230393e6 0.0
0.0 0.0 0.0

3.824970061218977e6 3.4611822112746565e6 0.0
3.4611822112746565e6 -2.9997556425675496e7 0.0
0.0 0.0 0.0

-3.8008417102557565e6 1.8502486491742756e7 0.0
1.8502486491742756e7 4.077455005182947e6 0.0
0.0 0.0 0.0

1.0100162117576454e7 1.9881956593930576e7 0.0
1.9881956593930576e7 4.057273247659709e7 0.0
0.0 0.0 0.0

5.71002469009713e7 7.029918431470175e6 0.0
7.029918431470175e6 -940798.875784345 0.0
0.0 0.0 0.0

-2.706225168902875e7 2.7982747521821667e7 0.0
2.7982747521821667e7 -9.986568770943593e6 0.0
0.0 0.0 0.0

-2.953713744477352e6 2.4146892585282125e7 0.0
2.4146892585282125e7 2.8498663329584245e6 0.0
0.0 0.0 0.0

-651994.7551218737 1.183294463822049e7 0.0
1.183294463822049e7 -4.26485521918936e7 0.0
0.0 0.0 0.0

-1.5825462736374712e7 2.8566616896575123e7 0.0
2.8566616896575123e7 5.494203046780844e6 0.0
0.0 0.0 0.0

8.775522715852568e6 2.0688317015490755e7 0.0
2.0688317015490755e7 8.15240133847837e6 0.0
0.0 0.0 0.0

-3.9849431919798367e6 8.250661838999848e6 0.0
8.250661838999848e6 6.894696758428669e7 0.0
0.0 0.0 0.0

-4.655442387392648e6 2.274087414665823e7 0.0
2.274087414665823e7 1.1017962697272269e7 0.0
0.0 0.0 0.0

3.171130937435234e6 1.7662051335964512e7 0.0
1.7662051335964512e7 1.6040981621384302e7 0.0
0.0 0.0 0.0

-847793.4302472132 1.8784484272230543e7 0.0
1.8784484272230543e7 -1.0669994298098087e7 0.0
0.0 0.0 0.0

7.301966053019644e6 2.16906389486226e7 0.0
2.16906389486226e7 -1.6669545641998472e6 0.0
0.0 0.0 0.0

2.0669125535394666e6 2.1073869434951875e7 0.0
2.1073869434951875e7 -6.565751563706562e6 0.0
0.0 0.0 0.0

-2.8306546739995517e6 1.4399435026808655e7 0.0
1.4399435026808655e7 -2.9856676440307307e6 0.0
0.0 0.0 0.0

1.3236588574467432e6 1.884509396443353e7 0.0
1.884509396443353e7 2.11411792814672e7 0.0
0.0 0.0 0.0

927889.7754184498 1.8383520698324356e7 0.0
1.8383520698324356e7 2.5155930040358715e6 0.0
0.0 0.0 0.0

207626.4851549978 1.7909779221766286e7 0.0
1.7909779221766286e7 -3.5666169868738134e6 0.0
0.0 0.0 0.0

-4.623752667687152e6 1.6541632728103071e7 0.0
1.6541632728103071e7 -2.731911103567742e7 0.0
0.0 0.0 0.0

-2.805315869234817e6 2.6754865055229463e7 0.0
2.6754865055229463e7 4.428279209991049e6 0.0
0.0 0.0 0.0

-1.8265470849548843e7 2.4491313708271064e7 0.0
2.4491313708271064e7 -1.0433135431318315e7 0.0
0.0 0.0 0.0

-9.174779549419133e6 3.105195986431185e7 0.0
3.105195986431185e7 5.084636365644281e6 0.0
0.0 0.0 0.0

-1.1917732397826929e6 1.990487214987997e7 0.0
1.990487214987997e7 1.3352591223248526e7 0.0
0.0 0.0 0.0

3.34398367309751e6 6.339662411301396e6 0.0
6.339662411301396e6 -3.0203522230914686e7 0.0
0.0 0.0 0.0

505025.6659979522 1.9976358000607297e7 0.0
1.9976358000607297e7 -1.3647953597122777e7 0.0
0.0 0.0 0.0

1.3844275451623926e7 2.809675538728086e7 0.0
2.809675538728086e7 -5.518271237802863e6 0.0
0.0 0.0 0.0

-1.0427142151286094e7 1.5560054555284367e6 0.0
1.5560054555284367e6 3.112034499979961e7 0.0
0.0 0.0 0.0

-4.262449073923336e6 2.2018331965285905e7 0.0
2.2018331965285905e7 7.820240551382583e6 0.0
0.0 0.0 0.0

1.466149213642021e6 2.0240182076139014e7 0.0
2.0240182076139014e7 2.032952250661231e6 0.0
0.0 0.0 0.0

7.898359707469799e6 2.268211873150229e7 0.0
2.268211873150229e7 -3.3824403630960803e6 0.0
0.0 0.0 0.0

-1.1114222418669522e7 7.68071687659764e6 0.0
7.68071687659764e6 2.9306261959980056e7 0.0
0.0 0.0 0.0

5.1701314409586275e6 1.7289120445940405e7 0.0
1.7289120445940405e7 2.1785827831402786e7 0.0
0.0 0.0 0.0

-7.902952253264061e6 2.1019619803918917e7 0.0
2.1019619803918917e7 -1.0991261608997244e7 0.0
0.0 0.0 0.0

-229686.0810534181 1.6302447252912045e7 0.0
1.6302447252912045e7 -2.4952543785551798e7 0.0
0.0 0.0 0.0

7.915353300317347e6 3.4600065226414025e7 0.0
3.4600065226414025e7 -3.567133244157002e6 0.0
0.0 0.0 0.0

-8.800015945254903e6 3.215152645788159e7 0.0
3.215152645788159e7 4.48847034529328e6 0.0
0.0 0.0 0.0

-1.1488942171694838e7 8.786337608243655e6 0.0
8.786337608243655e6 2.5533125220123105e7 0.0
0.0 0.0 0.0

-7.84029360930777e6 2.256055453865404e7 0.0
2.256055453865404e7 -6.276044717529416e6 0.0
0.0 0.0 0.0

-6.577489812306255e6 3.2477587110149533e7 0.0
3.2477587110149533e7 3.4840966948952936e6 0.0
0.0 0.0 0.0

-7.225697758367818e6 3.1546328916488413e7 0.0
3.1546328916488413e7 4.201096434252478e6 0.0
0.0 0.0 0.0

3.183019828770359e6 1.6819390240185168e7 0.0
1.6819390240185168e7 1.330938233343688e7 0.0
0.0 0.0 0.0

1.9979067826267742e6 1.3081210858031346e7 0.0
1.3081210858031346e7 -2.079295067087549e7 0.0
0.0 0.0 0.0

5.111713538427608e7 3.175402401218102e7 0.0
3.175402401218102e7 2.13946798855385e7 0.0
0.0 0.0 0.0

-3.694638256453692e7 2.812111437629697e6 0.0
2.812111437629697e6 7.404132286293577e6 0.0
0.0 0.0 0.0

-1.7546881941670332e7 2.7809582358830594e7 0.0
2.7809582358830594e7 4.269910912484165e6 0.0
0.0 0.0 0.0

3.1522364896391965e6 3.2187003607377643e6 0.0
3.2187003607377643e6 -3.368781730738906e7 0.0
0.0 0.0 0.0

-360996.76002215967 1.9726742118442845e7 0.0
1.9726742118442845e7 -1.2154973625892466e7 0.0
0.0 0.0 0.0

-1.3011744221183686e7 2.89274366811324e7 0.0
2.89274366811324e7 5.901258925770785e6 0.0
0.0 0.0 0.0

-1.0955737232307883e7 5.1246527888728175e6 0.0
5.1246527888728175e6 3.2623059590182297e7 0.0
0.0 0.0 0.0

1.9139040146785267e6 1.0262410341231378e7 0.0
1.0262410341231378e7 -2.7924690494786546e7 0.0
0.0 0.0 0.0

-5.9264462879685825e6 1.606636672244277e7 0.0
1.606636672244277e7 -2.222272887122862e7 0.0
0.0 0.0 0.0

8.912923932914466e6 2.1658814941087622e7 0.0
2.1658814941087622e7 8.285878662295731e6 0.0
0.0 0.0 0.0

-3.650659478344261e7 3.0053342422581714e7 0.0
3.0053342422581714e7 -7.712762516117724e6 0.0
0.0 0.0 0.0

-4.032889586898432e6 1.2658569946501112e7 0.0
1.2658569946501112e7 1.1696507735773253e6 0.0
0.0 0.0 0.0

-9.844175923076088e6 2.7879852542121183e7 0.0
2.7879852542121183e7 6.099111879204535e6 0.0
0.0 0.0 0.0

-2.3143997217173576e6 2.771456369892154e7 0.0
2.771456369892154e7 2.88888698235962e6 0.0
0.0 0.0 0.0

-7.987817832295957e6 5.986620707123366e6 0.0
5.986620707123366e6 1.846928871511276e7 0.0
0.0 0.0 0.0

-8.740537458781905e6 -1.2426326596045825e6 0.0
-1.2426326596045825e6 1.7704882486447267e7 0.0
0.0 0.0 0.0

1.266986736704466e6 1.344679327499713e7 0.0
1.344679327499713e7 -2.138470077590468e7 0.0
0.0 0.0 0.0

-1.0409746367867121e7 3.8470200405647587e6 0.0
3.8470200405647587e6 3.2565659633891456e7 0.0
0.0 0.0 0.0

486533.15974472463 1.6711235155860545e7 0.0
1.6711235155860545e7 -1.958350122629954e7 0.0
0.0 0.0 0.0

7.512052698527173e6 2.0474238032275505e7 0.0
2.0474238032275505e7 -275014.24522959394 0.0
0.0 0.0 0.0

905922.0572019122 9.253682716968628e6 0.0
9.253682716968628e6 -1.1622510017028347e7 0.0
0.0 0.0 0.0

-1.859715735438594e7 2.778331676344424e7 0.0
2.778331676344424e7 4.282488141982194e6 0.0
0.0 0.0 0.0

-1.10021821836126e7 2.397631000930222e7 0.0
2.397631000930222e7 -1.047889831743352e7 0.0
0.0 0.0 0.0

524693.3253401015 1.6961128215222735e7 0.0
1.6961128215222735e7 1.748978679249452e6 0.0
0.0 0.0 0.0

-438700.6114744147 1.7170975865037795e7 0.0
1.7170975865037795e7 -1.4623360699949318e6 0.0
0.0 0.0 0.0

1.808051188107675e6 1.3754096727769926e7 0.0
1.3754096727769926e7 -1.9668382586843755e7 0.0
0.0 0.0 0.0

-5.396220976243835e6 1.674384056094161e7 0.0
1.674384056094161e7 -2.17817198283732e7 0.0
0.0 0.0 0.0

-1.0922961322882293e7 555994.2649030213 0.0
555994.2649030213 2.3701071162103094e7 0.0
0.0 0.0 0.0

-4.046863191512177e6 1.38732103610364e7 0.0
1.38732103610364e7 7.091639652798231e6 0.0
0.0 0.0 0.0

1.1216758387015206e6 2.202534561146923e7 0.0
2.202534561146923e7 -1.0057568130192712e7 0.0
0.0 0.0 0.0

2.7728010428714743e6 7.229382416651052e6 0.0
7.229382416651052e6 -2.1424227610367075e7 0.0
0.0 0.0 0.0

-3.9602686986524515e7 2.647305063067785e7 0.0
2.647305063067785e7 -4.2331230134258475e6 0.0
0.0 0.0 0.0

5.706443789383881e6 2.1466211751946405e7 0.0
2.1466211751946405e7 -1.900528587772036e6 0.0
0.0 0.0 0.0

2.2484040415314265e7 2.003667867526581e7 0.0
2.003667867526581e7 3.594606378486708e6 0.0
0.0 0.0 0.0

-9.582142661959533e6 3.5824171614735514e7 0.0
3.5824171614735514e7 5.709808150630942e6 0.0
0.0 0.0 0.0

-1.076288675019981e7 3.548671833864835e6 0.0
3.548671833864835e6 2.1050497017267477e7 0.0
0.0 0.0 0.0

-362080.721572686 1.773940783996715e7 0.0
1.773940783996715e7 -1.2969258803191999e7 0.0
0.0 0.0 0.0

-9.591068896775166e6 2.240969496248627e7 0.0
2.240969496248627e7 -5.745943917298068e6 0.0
0.0 0.0 0.0

-1.9907656075555205e7 3.120434938029955e7 0.0
3.120434938029955e7 6.064598423079838e6 0.0
0.0 0.0 0.0

-6.907985009822564e6 1.7424659935711864e7 0.0
1.7424659935711864e7 -3.446618368739263e7 0.0
0.0 0.0 0.0

1.7322277903192851e6 1.819170332448232e7 0.0
1.819170332448232e7 8.726518913742416e6 0.0
0.0 0.0 0.0

-4.4952187369534e6 1.6560791849496491e7 0.0
1.6560791849496491e7 -2.3855527049040493e7 0.0
0.0 0.0 0.0

-1.4640487246733267e7 3.401704601411623e7 0.0
3.401704601411623e7 6.466040748021185e6 0.0
0.0 0.0 0.0

686021.6555439802 2.45344950628256e7 0.0
2.45344950628256e7 -7.289156128035629e6 0.0
0.0 0.0 0.0

-7.036491911655733e6 2.279366857577599e7 0.0
2.279366857577599e7 -656449.1868422604 0.0
0.0 0.0 0.0

1.9566663945503961e6 1.1258227956126565e7 0.0
1.1258227956126565e7 -3.026360420882128e7 0.0
0.0 0.0 0.0

-1.0002822575083986e7 7.544321993800033e6 0.0
7.544321993800033e6 3.7132316738208584e7 0.0
0.0 0.0 0.0

-1.48150287332122e6 1.7820143600624703e7 0.0
1.7820143600624703e7 -8.692636468512308e6 0.0
0.0 0.0 0.0

7.967847462984217e6 2.1378710290110596e7 0.0
2.1378710290110596e7 -2.0629038360141157e6 0.0
0.0 0.0 0.0

-5.752992966492482e6 1.7527872184022956e7 0.0
1.7527872184022956e7 -2.886262676779522e7 0.0
0.0 0.0 0.0

-1.0690115202696035e7 2.769044829430694e7 0.0
2.769044829430694e7 5.788143810534747e6 0.0
0.0 0.0 0.0

2.534870253105506e7 3.3471120645629697e7 0.0
3.3471120645629697e7 -7.686510814159902e6 0.0
0.0 0.0 0.0

-6.538806094354804e6 2.2263804493904382e7 0.0
2.2263804493904382e7 -4.333949119120451e6 0.0
0.0 0.0 0.0

-1.1105546681770701e7 2.8945125847039957e7 0.0
2.8945125847039957e7 5.770286061221286e6 0.0
0.0 0.0 0.0

-7.14002748917207e6 1.8801274256449863e7 0.0
1.8801274256449863e7 1.9617161436518475e7 0.0
0.0 0.0 0.0

3.0706082009862578e6 2.039528422351202e7 0.0
2.039528422351202e7 -5.401867758798463e6 0.0
0.0 0.0 0.0

-3.30781104825392e6 2.6842076068808246e7 0.0
2.6842076068808246e7 5.220971418040965e6 0.0
0.0 0.0 0.0

-5.611168326400316e6 1.6372261549747111e7 0.0
1.6372261549747111e7 -3.300878599140295e7 0.0
0.0 0.0 0.0

3.103169812282929e6 4.991638398598405e6 0.0
4.991638398598405e6 -2.884340522324019e7 0.0
0.0 0.0 0.0

-5.693777243749744e6 1.7568735424394142e7 0.0
1.7568735424394142e7 -2.538165202060061e7 0.0
0.0 0.0 0.0

-4.485327237986301e6 2.9609120994697317e7 0.0
2.9609120994697317e7 3.4406277531431094e6 0.0
0.0 0.0 0.0

-3.1114052718240693e6 1.8428958798779774e7 0.0
1.8428958798779774e7 -1.0371350907939855e7 0.0
0.0 0.0 0.0

2.751749197671047e6 1.8441617990068737e7 0.0
1.8441617990068737e7 9.172497855048498e6 0.0
0.0 0.0 0.0

-8.628652132165978e6 1.6607109909741778e7 0.0
1.6607109909741778e7 2.752053235957943e7 0.0
0.0 0.0 0.0

-1.645949440478504e6 1.3909833083298376e7 0.0
1.3909833083298376e7 -2.205439713136982e6 0.0
0.0 0.0 0.0

1.1242733339403652e7 1.7794565197269525e7 0.0
1.7794565197269525e7 4.380087006507337e7 0.0
0.0 0.0 0.0

-1.0006146949390518e7 2.5386709410887244e6 0.0
2.5386709410887244e6 3.6716712064481385e7 0.0
0.0 0.0 0.0

2.6320926168881916e6 4.343014576257337e6 0.0
4.343014576257337e6 -4.085331602752081e7 0.0
0.0 0.0 0.0

-3.710541699562803e6 1.757188439159221e7 0.0
1.757188439159221e7 -2.6130993472105477e7 0.0
0.0 0.0 0.0

-9.43097247415035e6 2.903622461977795e7 0.0
2.903622461977795e7 5.734283762912829e6 0.0
0.0 0.0 0.0

2.7385192219117235e7 1.3713840388039006e7 0.0
1.3713840388039006e7 833999.0361908982 0.0
0.0 0.0 0.0

-1.172130229571077e7 6.130272603784122e6 0.0
6.130272603784122e6 2.7490386894294914e7 0.0
0.0 0.0 0.0

-2.3043985392351698e7 2.923391594922839e7 0.0
2.923391594922839e7 -1.1154345198456883e7 0.0
0.0 0.0 0.0

-3.777207917251913e6 2.146329599132381e7 0.0
2.146329599132381e7 8.128318032401614e6 0.0
0.0 0.0 0.0

-1.9621189152986027e7 3.391757912080462e7 0.0
3.391757912080462e7 6.987611908967334e6 0.0
0.0 0.0 0.0

2.4009748039411437e6 4.848076447677453e6 0.0
4.848076447677453e6 -4.214853085720869e7 0.0
0.0 0.0 0.0

5.346970643430309e6 2.852077384637009e7 0.0
2.852077384637009e7 -4.718354808461346e6 0.0
0.0 0.0 0.0

-5.077300187766939e6 1.2676261292005854e7 0.0
1.2676261292005854e7 5.180608771877096e7 0.0
0.0 0.0 0.0

-3.5495678034596923e6 2.5984463378189046e7 0.0
2.5984463378189046e7 7.270811244966162e6 0.0
0.0 0.0 0.0

-1.5068297748624186e6 1.7204901554100167e7 0.0
1.7204901554100167e7 -6.305797074144318e6 0.0
0.0 0.0 0.0

-6.7793127563964715e6 2.08927922567409e6 0.0
2.08927922567409e6 1.1204154174638493e7 0.0
0.0 0.0 0.0

4.177018655231692e6 1.890066790509486e7 0.0
1.890066790509486e7 1.4593477849532513e7 0.0
0.0 0.0 0.0

-4.652108539821658e6 2.245636151891005e7 0.0
2.245636151891005e7 9.632023782569978e6 0.0
0.0 0.0 0.0

1.5662513703576573e6 1.0011007776460506e7 0.0
1.0011007776460506e7 -1.0452385018868307e7 0.0
0.0 0.0 0.0

-3.2184111864994834e6 2.0541315840335727e7 0.0
2.0541315840335727e7 938191.6471620903 0.0
0.0 0.0 0.0

6.470089205959948e6 2.1012680199672002e7 0.0
2.1012680199672002e7 -2.5605333655117084e6 0.0
0.0 0.0 0.0

-2.4352090671019703e6 1.3975726694072643e7 0.0
1.3975726694072643e7 743697.2222235155 0.0
0.0 0.0 0.0

-3.5183306834364207e6 1.6216684034940064e7 0.0
1.6216684034940064e7 -2.927036262606801e7 0.0
0.0 0.0 0.0

-4.511616089864312e6 1.7387037786703102e7 0.0
1.7387037786703102e7 6.9769560492286645e6 0.0
0.0 0.0 0.0

-6.606200385663188e6 1.876294840344875e7 0.0
1.876294840344875e7 2.3029946478645287e7 0.0
0.0 0.0 0.0

-1.0059567305585619e7 440554.20979109587 0.0
440554.20979109587 2.671370195840799e7 0.0
0.0 0.0 0.0

-1.1619694371586533e7 2.2877622767672505e7 0.0
2.2877622767672505e7 171037.80152583309 0.0
0.0 0.0 0.0

-6.907263331814418e6 2.7379192983246822e7 0.0
2.7379192983246822e7 6.599639933469443e6 0.0
0.0 0.0 0.0

1.0496333660708752e7 2.8774500780975822e7 0.0
2.8774500780975822e7 -5.586469104830686e6 0.0
0.0 0.0 0.0

-1.1290690104605496e7 5.703785049786461e6 0.0
5.703785049786461e6 2.9946793472184956e7 0.0
0.0 0.0 0.0

-4.52050331816107e6 1.7064478727842502e7 0.0
1.7064478727842502e7 -3.0534704407315366e7 0.0
0.0 0.0 0.0

-4.4994836938814595e6 2.7215026186379492e7 0.0
2.7215026186379492e7 6.514547306356236e6 0.0
0.0 0.0 0.0

545685.9762879242 1.8974869604986005e7 0.0
1.8974869604986005e7 -7.742897148911896e6 0.0
0.0 0.0 0.0

-1.5916577871835446e6 1.514283702102091e7 0.0
1.514283702102091e7 -7.62397655154177e6 0.0
0.0 0.0 0.0

-9.969454217548287e6 1.2399235621520702e6 0.0
1.2399235621520702e6 1.892704882850162e7 0.0
0.0 0.0 0.0

-9.0579790991684e6 3.0155339926175408e7 0.0
3.0155339926175408e7 5.713992445069769e6 0.0
0.0 0.0 0.0

-1.9330197475186128e6 2.2759482457714204e7 0.0
2.2759482457714204e7 -411205.6753028375 0.0
0.0 0.0 0.0

3.3033537681006817e6 2.0115091204517405e7 0.0
2.0115091204517405e7 1.3579267340628864e7 0.0
0.0 0.0 0.0

-1.6696606692110214e6 2.716187447677135e6 0.0
2.716187447677135e6 3.6961797597905598e6 0.0
0.0 0.0 0.0

3.9295419747201568e6 2.0191438851595953e7 0.0
2.0191438851595953e7 4.495984480968652e6 0.0
0.0 0.0 0.0

-204250.8800000623 8.992220546871431e6 0.0
8.992220546871431e6 -5.572800035512489e7 0.0
0.0 0.0 0.0

5.728141551843027e6 3.253141933648064e7 0.0
3.253141933648064e7 -4.51340626593793e6 0.0
0.0 0.0 0.0

-5.119470826825327e6 2.345383352460357e7 0.0
2.345383352460357e7 1.0380973425010052e7 0.0
0.0 0.0 0.0

-1.039077916957902e7 9.583303232965954e6 0.0
9.583303232965954e6 1.3848053781033121e7 0.0
0.0 0.0 0.0

-1.2123593937942944e6 1.9873909634624947e7 0.0
1.9873909634624947e7 -3.1537978267871193e6 0.0
0.0 0.0 0.0

-427318.3743884396 1.1117552757343827e7 0.0
1.1117552757343827e7 -5.1876706908401564e7 0.0
0.0 0.0 0.0

-779189.3774231188 1.6860076024443086e7 0.0
1.6860076024443086e7 -2.2518050888631392e7 0.0
0.0 0.0 0.0

-9.267611360910226e6 3.354055142673671e7 0.0
3.354055142673671e7 4.137809668270851e6 0.0
0.0 0.0 0.0

-2.421342919600108e6 1.8147749501292165e7 0.0
1.8147749501292165e7 -8.071144047539909e6 0.0
0.0 0.0 0.0

-4.726845619689612e6 2.1848290726081155e7 0.0
2.1848290726081155e7 -1.1428759528327724e7 0.0
0.0 0.0 0.0

-2.639215125945515e6 2.356739326866474e7 0.0
2.356739326866474e7 5.511863959838992e6 0.0
0.0 0.0 0.0

522665.7910451675 1.778469429495058e7 0.0
1.778469429495058e7 -1.3091206161137268e7 0.0
0.0 0.0 0.0

6.911583389707868e6 2.147158640119023e7 0.0
2.147158640119023e7 6.896637718108585e6 0.0
0.0 0.0 0.0

-7.823039223613061e6 2.262927030029474e7 0.0
2.262927030029474e7 -1.1127562430829732e7 0.0
0.0 0.0 0.0

-2.3142769994381797e6 2.086346398588347e7 0.0
2.086346398588347e7 5.7087191584328925e6 0.0
0.0 0.0 0.0

-5.891346367517374e6 9.113085584858874e6 0.0
9.113085584858874e6 5.758708988531054e7 0.0
0.0 0.0 0.0

-514716.38028615806 1.4724154207544984e7 0.0
1.4724154207544984e7 -6.964623813909912e6 0.0
0.0 0.0 0.0

-6.730155953369551e6 1.5380104282605538e7 0.0
1.5380104282605538e7 -2.356632493119645e7 0.0
0.0 0.0 0.0

441659.5067116562 1.946516836900066e7 0.0
1.946516836900066e7 -1.4978986252510428e7 0.0
0.0 0.0 0.0

-5.380587996522963e6 1.9709828067943506e7 0.0
1.9709828067943506e7 -1.457869909076274e7 0.0
0.0 0.0 0.0

-3.8241277365715727e6 2.193944366568405e7 0.0
2.193944366568405e7 1.003341357881407e7 0.0
0.0 0.0 0.0

499816.2541204044 1.6889233488371164e7 0.0
1.6889233488371164e7 1.6660542424674411e6 0.0
0.0 0.0 0.0

-2.7292716515080007e6 2.7940689672770616e7 0.0
2.7940689672770616e7 3.735992740370987e6 0.0
0.0 0.0 0.0

-3.319817237366265e6 2.121163065769648e7 0.0
2.121163065769648e7 734409.6320010971 0.0
0.0 0.0 0.0

-7.387390755373128e6 2.598485166897065e6 0.0
2.598485166897065e6 5.6413902856243156e7 0.0
0.0 0.0 0.0

-1.2295276775573475e7 9.896708148377234e6 0.0
9.896708148377234e6 2.3324074746730737e7 0.0
0.0 0.0 0.0

1.2555176621231781e6 1.939844750600232e7 0.0
1.939844750600232e7 -6.81113319762424e6 0.0
0.0 0.0 0.0

-2.447830426793026e7 2.764655757659563e7 0.0
2.764655757659563e7 3.1384020906569287e6 0.0
0.0 0.0 0.0

-1.1267446577067371e7 1.7990960469233305e6 0.0
1.7990960469233305e6 1.850035102833088e7 0.0
0.0 0.0 0.0

-8.487792267294038e6 7.407153511469168e6 0.0
7.407153511469168e6 4.665188303546186e7 0.0
0.0 0.0 0.0

-2.59956594320511e6 1.1484189578539971e6 0.0
1.1484189578539971e6 5.031517459559817e6 0.0
0.0 0.0 0.0

-4.88724187809492e6 4.822054253560078e6 0.0
4.822054253560078e6 49840.43139834865 0.0
0.0 0.0 0.0

1.7045793472301355e6 1.1851075727733867e7 0.0
1.1851075727733867e7 -2.154356089868184e7 0.0
0.0 0.0 0.0

-2.569435227982183e6 2.3116009451543823e7 0.0
2.3116009451543823e7 -1.0434053804974644e6 0.0
0.0 0.0 0.0

-6.375089653362171e6 1.956349215816949e7 0.0
1.956349215816949e7 -1.3985128075700017e7 0.0
0.0 0.0 0.0

-3.5918343942178665e6 2.1613819230807178e7 0.0
2.1613819230807178e7 1.3249977667936424e7 0.0
0.0 0.0 0.0

-3.7121795229017916e6 1.6740094201931596e7 0.0
1.6740094201931596e7 -2.2234359269135334e7 0.0
0.0 0.0 0.0

1.8740405035667447e6 1.9663430773255367e7 0.0
1.9663430773255367e7 1.224434467193133e7 0.0
0.0 0.0 0.0

-9.624650656317417e6 1.5920616483857002e7 0.0
1.5920616483857002e7 -3.465664038166628e7 0.0
0.0 0.0 0.0

-3.951205709367856e6 2.112043699036751e7 0.0
2.112043699036751e7 3.483087011205976e6 0.0
0.0 0.0 0.0

-2.147565455212444e6 1.1637735679969924e7 0.0
1.1637735679969924e7 -6.141542802405998e7 0.0
0.0 0.0 0.0

-69275.84712719359 1.1583882419745553e7 0.0
1.1583882419745553e7 -4.530132679048607e7 0.0
0.0 0.0 0.0

-3.6350741465504332e6 2.1015908593608815e7 0.0
2.1015908593608815e7 -1.0847809343734493e7 0.0
0.0 0.0 0.0

-1.4373578371656038e7 2.5196681585255146e7 0.0
2.5196681585255146e7 -1.0217652197009552e7 0.0
0.0 0.0 0.0

-1.1858423291316733e7 2.7725902876016147e7 0.0
2.7725902876016147e7 5.797270139384253e6 0.0
0.0 0.0 0.0

-5.044705456145527e6 1.4494466695810514e7 0.0
1.4494466695810514e7 5.98583721792183e6 0.0
0.0 0.0 0.0

-2.6150478296212656e6 6.4165356326898765e6 0.0
6.4165356326898765e6 7.591877837219895e6 0.0
0.0 0.0 0.0

281428.2458160878 1.8581289150288634e7 0.0
1.8581289150288634e7 -6.185351724196199e6 0.0
0.0 0.0 0.0

9.098735433182854e6 2.2122018812602203e7 0.0
2.2122018812602203e7 -1.8633086458524056e6 0.0
0.0 0.0 0.0

-4.1059291222443655e6 1.329502496627288e7 0.0
1.329502496627288e7 5.267852189646908e7 0.0
0.0 0.0 0.0

-1.5573384970627734e6 2.0441308822633512e7 0.0
2.0441308822633512e7 1.0769090371266259e7 0.0
0.0 0.0 0.0

-6.973414504148971e6 2.7426029422416426e7 0.0
2.7426029422416426e7 6.689374814814597e6 0.0
0.0 0.0 0.0

-3.837291761491126e6 1.689671582134002e7 0.0
1.689671582134002e7 -1.402316906128143e7 0.0
0.0 0.0 0.0

-7.957973243592126e6 1.0685695939562382e7 0.0
1.0685695939562382e7 4.359298493790853e7 0.0
0.0 0.0 0.0

-2.1003792531779334e6 2.0162955438125536e7 0.0
2.0162955438125536e7 6.09733152641485e6 0.0
0.0 0.0 0.0

224098.7346735634 1.9355111771466628e7 0.0
1.9355111771466628e7 -1.4854054373801205e7 0.0
0.0 0.0 0.0

-816192.9260108247 1.5744850230983336e7 0.0
1.5744850230983336e7 -2.6502714234991662e7 0.0
0.0 0.0 0.0

326472.18222859316 1.0408542899555268e7 0.0
1.0408542899555268e7 -4.313360396984605e7 0.0
0.0 0.0 0.0

927607.0328741521 1.1233761342164341e7 0.0
1.1233761342164341e7 -3.46656414062898e7 0.0
0.0 0.0 0.0

-9.765434589298628e6 1.8318070885584608e7 0.0
1.8318070885584608e7 -4.921236179686128e7 0.0
0.0 0.0 0.0

-3.0477049916112376e6 2.739015164334425e7 0.0
2.739015164334425e7 4.473703430683629e6 0.0
0.0 0.0 0.0

-5.082408128401363e6 2.1731246976442028e7 0.0
2.1731246976442028e7 -1.1396929162903681e7 0.0
0.0 0.0 0.0

-1.1653332015426797e6 1.915756666432542e7 0.0
1.915756666432542e7 -1.2527274882808816e7 0.0
0.0 0.0 0.0

2.0612084962431908e7 2.2161802872052204e7 0.0
2.2161802872052204e7 -627905.6781288311 0.0
0.0 0.0 0.0

-7.613444351206552e6 5.33478573244759e6 0.0
5.33478573244759e6 5.0655606769240454e7 0.0
0.0 0.0 0.0

-1.4913245077368878e6 1.1507178831835067e7 0.0
1.1507178831835067e7 -5.247820442821855e7 0.0
0.0 0.0 0.0

1.2772636018062215e6 1.154995362547001e7 0.0
1.154995362547001e7 -3.4479986203075126e7 0.0
0.0 0.0 0.0

-4.575090702868141e6 9.081457288704224e6 0.0
9.081457288704224e6 6.34134913075452e7 0.0
0.0 0.0 0.0

1.8843693275206923e7 2.251183497731228e7 0.0
2.251183497731228e7 1.1851420537644543e7 0.0
0.0 0.0 0.0

-7.438231635699671e6 8.58984271939382e6 0.0
8.58984271939382e6 4.808022031876823e7 0.0
0.0 0.0 0.0

-6.213020700065993e6 -554638.6272493395 0.0
-554638.6272493395 7.544564023145935e6 0.0
0.0 0.0 0.0

-3.3841643757017558e6 2.871633254979854e7 0.0
2.871633254979854e7 2.4797617092144866e6 0.0
0.0 0.0 0.0

1.8318564007008057e6 1.0958247688089604e7 0.0
1.0958247688089604e7 -2.6537005142103933e7 0.0
0.0 0.0 0.0

-6.87147358834986e6 3.09058240354189e7 0.0
3.09058240354189e7 5.375640146135547e6 0.0
0.0 0.0 0.0

-7.611600441454243e6 1.330392613998418e7 0.0
1.330392613998418e7 3.8860236189362675e7 0.0
0.0 0.0 0.0

-1.243737578006849e7 7.819631705905789e6 0.0
7.819631705905789e6 2.1662430506783944e7 0.0
0.0 0.0 0.0

6.71818825826448e6 2.8781060382916506e7 0.0
2.8781060382916506e7 -4.933876021733103e6 0.0
0.0 0.0 0.0

-4.1241902666090615e6 2.225267454257656e7 0.0
2.225267454257656e7 1.2839343335569972e7 0.0
0.0 0.0 0.0

1.4894828592785345e6 2.4910768559526432e7 0.0
2.4910768559526432e7 -6.686886486656275e6 0.0
0.0 0.0 0.0

-6.497341080830922e6 2.4932196692966077e7 0.0
2.4932196692966077e7 7.235530446166666e6 0.0
0.0 0.0 0.0

-3.42094603371563e6 1.7765296786473084e7 0.0
1.7765296786473084e7 -2.365512227089472e7 0.0
0.0 0.0 0.0

4.224616802381992e6 2.223943983735846e7 0.0
2.223943983735846e7 -6.734628089123927e6 0.0
0.0 0.0 0.0

7.144964808077995e6 1.8358418769960716e7 0.0
1.8358418769960716e7 4.1811142344995715e7 0.0
0.0 0.0 0.0

-5.657394981074506e6 5.028332424448473e6 0.0
5.028332424448473e6 1.6355317930677475e7 0.0
0.0 0.0 0.0

-2.6231410674323235e6 8.42770583909709e6 0.0
8.42770583909709e6 -6.179162657956759e6 0.0
0.0 0.0 0.0

-4.262943069364198e6 1.9034679184003346e7 0.0
1.9034679184003346e7 -1.4209810015213741e7 0.0
0.0 0.0 0.0

4.1179611639490537e6 1.9399651116535082e7 0.0
1.9399651116535082e7 1.3726537473031692e7 0.0
0.0 0.0 0.0

7.241131169929331e6 3.322579264416609e7 0.0
3.322579264416609e7 -5.415586296922227e6 0.0
0.0 0.0 0.0

3.693175162611191e6 5.247268735246553e6 0.0
5.247268735246553e6 -1.6381425757705256e7 0.0
0.0 0.0 0.0

-4.316713858619042e6 3.2201494367147908e7 0.0
3.2201494367147908e7 3.8618832572786454e6 0.0
0.0 0.0 0.0

-3.997593647816741e7 1.4690278542378027e7 0.0
1.4690278542378027e7 8.153196147083562e6 0.0
0.0 0.0 0.0

496922.75440549944 1.978538289382046e7 0.0
1.978538289382046e7 -1.3590516791838257e7 0.0
0.0 0.0 0.0

-7.294142826798804e6 1.4990843546449019e7 0.0
1.4990843546449019e7 3.477558128332168e7 0.0
0.0 0.0 0.0

243258.22830989165 1.9763114312141046e7 0.0
1.9763114312141046e7 -6.57890637306265e6 0.0
0.0 0.0 0.0

-4.2654211834745705e6 2.2790105927962545e7 0.0
2.2790105927962545e7 9.79462903707458e6 0.0
0.0 0.0 0.0

-2.4377135962300105e6 2.2607901783996377e7 0.0
2.2607901783996377e7 -2.062838226334049e6 0.0
0.0 0.0 0.0

645978.2119983686 2.0097168982372902e7 0.0
2.0097168982372902e7 -7.996537997543169e6 0.0
0.0 0.0 0.0

2.3689767491211817e6 4.0341335266916887e6 0.0
4.0341335266916887e6 -4.40773027755638e7 0.0
0.0 0.0 0.0

-752131.4452728096 1.639499335111513e7 0.0
1.639499335111513e7 -2.507105213645242e6 0.0
0.0 0.0 0.0

1.0050044128691128e7 2.327373026470655e7 0.0
2.327373026470655e7 -3.672851966085109e6 0.0
0.0 0.0 0.0

-1.343903992435583e6 1.8792056322023913e7 0.0
1.8792056322023913e7 -1.44643104940071e7 0.0
0.0 0.0 0.0

5.332527038443108e6 2.1357395863249123e7 0.0
2.1357395863249123e7 1.0103942348741625e7 0.0
0.0 0.0 0.0

-856619.2566323355 1.1761241160555556e7 0.0
1.1761241160555556e7 -4.5582602081424825e7 0.0
0.0 0.0 0.0

-684087.4331587881 2.1957903783332292e7 0.0
2.1957903783332292e7 -8.452255086773882e6 0.0
0.0 0.0 0.0

4.0015398433094625e6 2.137418319522094e7 0.0
2.137418319522094e7 1.432519248769395e7 0.0
0.0 0.0 0.0

2.441402792187878e7 2.775097768174612e7 0.0
2.775097768174612e7 -4.986047428686619e6 0.0
0.0 0.0 0.0

269292.5574107636 1.1862089687255256e7 0.0
1.1862089687255256e7 -3.956844394020228e7 0.0
0.0 0.0 0.0

-3.2783083690110467e7 1.3408023394184569e7 0.0
1.3408023394184569e7 8.417596482796622e6 0.0
0.0 0.0 0.0

1.634522067866542e6 1.8510695678324938e7 0.0
1.8510695678324938e7 1.6306751526390927e7 0.0
0.0 0.0 0.0

-6.13615890490059e6 3.197369440562012e7 0.0
3.197369440562012e7 4.875756383245958e6 0.0
0.0 0.0 0.0

122625.46268912265 2.0153930160381127e7 0.0
2.0153930160381127e7 -1.0665842044818535e7 0.0
0.0 0.0 0.0

-5.910264858745109e6 2.7783608302349705e7 0.0
2.7783608302349705e7 6.202511187788254e6 0.0
0.0 0.0 0.0

-4.867810366109919e6 1.2369808202107724e7 0.0
1.2369808202107724e7 5.6300091441244915e7 0.0
0.0 0.0 0.0

1.3854543234457085e6 1.497706725939332e7 0.0
1.497706725939332e7 -1.7270955062629785e7 0.0
0.0 0.0 0.0

4.944581278362727e6 2.8739005781240717e7 0.0
2.8739005781240717e7 -5.081666423732698e6 0.0
0.0 0.0 0.0

-2.652639001423579e6 1.2026684944420476e7 0.0
1.2026684944420476e7 2.1900067216406763e6 0.0
0.0 0.0 0.0

-2.979404527805348e7 1.271469883345462e7 0.0
1.271469883345462e7 8.218403908486333e6 0.0
0.0 0.0 0.0

-3.575388773474442e6 1.5700287699323067e7 0.0
1.5700287699323067e7 7800.2211987469345 0.0
0.0 0.0 0.0

-1.1110123320669495e7 3.913448519859227e6 0.0
3.913448519859227e6 3.0213881924885873e7 0.0
0.0 0.0 0.0

-6.475618313043375e6 1.5676970489171121e7 0.0
1.5676970489171121e7 3.572442548976691e7 0.0
0.0 0.0 0.0

-5.1582198671155805e6 3.024244818893445e7 0.0
3.024244818893445e7 3.6134884498189725e6 0.0
0.0 0.0 0.0

-5.40050571178003e6 3.293088682757484e7 0.0
3.293088682757484e7 4.19781928430653e6 0.0
0.0 0.0 0.0

-6.917594813988877e6 1.168814502356402e7 0.0
1.168814502356402e7 4.4835837119328216e7 0.0
0.0 0.0 0.0

1.2334358239116343e6 1.3543218695778409e7 0.0
1.3543218695778409e7 -1.4272628979605487e7 0.0
0.0 0.0 0.0

6.120355707590634e6 2.1181732472813163e7 0.0
2.1181732472813163e7 665691.1321529206 0.0
0.0 0.0 0.0

-3.1253177377668945e6 1.510929555853633e7 0.0
1.510929555853633e7 -1.0180299340742141e7 0.0
0.0 0.0 0.0

1.0772059540300574e6 9.97302799387594e6 0.0
9.97302799387594e6 -1.0865604865122097e7 0.0
0.0 0.0 0.0

-3.7483299735980914e6 2.9969844059418395e7 0.0
2.9969844059418395e7 3.9729477193186106e6 0.0
0.0 0.0 0.0

-8.029049439174168e6 1.7867388111557186e7 0.0
1.7867388111557186e7 2.5217934723146394e7 0.0
0.0 0.0 0.0

-418644.24938435294 1.219008622110854e7 0.0
1.219008622110854e7 -4.007163498943408e7 0.0
0.0 0.0 0.0

-2.1342357839255404e7 2.6620642188465234e7 0.0
2.6620642188465234e7 2.4226349373139255e6 0.0
0.0 0.0 0.0

1.6032809704931672e6 2.572966805052193e7 0.0
2.572966805052193e7 -5.820252799395565e6 0.0
0.0 0.0 0.0

1.3304949252376258e6 5.588912590981596e6 0.0
5.588912590981596e6 -5.2689528690933675e7 0.0
0.0 0.0 0.0

-2.246383521998207e6 1.9636912062047374e7 0.0
1.9636912062047374e7 1.885938346277207e7 0.0
0.0 0.0 0.0

-2.2581138242583578e6 2.296555570439615e7 0.0
2.296555570439615e7 1.3724306652417637e6 0.0
0.0 0.0 0.0

421318.123734707 1.9968325038333602e7 0.0
1.9968325038333602e7 -1.3845836087256894e7 0.0
0.0 0.0 0.0

-8.390992759622475e6 3.138172660231577e7 0.0
3.138172660231577e7 5.611888541260799e6 0.0
0.0 0.0 0.0

-1.7382352106812396e6 2.3067869618170086e7 0.0
2.3067869618170086e7 -1.314277638940759e6 0.0
0.0 0.0 0.0

-6.12799157197631e6 3.0913590736303024e7 0.0
3.0913590736303024e7 3.8678035063522714e6 0.0
0.0 0.0 0.0

-2.5493676488590785e6 8.09568330062191e6 0.0
8.09568330062191e6 3.296435876911512e6 0.0
0.0 0.0 0.0

5.491616162773639e6 1.8060842514422573e7 0.0
1.8060842514422573e7 2.068711233466041e7 0.0
0.0 0.0 0.0

-939378.6217789212 1.748537172846783e7 0.0
1.748537172846783e7 -2.0188486057471044e7 0.0
0.0 0.0 0.0

-2.548115285017411e6 1.5186142678861612e7 0.0
1.5186142678861612e7 855352.7306247021 0.0
0.0 0.0 0.0

-63387.94347648788 1.8699919198047064e7 0.0
1.8699919198047064e7 -1.6045175919341851e7 0.0
0.0 0.0 0.0

2.4781171562340986e6 7.946480355673368e6 0.0
7.946480355673368e6 -2.0273860181320924e7 0.0
0.0 0.0 0.0

1.2332027006033167e7 2.2367860695909075e7 0.0
2.2367860695909075e7 1.0079123493762415e7 0.0
0.0 0.0 0.0

-8.947236297787704e6 73093.06692329867 0.0
73093.06692329867 3.775702201687267e7 0.0
0.0 0.0 0.0

6.204992147649222e6 1.8259217634882376e7 0.0
1.8259217634882376e7 2.353001985126438e7 0.0
0.0 0.0 0.0

-3.6991425372034004e6 2.824620963041719e7 0.0
2.824620963041719e7 3.2862258872060375e6 0.0
0.0 0.0 0.0

-600371.6548982449 1.71544741479113e7 0.0
1.71544741479113e7 -2.295275109109147e7 0.0
0.0 0.0 0.0

4.197611596360164e6 2.8163467694880404e7 0.0
2.8163467694880404e7 -4.728642219995795e6 0.0
0.0 0.0 0.0

-628057.0654998732 1.8978248149528593e7 0.0
1.8978248149528593e7 -2.4882917177429143e6 0.0
0.0 0.0 0.0

2.54464883841761e6 1.0550959559812013e7 0.0
1.0550959559812013e7 -2.5886024421176463e7 0.0
0.0 0.0 0.0

1.2531942596296207e6 2.506064071008524e7 0.0
2.506064071008524e7 -6.918059321410352e6 0.0
0.0 0.0 0.0

-664482.5767157301 1.78348613279554e7 0.0
1.78348613279554e7 -1.8751462220459938e7 0.0
0.0 0.0 0.0

-1.1015935661363043e7 6.319070117453332e6 0.0
6.319070117453332e6 1.6620621995445196e7 0.0
0.0 0.0 0.0

3.8477857781658955e6 2.008721613445443e7 0.0
2.008721613445443e7 1.6221075626225485e7 0.0
0.0 0.0 0.0

-5.407382117887793e6 2.3224683654578168e7 0.0
2.3224683654578168e7 9.331675837631524e6 0.0
0.0 0.0 0.0

-4.073138557053112e6 2.894066354909201e7 0.0
2.894066354909201e7 3.326766936946179e6 0.0
0.0 0.0 0.0

-617592.8953534523 1.9420037500553872e7 0.0
1.9420037500553872e7 1.1214982785862658e7 0.0
0.0 0.0 0.0

-6.012293963465624e6 4.0124698332429095e6 0.0
4.0124698332429095e6 1.0315068090671588e7 0.0
0.0 0.0 0.0

-9.493277941910855e6 1.0344353419271817e7 0.0
1.0344353419271817e7 3.749174101620371e7 0.0
0.0 0.0 0.0

223110.1169001283 1.9187886784161195e7 0.0
1.9187886784161195e7 -1.4826628204365727e7 0.0
0.0 0.0 0.0

-3.180793340322679e6 1.446747499119089e7 0.0
1.446747499119089e7 -6.074223576546382e7 0.0
0.0 0.0 0.0

-4.916975837503174e6 5.76639938999223e6 0.0
5.76639938999223e6 8.665770140443407e6 0.0
0.0 0.0 0.0

-1.1200813850131482e7 1.824373233962062e6 0.0
1.824373233962062e6 2.2510475008784596e7 0.0
0.0 0.0 0.0

-4.580945512527413e6 1.7783387807287198e7 0.0
1.7783387807287198e7 8.277216874145379e6 0.0
0.0 0.0 0.0

1.0962204664939693e6 2.5963288189474527e7 0.0
2.5963288189474527e7 -5.1989850539912805e6 0.0
0.0 0.0 0.0

-4.0209743038239907e6 1.5937105739070766e7 0.0
1.5937105739070766e7 -3.890948729210498e7 0.0
0.0 0.0 0.0

3.17745977000075e6 7.587622815627735e6 0.0
7.587622815627735e6 -1.7541384170466445e7 0.0
0.0 0.0 0.0

-2.4476950290977107e6 2.8414974193354167e7 0.0
2.8414974193354167e7 2.93909277039932e6 0.0
0.0 0.0 0.0

2.063225859584853e6 2.5406419496423427e7 0.0
2.5406419496423427e7 -6.366232837429732e6 0.0
0.0 0.0 0.0

-9.316595449208261e6 3.788101026441167e7 0.0
3.788101026441167e7 3.7671828369762055e6 0.0
0.0 0.0 0.0

-2.9846295437204046e6 2.8603388767156195e7 0.0
2.8603388767156195e7 3.830043310230856e6 0.0
0.0 0.0 0.0

-2.4432596745949727e7 2.8127560640205584e7 0.0
2.8127560640205584e7 -8.641709287405957e6 0.0
0.0 0.0 0.0

-3.9301078429170228e6 2.1438296007655043e7 0.0
2.1438296007655043e7 -1.6238769817823032e6 0.0
0.0 0.0 0.0

-3.425284656127896e6 1.4376842417423634e7 0.0
1.4376842417423634e7 -5.585101994956534e7 0.0
0.0 0.0 0.0

-3.597556892854934e6 1.4524647702886516e7 0.0
1.4524647702886516e7 -151727.13904140878 0.0
0.0 0.0 0.0

-9.281759602312904e6 2.2921319197430504e6 0.0
2.2921319197430504e6 4.317897423844463e7 0.0
0.0 0.0 0.0

-7.979174725937258e6 6.0496423281676425e6 0.0
6.0496423281676425e6 5.0220623069558725e7 0.0
0.0 0.0 0.0

2.233987081680186e6 6.555711082938461e6 0.0
6.555711082938461e6 -3.8535606737277225e7 0.0
0.0 0.0 0.0

-4.739803190959161e6 2.4451808016836617e7 0.0
2.4451808016836617e7 9.062487922474578e6 0.0
0.0 0.0 0.0

-4.859558640906397e6 1.3658956543613007e7 0.0
1.3658956543613007e7 4.837072934478548e7 0.0
0.0 0.0 0.0

-361792.4057077784 1.8258678682084385e7 0.0
1.8258678682084385e7 -1.7363414585491914e7 0.0
0.0 0.0 0.0

-2.7206535098152794e6 1.5657675551167473e7 0.0
1.5657675551167473e7 4.574497689266974e7 0.0
0.0 0.0 0.0

681831.4050557632 2.5362344755935133e7 0.0
2.5362344755935133e7 -6.4010564069184335e6 0.0
0.0 0.0 0.0

2.967333286355461e6 3.0529545245227598e7 0.0
3.0529545245227598e7 -3.7142105235017957e6 0.0
0.0 0.0 0.0

-313704.42259165016 1.883390475787489e7 0.0
1.883390475787489e7 -4.3631571086070435e6 0.0
0.0 0.0 0.0

-1.1480170378032044e7 4.725721529081169e6 0.0
4.725721529081169e6 2.194544902750142e7 0.0
0.0 0.0 0.0

474103.76887780614 1.8934508619363338e7 0.0
1.8934508619363338e7 1.3807058100045484e7 0.0
0.0 0.0 0.0

-3.8132567393860887e6 1.7172053727253407e7 0.0
1.7172053727253407e7 9.350212116439532e6 0.0
0.0 0.0 0.0

2.8934241172956247e6 4.702406467275361e6 0.0
4.702406467275361e6 -3.518288475268825e7 0.0
0.0 0.0 0.0

4.0424809050166374e6 2.2025770153469477e7 0.0
2.2025770153469477e7 -5.590099508047456e6 0.0
0.0 0.0 0.0

-1.3828571720882175e7 2.1212275078474842e7 0.0
2.1212275078474842e7 2.205452931073432e6 0.0
0.0 0.0 0.0

-2.2781725715393875e7 2.4219521828236073e7 0.0
2.4219521828236073e7 -7.053791415948902e6 0.0
0.0 0.0 0.0

-2.4812804509098963e6 2.89018294224846e7 0.0
2.89018294224846e7 918888.3007358648 0.0
0.0 0.0 0.0

323907.82729555666 1.3099593755226666e7 0.0
1.3099593755226666e7 -1.3471312174069066e7 0.0
0.0 0.0 0.0

-5.954724325652059e6 2.1176913044484254e7 0.0
2.1176913044484254e7 -1.4007676101874742e6 0.0
0.0 0.0 0.0

1.676195925946014e6 3.0680458589059964e7 0.0
3.0680458589059964e7 -1.8113014634809464e6 0.0
0.0 0.0 0.0

-3.077108258576379e6 1.9723507398976803e7 0.0
1.9723507398976803e7 2.0002374433994435e7 0.0
0.0 0.0 0.0

-1.4817595195484878e6 1.9849534953617163e7 0.0
1.9849534953617163e7 1.1109031059530526e7 0.0
0.0 0.0 0.0

1.2480669665994104e6 1.2655389137503775e7 0.0
1.2655389137503775e7 -1.2753676941667922e7 0.0
0.0 0.0 0.0

-2.0850706157827755e6 3.26107936060254e7 0.0
3.26107936060254e7 1.6991047773201764e6 0.0
0.0 0.0 0.0

-1.038427657880961e7 1.5718743554188206e6 0.0
1.5718743554188206e6 3.2920188992081143e7 0.0
0.0 0.0 0.0

3.5688259595898427e6 5.814621973020983e6 0.0
5.814621973020983e6 -2.753404231611076e7 0.0
0.0 0.0 0.0

168549.013310389 2.7966194575693157e7 0.0
2.7966194575693157e7 -2.0395705645041459e6 0.0
0.0 0.0 0.0

-910982.0218312303 1.7810008805570368e7 0.0
1.7810008805570368e7 -2.0699447477515727e7 0.0
0.0 0.0 0.0

-4.6247830241541825e6 297713.64672964916 0.0
297713.64672964916 7.863195748980869e6 0.0
0.0 0.0 0.0

940623.7778926939 9.834274753679307e6 0.0
9.834274753679307e6 -1.2456911249379953e7 0.0
0.0 0.0 0.0

-9.666967988763306e6 2.4019847358755e7 0.0
2.4019847358755e7 -8.891608037696213e6 0.0
0.0 0.0 0.0

2.2265995785560086e6 1.1801236301483441e7 0.0
1.1801236301483441e7 -2.509548502923318e7 0.0
0.0 0.0 0.0

1.1706192713673357e7 2.2997955697067153e7 0.0
2.2997955697067153e7 1.1651037180598248e7 0.0
0.0 0.0 0.0

-4.384540582934491e6 8.810841905540662e6 0.0
8.810841905540662e6 2.1684129888800485e6 0.0
0.0 0.0 0.0

-6.95763687694609e6 4.439132264843354e6 0.0
4.439132264843354e6 6.681566672060339e6 0.0
0.0 0.0 0.0

8.466250615031715e6 2.8854294252071723e7 0.0
2.8854294252071723e7 -5.148070547376685e6 0.0
0.0 0.0 0.0

-1.0263129824066767e7 1.9546186112304078e6 0.0
1.9546186112304078e6 3.2114116125867758e7 0.0
0.0 0.0 0.0

932052.2416454386 1.6213694389715163e7 0.0
1.6213694389715163e7 -1.4833155071066948e7 0.0
0.0 0.0 0.0

1.2279447942622146e6 1.90440710041374e7 0.0
1.90440710041374e7 2.466486518996652e6 0.0
0.0 0.0 0.0

1.6010435022770412e7 2.449428328248091e7 0.0
2.449428328248091e7 -3.3196137387621915e6 0.0
0.0 0.0 0.0

901732.0486793118 1.7190093384223025e7 0.0
1.7190093384223025e7 -1.8161026318384826e7 0.0
0.0 0.0 0.0

8.1883904276704565e6 1.8976697645520553e7 0.0
1.8976697645520553e7 3.1114397633754328e7 0.0
0.0 0.0 0.0

-8.231209989011826e6 2.772630320030923e7 0.0
2.772630320030923e7 6.282763829980243e6 0.0
0.0 0.0 0.0

-8.953571203444146e6 2.19061238078384e6 0.0
2.19061238078384e6 4.0170058799579576e7 0.0
0.0 0.0 0.0

794253.0664991216 2.8044108405243687e7 0.0
2.8044108405243687e7 -2.5947719536319706e6 0.0
0.0 0.0 0.0

140940.18373867776 1.982592880234155e7 0.0
1.982592880234155e7 1.930646241736952e7 0.0
0.0 0.0 0.0

1.7808524294732371e6 1.1297225260901868e7 0.0
1.1297225260901868e7 -2.0957252322015274e7 0.0
0.0 0.0 0.0

3.096014738728747e6 4.928235888430847e6 0.0
4.928235888430847e6 -3.9411636043759175e7 0.0
0.0 0.0 0.0

-2.2356165805006884e6 2.286827248791365e7 0.0
2.286827248791365e7 -2.922186144974741e6 0.0
0.0 0.0 0.0

-8.512305765223088e6 1.162851394370721e7 0.0
1.162851394370721e7 1.644938693803154e7 0.0
0.0 0.0 0.0

-7.947318631227646e6 1.664921169543601e7 0.0
1.664921169543601e7 3.005145679916125e7 0.0
0.0 0.0 0.0

-914277.5720284879 1.680906786037301e7 0.0
1.680906786037301e7 -2.453287686484644e7 0.0
0.0 0.0 0.0

-2.797872744937679e6 1.3870983599351585e7 0.0
1.3870983599351585e7 -5.1955957754861295e7 0.0
0.0 0.0 0.0

1.2158066068619792e6 2.8663631421039738e7 0.0
2.8663631421039738e7 -2.559719713124645e6 0.0
0.0 0.0 0.0

-828405.3497476596 1.9546704798288565e7 0.0
1.9546704798288565e7 8.732408116267838e6 0.0
0.0 0.0 0.0

-3.649284994376916e7 1.370635241514896e7 0.0
1.370635241514896e7 7.897995952416282e6 0.0
0.0 0.0 0.0

8.939344850999782e6 1.9407775156141594e7 0.0
1.9407775156141594e7 3.504505354571692e7 0.0
0.0 0.0 0.0

-3.359244712973352e7 3.3016043150403965e7 0.0
3.3016043150403965e7 6.881830750369418e6 0.0
0.0 0.0 0.0

1.5864937411070485e6 1.0916794099271119e7 0.0
1.0916794099271119e7 -3.036224155964032e7 0.0
0.0 0.0 0.0

7.578419491358569e6 5.683509543693246e6 0.0
5.683509543693246e6 -1.4361971152854003e6 0.0
0.0 0.0 0.0

-1.84866887121423e7 697940.0084723269 0.0
697940.0084723269 6.773214672184057e6 0.0
0.0 0.0 0.0

-7.974283885595674e6 1.0377596190800237e7 0.0
1.0377596190800237e7 1.4496944048485927e7 0.0
0.0 0.0 0.0

-9.531883621857995e6 3.485487941797997e6 0.0
3.485487941797997e6 3.816853303151442e7 0.0
0.0 0.0 0.0

-1.0908287627788624e7 4.0437648477300038e6 0.0
4.0437648477300038e6 3.1752433091096275e7 0.0
0.0 0.0 0.0

30717.457734854892 1.899518125089058e7 0.0
1.899518125089058e7 -1.6551163728186449e7 0.0
0.0 0.0 0.0

-2.5363517063684748e6 1.6151825499234831e7 0.0
1.6151825499234831e7 -8.454505789110964e6 0.0
0.0 0.0 0.0

2.2916899794138316e6 1.6633024954487333e7 0.0
1.6633024954487333e7 7.638966710827419e6 0.0
0.0 0.0 0.0

1.0021140199632974e6 1.8774319751694754e7 0.0
1.8774319751694754e7 -419327.20265955233 0.0
0.0 0.0 0.0

1.690274101600973e6 2.9276919071447905e7 0.0
2.9276919071447905e7 -2.4746887359300302e6 0.0
0.0 0.0 0.0

-1.1077146952212503e7 1.1196467559095783e7 0.0
1.1196467559095783e7 2.093491370496843e7 0.0
0.0 0.0 0.0

349162.2477212846 1.78285331851189e7 0.0
1.78285331851189e7 -1.7039451547696948e7 0.0
0.0 0.0 0.0

-2.966974673289388e6 2.484031643140358e7 0.0
2.484031643140358e7 2.937505611803578e6 0.0
0.0 0.0 0.0

1.7261086995433904e6 8.889056378037928e6 0.0
8.889056378037928e6 -3.5673358723933235e7 0.0
0.0 0.0 0.0

-1.0023591985639721e7 2.853164992372372e6 0.0
2.853164992372372e6 3.429955323497996e7 0.0
0.0 0.0 0.0

977428.8425345437 2.7375157066496048e7 0.0
2.7375157066496048e7 -3.4806537509914115e6 0.0
0.0 0.0 0.0

-1.0935167500499007e6 1.9574224184172228e7 0.0
1.9574224184172228e7 6.207914899531336e6 0.0
0.0 0.0 0.0

-1.4007770683641683e6 1.9756327531668067e7 0.0
1.9756327531668067e7 3.711706964423381e6 0.0
0.0 0.0 0.0

-6.58259988846902e6 2.3085192598705824e7 0.0
2.3085192598705824e7 -1.1410778108745053e7 0.0
0.0 0.0 0.0

6.347916200344215e6 1.6479388367147936e7 0.0
1.6479388367147936e7 2.2809384030844625e7 0.0
0.0 0.0 0.0

-7.321537328414571e6 2.2130154911529034e7 0.0
2.2130154911529034e7 -9.524472142065717e6 0.0
0.0 0.0 0.0

-7.04836023354358e6 1.4414837445671955e7 0.0
1.4414837445671955e7 3.735439973174603e7 0.0
0.0 0.0 0.0

-9.543621620183224e6 2.118896040132922e6 0.0
2.118896040132922e6 3.991855907430505e7 0.0
0.0 0.0 0.0

2.456450579150986e6 1.0851474907072024e7 0.0
1.0851474907072024e7 -2.022052772594664e7 0.0
0.0 0.0 0.0

2.253783776422471e6 5.724480749874892e6 0.0
5.724480749874892e6 -4.0423720767337985e7 0.0
0.0 0.0 0.0

836597.5311220484 1.8304960534099344e7 0.0
1.8304960534099344e7 -1.5762054733644437e7 0.0
0.0 0.0 0.0

7.062662724424975e6 2.2056253091643162e7 0.0
2.2056253091643162e7 9.505454239670089e6 0.0
0.0 0.0 0.0

2.685621405927563e6 6.840551264614429e6 0.0
6.840551264614429e6 -1.874391659364531e7 0.0
0.0 0.0 0.0

-6.950259168077612e6 1.737801925373069e7 0.0
1.737801925373069e7 -3.0299148809433572e7 0.0
0.0 0.0 0.0

-2.2841305882076994e6 1.3560920847694155e7 0.0
1.3560920847694155e7 -4.830284031409946e7 0.0
0.0 0.0 0.0

-4.415672813241029e6 1.688771537198309e7 0.0
1.688771537198309e7 5.672179326705087e6 0.0
0.0 0.0 0.0

-6.125397346339464e6 2.4797515702773515e7 0.0
2.4797515702773515e7 8.607104722264938e6 0.0
0.0 0.0 0.0

-9.747064474606022e6 2.293735581497956e7 0.0
2.293735581497956e7 -9.941343379560094e6 0.0
0.0 0.0 0.0

-7.871453563745983e6 3.039875792972151e6 0.0
3.039875792972151e6 4.945359067126634e7 0.0
0.0 0.0 0.0

-1.7639519455098752e6 1.3422811303404845e7 0.0
1.3422811303404845e7 -4.515275283337034e7 0.0
0.0 0.0 0.0

-6.751255317915715e6 1.3730673687991602e7 0.0
1.3730673687991602e7 4.004908117387941e7 0.0
0.0 0.0 0.0

-1.8689409229095117e6 1.992921811209672e7 0.0
1.992921811209672e7 1.2038416357288344e6 0.0
0.0 0.0 0.0

523418.267899059 2.8941332260452e7 0.0
2.8941332260452e7 -2.9999646698634545e6 0.0
0.0 0.0 0.0

-1.3124936393165978e7 2.7283632309400093e7 0.0
2.7283632309400093e7 5.106937644470027e6 0.0
0.0 0.0 0.0

-8.78865435673458e6 1.5850433249962226e7 0.0
1.5850433249962226e7 2.9766836459055454e7 0.0
0.0 0.0 0.0

-4.804558380914175e6 1.517197382408245e7 0.0
1.517197382408245e7 -1.6980250924867164e7 0.0
0.0 0.0 0.0

4.1615132470882805e6 1.757940552142594e7 0.0
1.757940552142594e7 1.4184175234757813e7 0.0
0.0 0.0 0.0

2.0880859559293333e6 7.190505414628485e6 0.0
7.190505414628485e6 -3.687072563073893e7 0.0
0.0 0.0 0.0

1.3990956503326437e6 9.149398842987379e6 0.0
9.149398842987379e6 -1.3604795168008203e7 0.0
0.0 0.0 0.0

-8.661001054433027e6 1.1489621252310757e7 0.0
1.1489621252310757e7 3.88970973894629e7 0.0
0.0 0.0 0.0

-3.4581108516143737e6 2.1481837774797093e7 0.0
2.1481837774797093e7 1.1953743532227108e7 0.0
0.0 0.0 0.0

-3.265279494885041e7 2.785320160398133e7 0.0
2.785320160398133e7 1.4754550935693271e6 0.0
0.0 0.0 0.0

-310439.7883240599 1.51915700715541e7 0.0
1.51915700715541e7 -2.6971592319924664e7 0.0
0.0 0.0 0.0

1.3209944311471432e6 1.0366352959712474e7 0.0
1.0366352959712474e7 -3.4350707316314355e7 0.0
0.0 0.0 0.0

-1.2534440713984556e6 1.3421746407266894e7 0.0
1.3421746407266894e7 -4.222251455208079e7 0.0
0.0 0.0 0.0

2.761398990576013e6 4.374264200972362e6 0.0
4.374264200972362e6 -1.0113067945521206e7 0.0
0.0 0.0 0.0

316550.671034527 2.0340318773756556e7 0.0
2.0340318773756556e7 -1.1181364737420226e7 0.0
0.0 0.0 0.0

1.7376589565845425e6 2.1948208998564113e7 0.0
2.1948208998564113e7 -9.191521429821752e6 0.0
0.0 0.0 0.0

-2.001368253269537e7 3.616754286658996e7 0.0
3.616754286658996e7 6.769738621846579e6 0.0
0.0 0.0 0.0

1.6059523113697092e6 4.441016625924522e6 0.0
4.441016625924522e6 -5.690070070218446e6 0.0
0.0 0.0 0.0

-558858.695567348 1.817481640896451e7 0.0
1.817481640896451e7 -1.9192710551124346e7 0.0
0.0 0.0 0.0

-7.318799437238358e6 1.8017908366424657e7 0.0
1.8017908366424657e7 2.5480553740712628e7 0.0
0.0 0.0 0.0

-1.050096806570823e7 2.7527962049813154e6 0.0
2.7527962049813154e6 2.8376806126384553e7 0.0
0.0 0.0 0.0

2.7776316875841524e6 5.344469511166499e6 0.0
5.344469511166499e6 -3.3722841828976884e7 0.0
0.0 0.0 0.0

-1.1056063669733642e7 5.506045474620537e6 0.0
5.506045474620537e6 2.791703836386992e7 0.0
0.0 0.0 0.0

-1.0330018551884059e7 5.526792926699282e6 0.0
5.526792926699282e6 3.345250828734252e7 0.0
0.0 0.0 0.0

-9.662101756464086e6 1.0450842424190223e7 0.0
1.0450842424190223e7 1.7969709539875172e7 0.0
0.0 0.0 0.0

-4.471136229006059e6 2.284837357965011e7 0.0
2.284837357965011e7 1.1974905623930695e7 0.0
0.0 0.0 0.0

-2.255445828181759e6 1.2703321117503975e7 0.0
1.2703321117503975e7 630407.6482472083 0.0
0.0 0.0 0.0

2.0913510013340212e7 5.992185436685374e6 0.0
5.992185436685374e6 -2.4985756197362114e6 0.0
0.0 0.0 0.0

-3.3558173646452464e7 2.640749106497787e6 0.0
2.640749106497787e6 7.040046403091846e6 0.0
0.0 0.0 0.0

2.709914485605743e6 8.495263137238016e6 0.0
8.495263137238016e6 -1.4565121050939878e7 0.0
0.0 0.0 0.0

2.0837129160036743e6 9.926755600884924e6 0.0
9.926755600884924e6 -3.368660857791679e7 0.0
0.0 0.0 0.0

2.5351699208579473e6 8.294518808592344e6 0.0
8.294518808592344e6 -3.4776154397563376e7 0.0
0.0 0.0 0.0

475685.5864253161 2.00023386608942e6 0.0
2.00023386608942e6 1.741438513552756e6 0.0
0.0 0.0 0.0

-4.0630708722625272e6 -1.1588147335922585e6 0.0
-1.1588147335922585e6 4.0152374356753393e6 0.0
0.0 0.0 0.0

-4.6052219136936385e6 1.745640280016471e7 0.0
1.745640280016471e7 -2.7310573342773836e7 0.0
0.0 0.0 0.0

2.4570317394613344e6 5.687102604608649e6 0.0
5.687102604608649e6 -3.792293572315234e7 0.0
0.0 0.0 0.0

-2.597178985312516e7 2.560440521592203e7 0.0
2.560440521592203e7 -1.0150993971441176e7 0.0
0.0 0.0 0.0

-5.428671675075047e6 2.0251593639092986e7 0.0
2.0251593639092986e7 1.6618172145936776e7 0.0
0.0 0.0 0.0

1.0731607299837635e6 2.6676556182778433e7 0.0
2.6676556182778433e7 -4.322797005816162e6 0.0
0.0 0.0 0.0

5.4974837263489785e6 1.6308810961596888e7 0.0
1.6308810961596888e7 1.994645771920591e7 0.0
0.0 0.0 0.0

1.2047784123645026e7 1.1398998091365635e7 0.0
1.1398998091365635e7 1.3157225272384621e6 0.0
0.0 0.0 0.0

-1.2532433349540003e7 2.5412934192802805e7 0.0
2.5412934192802805e7 -1.011575490220559e7 0.0
0.0 0.0 0.0

-8.86064609356859e6 5.987886597263053e6 0.0
5.987886597263053e6 4.302280046039065e7 0.0
0.0 0.0 0.0

-5.916075817734169e6 2.39936882084174e7 0.0
2.39936882084174e7 9.020748714579951e6 0.0
0.0 0.0 0.0

2.336751030569938e6 2.2060313594263565e7 0.0
2.2060313594263565e7 -8.022047496340053e6 0.0
0.0 0.0 0.0

-7.005475247060902e6 1.842135835231914e7 0.0
1.842135835231914e7 2.4288842025110498e7 0.0
0.0 0.0 0.0

-9.633927683264192e6 -1.0415460090170819e6 0.0
-1.0415460090170819e6 2.8218200296324357e7 0.0
0.0 0.0 0.0

-234945.0965455788 2.76827281530485e7 0.0
2.76827281530485e7 -3.159357361534522e6 0.0
0.0 0.0 0.0

1.6315904528212585e6 1.025078092582525e7 0.0
1.025078092582525e7 -3.2149070191688377e7 0.0
0.0 0.0 0.0

2.7893718011849658e6 2.5829476097482e7 0.0
2.5829476097482e7 -6.145805003125055e6 0.0
0.0 0.0 0.0

2.917376256225871e6 6.730605722516346e6 0.0
6.730605722516346e6 -3.613841878814106e7 0.0
0.0 0.0 0.0

5.536292557098801e6 1.8481150046579108e7 0.0
1.8481150046579108e7 1.7349921755818196e7 0.0
0.0 0.0 0.0

-705515.4668976194 2.095112204143674e7 0.0
2.095112204143674e7 -9.740235263146345e6 0.0
0.0 0.0 0.0

-1.122863030671689e7 2.4701761931594308e6 0.0
2.4701761931594308e6 1.6792958330042843e7 0.0
0.0 0.0 0.0

-2.569965592505665e6 1.599335624198421e7 0.0
1.599335624198421e7 -8.78319404349341e6 0.0
0.0 0.0 0.0

3.259245360709848e6 4.97814609835687e6 0.0
4.97814609835687e6 -3.683702255033195e7 0.0
0.0 0.0 0.0

1.3209870247838136e7 2.590009383512654e7 0.0
2.590009383512654e7 -4.49519664374325e6 0.0
0.0 0.0 0.0

2.392908927835337e6 7.592687708965804e6 0.0
7.592687708965804e6 -1.761774504639095e7 0.0
0.0 0.0 0.0

-1.2416364860868074e7 6.986349988992073e6 0.0
6.986349988992073e6 2.0679307435893003e7 0.0
0.0 0.0 0.0

-3.386406264477847e6 2.7548488087717313e7 0.0
2.7548488087717313e7 3.1452569946512207e6 0.0
0.0 0.0 0.0

-1.0513043826396838e6 1.3444341082959527e7 0.0
1.3444341082959527e7 -3.93955322712732e7 0.0
0.0 0.0 0.0

-4.56126051351068e6 1.6159193541567942e7 0.0
1.6159193541567942e7 -1.5204201717200853e7 0.0
0.0 0.0 0.0

3.9486297539049075e6 1.6776089560687656e7 0.0
1.6776089560687656e7 1.3162099515301133e7 0.0
0.0 0.0 0.0

-2.7756386431162795e6 1.3363148876507485e7 0.0
1.3363148876507485e7 2.2701262920121774e6 0.0
0.0 0.0 0.0

-5.65099787727353e6 1.5456102484096425e7 0.0
1.5456102484096425e7 8.912505420433622e6 0.0
0.0 0.0 0.0

2.08708595074119e6 1.9118917101477686e7 0.0
1.9118917101477686e7 1.838470442959759e7 0.0
0.0 0.0 0.0

-1.014550485402886e7 399001.9672952026 0.0
399001.9672952026 2.4676461116674393e7 0.0
0.0 0.0 0.0

1.840784867390797e6 2.058706316660369e7 0.0
2.058706316660369e7 4.7932835816254215e6 0.0
0.0 0.0 0.0

-4.155436063629086e6 2.2244991458751425e7 0.0
2.2244991458751425e7 1.248160922288603e7 0.0
0.0 0.0 0.0

2.1657687161687873e6 7.768848136430755e6 0.0
7.768848136430755e6 -1.5708710405788988e7 0.0
0.0 0.0 0.0

-1.161521609296597e7 3.9855139274667082e6 0.0
3.9855139274667082e6 2.5893424149945736e7 0.0
0.0 0.0 0.0

-5.945751937349822e6 2.166879341219995e7 0.0
2.166879341219995e7 -7.977301611709527e6 0.0
0.0 0.0 0.0

-7.3677236896718e6 1.8755125431271512e7 0.0
1.8755125431271512e7 2.3071962218874812e7 0.0
0.0 0.0 0.0

-375431.28375595063 1.984921683038878e7 0.0
1.984921683038878e7 1.5622476452354888e7 0.0
0.0 0.0 0.0

-1.1354465084289871e7 8.244533997493592e6 0.0
8.244533997493592e6 2.7411656702380933e7 0.0
0.0 0.0 0.0

1.6669605020583803e6 2.1614127745875705e7 0.0
2.1614127745875705e7 -1.0056489495236969e7 0.0
0.0 0.0 0.0

-5.8367522825211715e6 2.6938292938757505e7 0.0
2.6938292938757505e7 6.85401968359082e6 0.0
0.0 0.0 0.0

-9.230371860954862e6 9.77421255124909e6 0.0
9.77421255124909e6 3.850794584685241e7 0.0
0.0 0.0 0.0

-9.564484076427795e6 1.2628159136461124e7 0.0
1.2628159136461124e7 1.4509297197703991e7 0.0
0.0 0.0 0.0

-9.933810294100307e6 3.4546431461345297e6 0.0
3.4546431461345297e6 3.755588060888514e7 0.0
0.0 0.0 0.0

431418.86454456765 1.7281737813593406e7 0.0
1.7281737813593406e7 -1.830655451460096e7 0.0
0.0 0.0 0.0

-5.354792633272597e6 2.4170393494878814e7 0.0
2.4170393494878814e7 9.757382023933887e6 0.0
0.0 0.0 0.0

-2.39075640631431e6 2.0122879792489585e7 0.0
2.0122879792489585e7 -1.2161350664423334e6 0.0
0.0 0.0 0.0

3.009341985535985e6 8.628270010294812e6 0.0
8.628270010294812e6 -1.9105466744102724e7 0.0
0.0 0.0 0.0

-9.619815021953879e6 -135857.41396081 0.0
-135857.41396081 3.1435582418814894e7 0.0
0.0 0.0 0.0

-3.642002551621707e6 1.5952160783500195e7 0.0
1.5952160783500195e7 4.228622812891619e7 0.0
0.0 0.0 0.0

-7.404057696583118e6 1.2510937890549175e7 0.0
1.2510937890549175e7 4.1532417767862014e7 0.0
0.0 0.0 0.0

1.6341361700907769e6 1.9312941587068975e7 0.0
1.9312941587068975e7 1.0831983238216318e7 0.0
0.0 0.0 0.0

-1.2010236946289465e7 6.740734071695328e6 0.0
6.740734071695328e6 2.5399879407068048e7 0.0
0.0 0.0 0.0

-4.644749264157319e6 1.4798321021915408e7 0.0
1.4798321021915408e7 1.0100442106349364e7 0.0
0.0 0.0 0.0

-1.097476821819629e6 1.991467727412355e7 0.0
1.991467727412355e7 -6.172443345206526e6 0.0
0.0 0.0 0.0

417819.28544532787 1.56423462935107e7 0.0
1.56423462935107e7 -1.5739677402031362e7 0.0
0.0 0.0 0.0

-4.124502002194803e6 2.225078086775437e7 0.0
2.225078086775437e7 1.3697825107507842e7 0.0
0.0 0.0 0.0

-4.344873049577402e6 3.0608651634254377e7 0.0
3.0608651634254377e7 4.1847304456072636e6 0.0
0.0 0.0 0.0

-9.879908647601375e6 1.3256882441235686e7 0.0
1.3256882441235686e7 3.1574169472811513e7 0.0
0.0 0.0 0.0

8.049139493428605e6 1.6817024517679453e7 0.0
1.6817024517679453e7 2.924358123236054e7 0.0
0.0 0.0 0.0

-54332.459703372326 1.971166424552248e7 0.0
1.971166424552248e7 -9.002861133616388e6 0.0
0.0 0.0 0.0

2.4097176572735207e6 1.1236538641690217e7 0.0
1.1236538641690217e7 -2.4650599390347235e7 0.0
0.0 0.0 0.0

3.031016257670909e6 3.073209898742422e6 0.0
3.073209898742422e6 -3.96512673293517e7 0.0
0.0 0.0 0.0

-9.556109897424612e6 187676.42652575314 0.0
187676.42652575314 3.50816437144469e7 0.0
0.0 0.0 0.0

-3.6161452800083347e6 2.221184618874175e7 0.0
2.221184618874175e7 1.252147017902865e7 0.0
0.0 0.0 0.0

-2.4067260955122625e6 1.6459132316644862e7 0.0
1.6459132316644862e7 1.5924681424758125e7 0.0
0.0 0.0 0.0

513933.3341212347 1.6498632076910917e7 0.0
1.6498632076910917e7 6.147630059199895e7 0.0
0.0 0.0 0.0

221716.0793862287 1.4888109454281935e7 0.0
1.4888109454281935e7 -1.4552754955036432e7 0.0
0.0 0.0 0.0

6.439056455058827e6 1.7247231328256644e7 0.0
1.7247231328256644e7 2.1463522027829032e7 0.0
0.0 0.0 0.0

-1.0666685595724115e7 120764.99372537198 0.0
120764.99372537198 2.5974932920185834e7 0.0
0.0 0.0 0.0

-2.2827828860218726e7 1.307020752404273e6 0.0
1.307020752404273e6 8.367697704558978e6 0.0
0.0 0.0 0.0

2.0686944996914119e6 9.619842673427872e6 0.0
9.619842673427872e6 -2.933692868346962e7 0.0
0.0 0.0 0.0

-1.1945750712493926e7 4.573943828662897e6 0.0
4.573943828662897e6 2.246991646003348e7 0.0
0.0 0.0 0.0

1.3014925837477706e6 1.0970258842088424e7 0.0
1.0970258842088424e7 -3.2499067319437906e7 0.0
0.0 0.0 0.0

-6.830534016838519e6 1.6740343209890526e7 0.0
1.6740343209890526e7 3.1392205808349654e7 0.0
0.0 0.0 0.0

3.91031826175892e6 3.52493898776729e6 0.0
3.52493898776729e6 -2.4993685304960918e7 0.0
0.0 0.0 0.0

1.059263178187315e7 2.6839189178871807e7 0.0
2.6839189178871807e7 -4.95721166074235e6 0.0
0.0 0.0 0.0

-2.127684567846963e6 1.4546583453884995e7 0.0
1.4546583453884995e7 -669580.777024551 0.0
0.0 0.0 0.0

1.0112541117189894e6 6.655811863189299e6 0.0
6.655811863189299e6 -4.253545741785621e6 0.0
0.0 0.0 0.0

2.983659984447643e7 6.093634574023353e6 0.0
6.093634574023353e6 -2.1351370753245093e6 0.0
0.0 0.0 0.0

-5.207290414350541e6 1.7152223801171485e7 0.0
1.7152223801171485e7 3.1977737918556757e7 0.0
0.0 0.0 0.0

-1.0651157759174267e6 1.0704264312745837e7 0.0
1.0704264312745837e7 -6.1855604017146295e6 0.0
0.0 0.0 0.0

-1.0617108434984414e7 4.826171487147908e6 0.0
4.826171487147908e6 3.520199625329757e7 0.0
0.0 0.0 0.0

1.9202224985684454e6 5.549586604249141e6 0.0
5.549586604249141e6 -9.917035725028027e6 0.0
0.0 0.0 0.0

-5.215392238918537e6 2.1244490771400403e7 0.0
2.1244490771400403e7 -5.942272224313308e6 0.0
0.0 0.0 0.0

-4.314985849924291e6 2.035381684768371e7 0.0
2.035381684768371e7 1.669688708966925e7 0.0
0.0 0.0 0.0

-1.1629588491792202e7 8.508408225199657e6 0.0
8.508408225199657e6 2.2680632564484514e7 0.0
0.0 0.0 0.0

2.3349343311871905e6 8.254318077603426e6 0.0
8.254318077603426e6 -3.0231050852491796e7 0.0
0.0 0.0 0.0

-5.813585295173982e6 1.62214971184276e7 0.0
1.62214971184276e7 -3.6933790038849585e7 0.0
0.0 0.0 0.0

-7.066638170217961e6 6.725638661991975e6 0.0
6.725638661991975e6 7.112858711827813e6 0.0
0.0 0.0 0.0

3.455365422545706e6 3.767264272742718e6 0.0
3.767264272742718e6 -2.2911278613247897e7 0.0
0.0 0.0 0.0

-258436.43126289453 1.8032372827462804e7 0.0
1.8032372827462804e7 -1.3463548944151264e7 0.0
0.0 0.0 0.0

1.8368518901719715e7 2.165199771515515e7 0.0
2.165199771515515e7 6.239211375706192e6 0.0
0.0 0.0 0.0

2.8845337235564776e6 5.909152430353918e6 0.0
5.909152430353918e6 -4.015100525407097e7 0.0
0.0 0.0 0.0

-1.3248480570533087e7 -171689.477934213 0.0
-171689.477934213 6.521865394363926e6 0.0
0.0 0.0 0.0

-6.355975744377041e6 1.886713413914557e7 0.0
1.886713413914557e7 2.1452748562967323e7 0.0
0.0 0.0 0.0

-2.0647763079614618e6 9.094921541083116e6 0.0
9.094921541083116e6 1.7965819648298451e6 0.0
0.0 0.0 0.0

-1.1576978219601149e7 7.712098508131403e6 0.0
7.712098508131403e6 2.4682029224086367e7 0.0
0.0 0.0 0.0

2.3971532024613507e6 6.306326230227387e6 0.0
6.306326230227387e6 -4.6332377822571285e7 0.0
0.0 0.0 0.0

9.384711521794682e6 1.8029921053542532e7 0.0
1.8029921053542532e7 3.128237227837746e7 0.0
0.0 0.0 0.0

8.699557114021711e6 2.286542099915279e7 0.0
2.286542099915279e7 1.1899117712379176e7 0.0
0.0 0.0 0.0

-5.077483939153484e6 1.7541975199112974e7 0.0
1.7541975199112974e7 -2.220190466705402e7 0.0
0.0 0.0 0.0

-71406.4426042214 1.3695982900343647e7 0.0
1.3695982900343647e7 -1.233678735090713e7 0.0
0.0 0.0 0.0

-3.8602945364504214e6 2.106620188135152e7 0.0
2.106620188135152e7 1.5506072252044216e7 0.0
0.0 0.0 0.0

9.388540707592938e6 2.0609635902512763e7 0.0
2.0609635902512763e7 170294.97432891186 0.0
0.0 0.0 0.0

1.748718475299798e6 1.0897780538823508e7 0.0
1.0897780538823508e7 -2.838225527665198e7 0.0
0.0 0.0 0.0

908019.0553121155 2.957590310752696e7 0.0
2.957590310752696e7 -2.9445321872916343e6 0.0
0.0 0.0 0.0

-194805.69233640167 1.7896277210915413e7 0.0
1.7896277210915413e7 3.9894905618755505e6 0.0
0.0 0.0 0.0

-6.684687877979517e7 5.713525911699344e6 0.0
5.713525911699344e6 4.511162075328533e6 0.0
0.0 0.0 0.0

5.35400872232694e7 7.192877208755036e6 0.0
7.192877208755036e6 -860506.9389312752 0.0
0.0 0.0 0.0

3.75019868728388e6 2.0844112125490163e7 0.0
2.0844112125490163e7 8.693760760771384e6 0.0
0.0 0.0 0.0

-5.209873124902794e6 7.890973584295705e6 0.0
7.890973584295705e6 2.7001534575501423e7 0.0
0.0 0.0 0.0

700216.1241938109 1.947210203508305e7 0.0
1.947210203508305e7 1.5698193445230953e7 0.0
0.0 0.0 0.0

1.781586123136139e6 2.466829541511357e7 0.0
2.466829541511357e7 -7.357372079269685e6 0.0
0.0 0.0 0.0

4.68329810233363e6 1.949316951043285e7 0.0
1.949316951043285e7 1.5610994396682788e7 0.0
0.0 0.0 0.0

-1.1503917749296822e7 7.467488976521984e6 0.0
7.467488976521984e6 2.1970058044318102e7 0.0
0.0 0.0 0.0

-3.220976412081361e6 2.076588753259287e7 0.0
2.076588753259287e7 1.037536399639779e7 0.0
0.0 0.0 0.0

-4.4618121775914565e7 3.43195123561114e7 0.0
3.43195123561114e7 -7.870319029488523e6 0.0
0.0 0.0 0.0

3.180984741467653e6 4.296671944491021e6 0.0
4.296671944491021e6 -2.8364224260779824e7 0.0
0.0 0.0 0.0

-2.959524775242259e6 2.0392688679071423e7 0.0
2.0392688679071423e7 -3.507270234311439e6 0.0
0.0 0.0 0.0

8.72397698358212e6 1.70263997702468e7 0.0
1.70263997702468e7 3.309504184130681e7 0.0
0.0 0.0 0.0

-6.587473449252333e6 1.6299880598268764e7 0.0
1.6299880598268764e7 -2.1958244939472966e7 0.0
0.0 0.0 0.0

5.6023087068654895e6 1.7027596212734483e7 0.0
1.7027596212734483e7 1.8674363064072218e7 0.0
0.0 0.0 0.0

-688722.0973648969 1.3717018493007202e7 0.0
1.3717018493007202e7 -3.7095586921376444e7 0.0
0.0 0.0 0.0

-1.0237276506125808e7 1.4760333186472415e6 0.0
1.4760333186472415e6 2.769337505484449e7 0.0
0.0 0.0 0.0

-1.7313254380177222e7 2.9832450153032307e7 0.0
2.9832450153032307e7 6.094707948786341e6 0.0
0.0 0.0 0.0

2.326349399277702e6 8.146187708708493e6 0.0
8.146187708708493e6 -1.8426586366527636e7 0.0
0.0 0.0 0.0

-5.327577187268315e6 1.7558296276740637e7 0.0
1.7558296276740637e7 3.0259926985650066e7 0.0
0.0 0.0 0.0

-1.202896866872533e7 4.7802433045704365e6 0.0
4.7802433045704365e6 1.8668101631831385e7 0.0
0.0 0.0 0.0

-4.823012989653141e6 2.98686023376379e7 0.0
2.98686023376379e7 4.808573334005901e6 0.0
0.0 0.0 0.0

-1.107829477208805e7 3.3830780448017225e7 0.0
3.3830780448017225e7 5.838824919125044e6 0.0
0.0 0.0 0.0

-1.2374684255518537e7 -529863.8128888541 0.0
-529863.8128888541 7.0923630981790535e6 0.0
0.0 0.0 0.0

-2.8737415716151143e6 1.7042710753659684e7 0.0
1.7042710753659684e7 -1.0744114481477575e7 0.0
0.0 0.0 0.0

1.3166576423612908e6 2.4095148244079422e7 0.0
2.4095148244079422e7 -7.59796081719668e6 0.0
0.0 0.0 0.0

-8.830719232773615e6 2.854859862402218e6 0.0
2.854859862402218e6 1.0002998310895517e7 0.0
0.0 0.0 0.0

8.26910900471288e6 2.736842743158422e7 0.0
2.736842743158422e7 -5.222478331156267e6 0.0
0.0 0.0 0.0

-1.2300525290983655e7 5.925069690954103e6 0.0
5.925069690954103e6 1.97846985455975e7 0.0
0.0 0.0 0.0

2.9288057155657597e6 4.677804874874888e6 0.0
4.677804874874888e6 -3.311683811781846e7 0.0
0.0 0.0 0.0

2.9539236843351033e6 5.58640748315499e6 0.0
5.58640748315499e6 -2.966150875349843e7 0.0
0.0 0.0 0.0

768003.948092184 1.3421949904416315e7 0.0
1.3421949904416315e7 -1.601341702496181e7 0.0
0.0 0.0 0.0

1.3063708732732567e6 2.1502420695741497e7 0.0
2.1502420695741497e7 -1.0878542231426287e7 0.0
0.0 0.0 0.0

2.4016262258341126e6 5.627464951738805e6 0.0
5.627464951738805e6 -4.9095352781025246e7 0.0
0.0 0.0 0.0

-6.261609745347872e6 2.246029188293841e7 0.0
2.246029188293841e7 -1.1974957251442028e7 0.0
0.0 0.0 0.0

724112.1798031693 1.5317651064794859e7 0.0
1.5317651064794859e7 -2.2192403212396465e7 0.0
0.0 0.0 0.0

-8.503228076269498e6 1.7812095488326043e7 0.0
1.7812095488326043e7 2.4232527785729047e7 0.0
0.0 0.0 0.0

-5.459133442463368e6 2.2127802309555855e7 0.0
2.2127802309555855e7 -1.0747886397017961e7 0.0
0.0 0.0 0.0

2.4501559747933634e6 1.0525065851784239e7 0.0
1.0525065851784239e7 -2.7798843218068983e7 0.0
0.0 0.0 0.0

-3.0590497742285423e7 2.3305378182970088e7 0.0
2.3305378182970088e7 5.457424037322804e6 0.0
0.0 0.0 0.0

2.9555359521100055e6 3.888053656162681e6 0.0
3.888053656162681e6 -3.458938253157958e7 0.0
0.0 0.0 0.0

3.5091438589875493e6 5.692548571284068e6 0.0
5.692548571284068e6 -2.9529100456286587e7 0.0
0.0 0.0 0.0

702186.109547372 1.965013606188044e7 0.0
1.965013606188044e7 -1.3849816161948929e7 0.0
0.0 0.0 0.0

-1.7131504348610252e7 -240175.4076837797 0.0
-240175.4076837797 8.366185736370332e6 0.0
0.0 0.0 0.0

1.5775657981660003e6 1.05617668089318e7 0.0
1.05617668089318e7 -1.1324947751555977e7 0.0
0.0 0.0 0.0

-1.1215401905292356e6 1.7762254533310376e7 0.0
1.7762254533310376e7 2.0227284812543705e7 0.0
0.0 0.0 0.0

-3.6926956332458453e6 2.8631409944309782e7 0.0
2.8631409944309782e7 4.669077426208545e6 0.0
0.0 0.0 0.0

-5.777023613831083e6 3.0398289624636494e7 0.0
3.0398289624636494e7 5.069152134114772e6 0.0
0.0 0.0 0.0

-1.2414799651957257e7 8.549861436686862e6 0.0
8.549861436686862e6 1.9987039134236835e7 0.0
0.0 0.0 0.0

-3.0733382584117316e6 1.3500184652540743e7 0.0
1.3500184652540743e7 5.777911695541197e7 0.0
0.0 0.0 0.0

-2.599995567939467e6 2.9107587771804422e7 0.0
2.9107587771804422e7 3.1105882930794936e6 0.0
0.0 0.0 0.0

-3.879134459677544e6 2.072708654437653e7 0.0
2.072708654437653e7 -1.4232162742532496e6 0.0
0.0 0.0 0.0

-83620.2605998523 1.946562608132106e7 0.0
1.946562608132106e7 -4.846429850376182e6 0.0
0.0 0.0 0.0

3.391438775439304e7 2.3187256912468895e7 0.0
2.3187256912468895e7 1.318148327394283e7 0.0
0.0 0.0 0.0

-1.1458680369830739e7 9.849713874471365e6 0.0
9.849713874471365e6 2.188081956579503e7 0.0
0.0 0.0 0.0

3.614797045323057e6 4.129399368161556e6 0.0
4.129399368161556e6 -3.2307684082106173e7 0.0
0.0 0.0 0.0

357245.4999707462 1.8675323759905018e7 0.0
1.8675323759905018e7 -1.2445126193335209e7 0.0
0.0 0.0 0.0

-2.8690380733834077e6 1.5800484623712795e7 0.0
1.5800484623712795e7 2.34304334826803e6 0.0
0.0 0.0 0.0

-1.2468316569119982e7 1.9271746111374263e7 0.0
1.9271746111374263e7 3.0300554155283235e6 0.0
0.0 0.0 0.0

-9.654354189345306e6 1.491518649458149e6 0.0
1.491518649458149e6 3.371955196973009e7 0.0
0.0 0.0 0.0

-7.171809863090958e7 4.412174465633775e7 0.0
4.412174465633775e7 -1.4124951230434619e7 0.0
0.0 0.0 0.0

-9.792643975943383e6 1.6909067469488014e7 0.0
1.6909067469488014e7 -3.2642147499002676e7 0.0
0.0 0.0 0.0

8.30463257111218e6 1.769418317448278e7 0.0
1.769418317448278e7 2.7682109441827305e7 0.0
0.0 0.0 0.0

842474.5320784682 1.4304930966869872e7 0.0
1.4304930966869872e7 -2.505436944877314e7 0.0
0.0 0.0 0.0

-1.291062868297494e7 2.3894263845298838e7 0.0
2.3894263845298838e7 -4.706987051493308e6 0.0
0.0 0.0 0.0

2.833306423375208e6 8.856293613332693e6 0.0
8.856293613332693e6 -1.7265018769550316e7 0.0
0.0 0.0 0.0

2.771370615952285e6 9.18459384646488e6 0.0
9.18459384646488e6 -2.8655674529753603e7 0.0
0.0 0.0 0.0

-4.925332910145225e6 1.9770853463434022e7 0.0
1.9770853463434022e7 1.838919275986234e7 0.0
0.0 0.0 0.0

1.6593315086800735e6 1.1522174364763767e7 0.0
1.1522174364763767e7 -2.6959918424124442e7 0.0
0.0 0.0 0.0

-4.1213879623442395e6 2.925879273493334e7 0.0
2.925879273493334e7 4.737796701002458e6 0.0
0.0 0.0 0.0

-1.1323601118758693e7 6.762710436735115e6 0.0
6.762710436735115e6 3.0829384973533392e7 0.0
0.0 0.0 0.0

-9.642855354162527e6 -751468.6673871741 0.0
-751468.6673871741 2.6027268010909833e7 0.0
0.0 0.0 0.0

2.5366847743005864e6 7.5739979853733955e6 0.0
7.5739979853733955e6 -2.96014821199918e7 0.0
0.0 0.0 0.0

-1.1569255575205432e7 2.2885563422385e7 0.0
2.2885563422385e7 -9.127656759818379e6 0.0
0.0 0.0 0.0

4.504789820396786e6 3.190779994386511e7 0.0
3.190779994386511e7 -3.9599996148543693e6 0.0
0.0 0.0 0.0

-7.511924741141739e6 1.809615574103108e7 0.0
1.809615574103108e7 2.2585270208393205e7 0.0
0.0 0.0 0.0

2.7121929561565015e6 6.097918428013542e6 0.0
6.097918428013542e6 -3.239062701094613e7 0.0
0.0 0.0 0.0

2.493799894697588e6 6.244250072263912e6 0.0
6.244250072263912e6 -4.3007994401740246e7 0.0
0.0 0.0 0.0

-6.11086388838473e6 1.2389592239622397e7 0.0
1.2389592239622397e7 4.687699222233341e7 0.0
0.0 0.0 0.0

-1.0797060188870503e7 6.992647112693294e6 0.0
6.992647112693294e6 3.1776958531061776e7 0.0
0.0 0.0 0.0

6.517276086037679e6 2.750470749585301e7 0.0
2.750470749585301e7 -5.343674566183301e6 0.0
0.0 0.0 0.0

-1.6212049981826385e6 2.2541874999556236e7 0.0
2.2541874999556236e7 -2.3823699956695633e6 0.0
0.0 0.0 0.0

-9.908906865855705e6 4.98596467607842e6 0.0
4.98596467607842e6 3.6345301804471955e7 0.0
0.0 0.0 0.0

3.0867712925804155e6 4.957830631815745e6 0.0
4.957830631815745e6 -1.815117267925892e7 0.0
0.0 0.0 0.0

-2.8425303359871795e6 2.2605671884794656e7 0.0
2.2605671884794656e7 677492.5516805889 0.0
0.0 0.0 0.0

-1.7097807954537723e7 2.365113525564786e7 0.0
2.365113525564786e7 -7.695615517490104e6 0.0
0.0 0.0 0.0

-1.0570620536924701e7 1.0676788806256952e7 0.0
1.0676788806256952e7 1.5014164327015469e7 0.0
0.0 0.0 0.0

3.3899452916635703e6 5.569223784129187e6 0.0
5.569223784129187e6 -3.1597956651472673e7 0.0
0.0 0.0 0.0

1.6903284524440095e6 1.1548373182681685e7 0.0
1.1548373182681685e7 -2.5155643394586794e7 0.0
0.0 0.0 0.0

-1.0873915864150444e7 578254.2429796441 0.0
578254.2429796441 1.745659319425492e7 0.0
0.0 0.0 0.0

-1.1449571275221242e7 9.756417364154108e6 0.0
9.756417364154108e6 2.624881391948863e7 0.0
0.0 0.0 0.0

-563721.6682835203 1.3949128030621007e7 0.0
1.3949128030621007e7 -3.459803828246462e7 0.0
0.0 0.0 0.0

3.630756555370733e6 5.056192574051334e6 0.0
5.056192574051334e6 -2.8878035182930194e7 0.0
0.0 0.0 0.0

-2.131622951704888e6 2.2304692799648613e7 0.0
2.2304692799648613e7 -4.0191050683487337e6 0.0
0.0 0.0 0.0

3.096240603147395e6 7.769077968834131e6 0.0
7.769077968834131e6 -2.9467958036530048e7 0.0
0.0 0.0 0.0

-1.0309901237641135e7 2.3808808862360264e6 0.0
2.3808808862360264e6 1.991604375110055e7 0.0
0.0 0.0 0.0

-1.4122186943611272e7 1.862561349040714e7 0.0
1.862561349040714e7 -4.707395962546726e7 0.0
0.0 0.0 0.0

1.2350833405304564e7 1.924532922741963e7 0.0
1.924532922741963e7 4.11694471003997e7 0.0
0.0 0.0 0.0

633778.6835489011 1.9792954414125785e7 0.0
1.9792954414125785e7 1.054757113001935e6 0.0
0.0 0.0 0.0

-2.5871265595530376e7 1.861444065659681e6 0.0
1.861444065659681e6 7.658327103617145e6 0.0
0.0 0.0 0.0

-9.485790342622954e6 -632025.3540822248 0.0
-632025.3540822248 1.9578240768223036e7 0.0
0.0 0.0 0.0

5.673658276036374e6 1.9335568877986718e7 0.0
1.9335568877986718e7 1.8912191394220576e7 0.0
0.0 0.0 0.0

-5.112088797998826e6 1.8321614884251315e7 0.0
1.8321614884251315e7 -1.7040293652246654e7 0.0
0.0 0.0 0.0

-2.294717251407817e6 1.3748593076017108e7 0.0
1.3748593076017108e7 6.3279542925507255e7 0.0
0.0 0.0 0.0

2.634326878332155e6 6.862227435772646e6 0.0
6.862227435772646e6 -3.1000549542577986e7 0.0
0.0 0.0 0.0

1.0554068142143046e6 2.3425239161091767e7 0.0
2.3425239161091767e7 -8.710243175097056e6 0.0
0.0 0.0 0.0

-7.175475680576319e6 1.6596557446250394e7 0.0
1.6596557446250394e7 -3.563483953287329e7 0.0
0.0 0.0 0.0

-3.8572943075367045e6 2.764322475538151e7 0.0
2.764322475538151e7 4.1029892633683328e6 0.0
0.0 0.0 0.0

-4.499609120831681e6 2.2324847972932238e7 0.0
2.2324847972932238e7 8.186306837581245e6 0.0
0.0 0.0 0.0

366301.59452533675 2.76228852705645e7 0.0
2.76228852705645e7 -3.871502349562498e6 0.0
0.0 0.0 0.0

-1.2507119387820594e7 1.7130957867154755e7 0.0
1.7130957867154755e7 -4.943294596136344e7 0.0
0.0 0.0 0.0

5.070596961901542e6 2.7454179957581494e7 0.0
2.7454179957581494e7 -5.410287901958797e6 0.0
0.0 0.0 0.0

-7.401067576622248e6 1.6941050001359507e7 0.0
1.6941050001359507e7 2.9414718667560615e7 0.0
0.0 0.0 0.0

2.0022661441100258e6 9.372815099362684e6 0.0
9.372815099362684e6 -1.8091056486025862e7 0.0
0.0 0.0 0.0

2.79334855948849e6 6.210274228803143e6 0.0
6.210274228803143e6 -3.03317478860816e7 0.0
0.0 0.0 0.0

1.2512772637148672e6 2.2381989412742376e7 0.0
2.2381989412742376e7 -9.92252236877837e6 0.0
0.0 0.0 0.0

-2.0150818617833634e6 1.5781169062048249e7 0.0
1.5781169062048249e7 -6.289255802706285e6 0.0
0.0 0.0 0.0

1.7349593396280669e6 9.474404075300163e6 0.0
9.474404075300163e6 -3.386756247697438e7 0.0
0.0 0.0 0.0

-3.3449926513915043e6 2.63532044443938e7 0.0
2.63532044443938e7 4.964984977090467e6 0.0
0.0 0.0 0.0

-2.3918510455530463e6 1.7830780177458357e7 0.0
1.7830780177458357e7 -170461.97497752542 0.0
0.0 0.0 0.0

775262.20311948 1.5532468230302678e7 0.0
1.5532468230302678e7 -1.357813437276043e7 0.0
0.0 0.0 0.0

1.1085892302319705e6 1.2310319856420748e7 0.0
1.2310319856420748e7 -3.256286052363547e7 0.0
0.0 0.0 0.0

2.95519440518637e6 2.6899102741361924e7 0.0
2.6899102741361924e7 -5.609582635808963e6 0.0
0.0 0.0 0.0

403755.42669337336 1.745376430850638e7 0.0
1.745376430850638e7 -1.2532177435267385e7 0.0
0.0 0.0 0.0

-1.792969033192304e6 1.6161604966661377e7 0.0
1.6161604966661377e7 -5.552917891920864e6 0.0
0.0 0.0 0.0

2.6219213571820922e7 5.717784960071437e6 0.0
5.717784960071437e6 -2.430246486146219e6 0.0
0.0 0.0 0.0

-3.20481509355278e6 1.89038275827997e7 0.0
1.89038275827997e7 7.409908750960931e6 0.0
0.0 0.0 0.0

-9.547047671066627e6 9.76594007213364e6 0.0
9.76594007213364e6 1.6750441903090412e7 0.0
0.0 0.0 0.0

-9.988663652928285e6 1.1520283122003311e6 0.0
1.1520283122003311e6 2.9891965857790798e7 0.0
0.0 0.0 0.0

3.8812506637060177e6 3.779854489304863e6 0.0
3.779854489304863e6 -2.7524370116333645e7 0.0
0.0 0.0 0.0

3.2787000959752677e6 6.358550404239391e6 0.0
6.358550404239391e6 -2.0528329760496616e7 0.0
0.0 0.0 0.0

3.6923509402639177e6 5.187650452125635e6 0.0
5.187650452125635e6 -2.683184256855348e7 0.0
0.0 0.0 0.0

-4.27708491414357e6 1.7886816973552454e7 0.0
1.7886816973552454e7 -2.098275783912173e7 0.0
0.0 0.0 0.0

3.9119573901751842e6 2.7226552139824767e7 0.0
2.7226552139824767e7 -5.494316263209915e6 0.0
0.0 0.0 0.0

-7.448259655411288e6 1.7239069940202158e7 0.0
1.7239069940202158e7 2.7600752439518243e7 0.0
0.0 0.0 0.0

-3.8600957130081933e6 1.943021329238866e7 0.0
1.943021329238866e7 6.491748190574429e6 0.0
0.0 0.0 0.0

3.016151710572526e6 5.746432997894667e6 0.0
5.746432997894667e6 -2.775118334131327e7 0.0
0.0 0.0 0.0

-1.171365909891268e7 3.5659564429800822e6 0.0
3.5659564429800822e6 1.7830536617592633e7 0.0
0.0 0.0 0.0

-7.760696198456803e6 1.83157105051206e7 0.0
1.83157105051206e7 2.4102598586699814e7 0.0
0.0 0.0 0.0

651575.9870391209 1.9330937151745122e7 0.0
1.9330937151745122e7 -1.4894311035329586e7 0.0
0.0 0.0 0.0

1.0662095879053324e6 2.0139577953213844e7 0.0
2.0139577953213844e7 -5.757194004616289e6 0.0
0.0 0.0 0.0

-3.54860730037729e6 2.7348351592927e7 0.0
2.7348351592927e7 5.399446528168789e6 0.0
0.0 0.0 0.0

1.295997892146078e6 1.5180295040607717e7 0.0
1.5180295040607717e7 -2.2002460169756074e7 0.0
0.0 0.0 0.0

3.4091002225584425e6 6.453761940096367e6 0.0
6.453761940096367e6 -2.8241113165578168e7 0.0
0.0 0.0 0.0

2.888609500720354e6 6.343721000511098e6 0.0
6.343721000511098e6 -2.8374184337276503e7 0.0
0.0 0.0 0.0

1.8128788337144386e6 8.45184416331984e6 0.0
8.45184416331984e6 -1.4656295795246687e7 0.0
0.0 0.0 0.0

2.7112052356162984e6 6.937555696830627e6 0.0
6.937555696830627e6 -2.9020872779878136e7 0.0
0.0 0.0 0.0

3.7402135564206364e6 5.669577813135559e6 0.0
5.669577813135559e6 -2.357969107777932e7 0.0
0.0 0.0 0.0

-7.495085829026565e6 3.2642990019400652e7 0.0
3.2642990019400652e7 5.243041717197771e6 0.0
0.0 0.0 0.0

6.628993007871286e6 2.8916843053453725e7 0.0
2.8916843053453725e7 -5.17282232683274e6 0.0
0.0 0.0 0.0

-5.0765007401243765e6 2.3264121461287346e7 0.0
2.3264121461287346e7 8.276345628914818e6 0.0
0.0 0.0 0.0

2.930324507877904e6 6.254269400191332e6 0.0
6.254269400191332e6 -2.4521186592442133e7 0.0
0.0 0.0 0.0

-1.8631613977516615e6 1.935782846478732e7 0.0
1.935782846478732e7 -7.054505930308736e6 0.0
0.0 0.0 0.0

-1.2084192270399865e6 1.680551128245757e7 0.0
1.680551128245757e7 -234381.40463848304 0.0
0.0 0.0 0.0

-1.8659010775113933e7 2.0921970407971717e7 0.0
2.0921970407971717e7 -6.219671692785911e7 0.0
0.0 0.0 0.0

1.7735862697862472e7 2.2427111182811964e7 0.0
2.2427111182811964e7 5.911955989209449e7 0.0
0.0 0.0 0.0

1.1304428552616937e7 2.095069477589955e7 0.0
2.095069477589955e7 221302.30076510832 0.0
0.0 0.0 0.0

1.72699124695861e7 2.2425232189797733e7 0.0
2.2425232189797733e7 -193899.95729130413 0.0
0.0 0.0 0.0

832421.7229235992 6.794275379686088e6 0.0
6.794275379686088e6 -5.419386796189606e7 0.0
0.0 0.0 0.0

880601.3944788091 1.7760480820179287e7 0.0
1.7760480820179287e7 -1.696519765902762e7 0.0
0.0 0.0 0.0

-534762.3616390005 1.9895279753159747e7 0.0
1.9895279753159747e7 1.3420653685632493e7 0.0
0.0 0.0 0.0

-1.0900647633252142e7 6.346162778223748e6 0.0
6.346162778223748e6 3.3321165664360847e7 0.0
0.0 0.0 0.0

-6.656214526024781e6 1.6254786683497192e7 0.0
1.6254786683497192e7 3.341025042156293e7 0.0
0.0 0.0 0.0

-3.003310493294461e6 2.1361334625559554e7 0.0
2.1361334625559554e7 7.904162507312768e6 0.0
0.0 0.0 0.0

-990045.785808856 1.5358239010257402e7 0.0
1.5358239010257402e7 -5.617539739871083e6 0.0
0.0 0.0 0.0

-1.2680271054696966e7 2.5709349671360254e7 0.0
2.5709349671360254e7 -1.0831590039922152e7 0.0
0.0 0.0 0.0

-3.6795011777450377e6 2.171219141764494e7 0.0
2.171219141764494e7 1.3968746719475007e7 0.0
0.0 0.0 0.0

-7.846410544316506e6 1.3873772537949726e7 0.0
1.3873772537949726e7 1.301620136115011e7 0.0
0.0 0.0 0.0

-2.9546894685489945e6 2.2278453079196997e7 0.0
2.2278453079196997e7 5.048539158017654e6 0.0
0.0 0.0 0.0

2.75381723670849e6 6.787328526201321e6 0.0
6.787328526201321e6 -3.8396936266366035e7 0.0
0.0 0.0 0.0

3.338480479034215e6 7.388471071619212e6 0.0
7.388471071619212e6 -1.9414256749360453e7 0.0
0.0 0.0 0.0

97229.69383654743 1.975384932349644e7 0.0
1.975384932349644e7 -1.3201555595287977e7 0.0
0.0 0.0 0.0

1.5620407289318424e6 1.2227975830407202e7 0.0
1.2227975830407202e7 -2.3925102717844307e7 0.0
0.0 0.0 0.0

-8.941329722556435e6 8.654030134127598e6 0.0
8.654030134127598e6 4.076358823129019e7 0.0
0.0 0.0 0.0

-7.424682605507566e6 2.5299640751988585e6 0.0
2.5299640751988585e6 8.392233425000789e6 0.0
0.0 0.0 0.0

-6.838185998143662e6 7.698684634022977e6 0.0
7.698684634022977e6 5.2125392479331344e7 0.0
0.0 0.0 0.0

-329414.771106584 1.8901779183112714e7 0.0
1.8901779183112714e7 -1.2795658754107228e7 0.0
0.0 0.0 0.0

-4.6109396558094965e6 2.3626205838131543e7 0.0
2.3626205838131543e7 9.483838528369194e6 0.0
0.0 0.0 0.0

-8.723391162242014e6 1.247394786623371e7 0.0
1.247394786623371e7 1.7391811654176064e7 0.0
0.0 0.0 0.0

2.5475101526887575e6 2.5013530969163045e7 0.0
2.5013530969163045e7 -6.938172760294984e6 0.0
0.0 0.0 0.0

-1.0721506664260555e7 8.312273856425687e6 0.0
8.312273856425687e6 1.4726011605541345e7 0.0
0.0 0.0 0.0

-4.718989955272452e6 2.104518597086743e7 0.0
2.104518597086743e7 1.547868016640946e7 0.0
0.0 0.0 0.0

2.3588130591012694e7 2.695508048856051e7 0.0
2.695508048856051e7 -6.200798950754274e6 0.0
0.0 0.0 0.0

-7.542146129409394e6 1.8781331234537695e7 0.0
1.8781331234537695e7 2.126507910049593e7 0.0
0.0 0.0 0.0

-4.436421117568915e6 3.736658870342276e6 0.0
3.736658870342276e6 7.725715045473321e6 0.0
0.0 0.0 0.0

-2.9196515779644072e7 1.9433765194992828e6 0.0
1.9433765194992828e6 7.928122703930575e6 0.0
0.0 0.0 0.0

3.260081301722994e6 4.370456318384188e6 0.0
4.370456318384188e6 -3.0060199557258256e7 0.0
0.0 0.0 0.0

-7.79145714175943e6 2.9079252131704368e7 0.0
2.9079252131704368e7 6.2274309464003965e6 0.0
0.0 0.0 0.0

-1.1031316127411168e7 1.094176351032563e6 0.0
1.094176351032563e6 1.542462474354665e7 0.0
0.0 0.0 0.0

-3.5519378007029253e6 1.3286380634782614e7 0.0
1.3286380634782614e7 -306897.3525159139 0.0
0.0 0.0 0.0

-1.1027419568818374e7 2.4063960227952222e6 0.0
2.4063960227952222e6 2.742517470160648e7 0.0
0.0 0.0 0.0

223721.46106109768 1.9328290337855767e7 0.0
1.9328290337855767e7 -1.4955808496829031e7 0.0
0.0 0.0 0.0

-1.0605614195766833e7 999811.8535726751 0.0
999811.8535726751 2.9042856790178023e7 0.0
0.0 0.0 0.0

442072.81656013895 1.5882346443272522e7 0.0
1.5882346443272522e7 -1.655589193908102e7 0.0
0.0 0.0 0.0

-7.157442384507032e6 1.7905754452141937e7 0.0
1.7905754452141937e7 2.633140959338834e7 0.0
0.0 0.0 0.0

-1.0693831173152223e7 1.1601431623759342e7 0.0
1.1601431623759342e7 1.6052663582159718e7 0.0
0.0 0.0 0.0

-5.061624216802139e6 1.6722616070131872e7 0.0
1.6722616070131872e7 3.3935450943208754e7 0.0
0.0 0.0 0.0

-9.741408128040997e6 1.5650292153547414e7 0.0
1.5650292153547414e7 1.9776838719005425e7 0.0
0.0 0.0 0.0

-2.759769414680049e6 2.3369954147825766e7 0.0
2.3369954147825766e7 684315.9315345386 0.0
0.0 0.0 0.0

2.6285909736115094e6 7.5544869973575985e6 0.0
7.5544869973575985e6 -3.664904289303502e7 0.0
0.0 0.0 0.0

-5.41521007390631e6 1.7915738449082356e7 0.0
1.7915738449082356e7 2.8784678651014835e7 0.0
0.0 0.0 0.0

1.2038141794447469e7 2.101262284988819e7 0.0
2.101262284988819e7 7.098526433342304e6 0.0
0.0 0.0 0.0

-1.969901273244252e7 1.1591964707631052e7 0.0
1.1591964707631052e7 9.248344588566944e6 0.0
0.0 0.0 0.0

1.587605720229892e6 1.1452356390088184e7 0.0
1.1452356390088184e7 -3.227877310260327e7 0.0
0.0 0.0 0.0

-7.059888778778847e6 1.3340643651810842e7 0.0
1.3340643651810842e7 1.565563240108532e7 0.0
0.0 0.0 0.0

2.574207316920297e6 9.557992766783493e6 0.0
9.557992766783493e6 -1.6205670552387085e7 0.0
0.0 0.0 0.0

-9.310380143559443e6 103820.22596163208 0.0
103820.22596163208 1.7124671269168265e7 0.0
0.0 0.0 0.0

-1.0518401467337472e7 -670986.1483856648 0.0
-670986.1483856648 2.3074550623907875e7 0.0
0.0 0.0 0.0

1.059924069669797e6 1.4039408279943986e7 0.0
1.4039408279943986e7 -2.0110243476277847e7 0.0
0.0 0.0 0.0

-1.1215640902464857e7 6.4719350075429585e6 0.0
6.4719350075429585e6 2.1065903102209777e7 0.0
0.0 0.0 0.0

-5.381667645528917e6 2.4203814667791177e7 0.0
2.4203814667791177e7 8.305959596395558e6 0.0
0.0 0.0 0.0

5.371645075083261e6 1.6547817904311422e7 0.0
1.6547817904311422e7 7.340480313270118e6 0.0
0.0 0.0 0.0

-403463.5681827109 7.840329991954044e6 0.0
7.840329991954044e6 -1.522891157831692e6 0.0
0.0 0.0 0.0

271295.3572347425 1.9514234161381513e7 0.0
1.9514234161381513e7 -1.1827918450063262e7 0.0
0.0 0.0 0.0

2.6339463547392096e6 7.653743984876603e6 0.0
7.653743984876603e6 -2.2229443685696606e7 0.0
0.0 0.0 0.0

577348.0566383419 2.6894431976987496e7 0.0
2.6894431976987496e7 -4.675341687141489e6 0.0
0.0 0.0 0.0

-5.423425525498595e6 1.5279857932675568e7 0.0
1.5279857932675568e7 -6.1926010323808804e7 0.0
0.0 0.0 0.0

2.8122263698774446e6 5.616644820504571e6 0.0
5.616644820504571e6 -1.695884256352177e7 0.0
0.0 0.0 0.0

3.1105025453419015e6 5.580569460917545e6 0.0
5.580569460917545e6 -2.394016569489477e7 0.0
0.0 0.0 0.0

-3.5776034178873156e6 1.799550172386189e7 0.0
1.799550172386189e7 -1.9113781464592814e7 0.0
0.0 0.0 0.0

-1.1965401697896519e6 8.469100578484107e6 0.0
8.469100578484107e6 85580.91696530645 0.0
0.0 0.0 0.0

-1.445185528697282e7 1.786713025917313e7 0.0
1.786713025917313e7 -5.700873942839773e7 0.0
0.0 0.0 0.0

2.0043626709138192e6 8.109982538710649e6 0.0
8.109982538710649e6 -9.882231692246648e6 0.0
0.0 0.0 0.0

2.9244058101244085e6 8.321955170609577e6 0.0
8.321955170609577e6 -1.6454149123432484e7 0.0
0.0 0.0 0.0

-598019.7115351309 1.9177117348914668e7 0.0
1.9177117348914668e7 -2.553838686659623e6 0.0
0.0 0.0 0.0

-8.718350473872697e6 1.3259477028341213e7 0.0
1.3259477028341213e7 3.512554794229259e7 0.0
0.0 0.0 0.0

-2.7733323351198216e6 2.8511684275854487e7 0.0
2.8511684275854487e7 1.6872065985938746e6 0.0
0.0 0.0 0.0

-1.1532876376579303e7 8.98761312033368e6 0.0
8.98761312033368e6 8.770512081213128e6 0.0
0.0 0.0 0.0

1.4488659899893012e6 1.2783850625013186e7 0.0
1.2783850625013186e7 -2.2596416895134594e7 0.0
0.0 0.0 0.0

1.0941685884918692e6 1.953519285182613e7 0.0
1.953519285182613e7 1.7967805455000818e7 0.0
0.0 0.0 0.0

640418.0462613553 2.617220050627623e7 0.0
2.617220050627623e7 -5.533870947985247e6 0.0
0.0 0.0 0.0

-622203.2138856156 1.3898366593637291e7 0.0
1.3898366593637291e7 -1.0223828001776751e7 0.0
0.0 0.0 0.0

1.9282981282758117e6 2.5544121443147946e7 0.0
2.5544121443147946e7 -6.584178422916025e6 0.0
0.0 0.0 0.0

590436.0087254648 1.4332353747534383e7 0.0
1.4332353747534383e7 -1.1348037552270975e7 0.0
0.0 0.0 0.0

-9.636674382639328e6 -2.131854938488628e6 0.0
-2.131854938488628e6 1.7495266013649106e7 0.0
0.0 0.0 0.0

-191512.12213195534 1.9121416740609083e7 0.0
1.9121416740609083e7 -1.3275433914566478e7 0.0
0.0 0.0 0.0

1.3037513608431479e7 4.17932969414525e7 0.0
4.17932969414525e7 -7.321544842281586e6 0.0
0.0 0.0 0.0

5.550361285200863e6 2.24677993718901e7 0.0
2.24677993718901e7 -4.572514536277814e6 0.0
0.0 0.0 0.0

731161.1700580325 1.8581883739737324e7 0.0
1.8581883739737324e7 -1.5962527155585404e7 0.0
0.0 0.0 0.0

-3.8291517873360277e6 1.5119848258011777e7 0.0
1.5119848258011777e7 6.926062266952135e6 0.0
0.0 0.0 0.0

-3.2035580110065783e6 1.827529401399226e7 0.0
1.827529401399226e7 -898524.4487782056 0.0
0.0 0.0 0.0

3.778080849646043e6 3.34513103538475e6 0.0
3.34513103538475e6 -2.900519176902916e7 0.0
0.0 0.0 0.0

3.131970838665303e6 4.2244255469236085e6 0.0
4.2244255469236085e6 -1.2119551178148601e7 0.0
0.0 0.0 0.0

-3.770879163140192e6 9.772716641616348e6 0.0
9.772716641616348e6 725160.7866785692 0.0
0.0 0.0 0.0

-8.96787555869174e6 2.1979919684162255e7 0.0
2.1979919684162255e7 -1.9030628908701753e6 0.0
0.0 0.0 0.0

2.9086574729363024e6 6.066051564914748e6 0.0
6.066051564914748e6 -1.995232472795745e7 0.0
0.0 0.0 0.0

64675.90674449131 1.6184528038253129e7 0.0
1.6184528038253129e7 -1.4689637200534632e7 0.0
0.0 0.0 0.0

-661045.2096885596 1.9980382118201368e7 0.0
1.9980382118201368e7 1.0945976012538541e7 0.0
0.0 0.0 0.0

2.2487933494003695e6 1.1838004372639596e7 0.0
1.1838004372639596e7 -2.3299967945719466e7 0.0
0.0 0.0 0.0

-1.0912807116543157e7 5.1943682447192045e6 0.0
5.1943682447192045e6 2.017038567398444e7 0.0
0.0 0.0 0.0

-2.608647386667445e7 2.979209105961301e7 0.0
2.979209105961301e7 4.521556312948925e6 0.0
0.0 0.0 0.0

2.3260416980040893e6 1.1177330934386566e7 0.0
1.1177330934386566e7 -2.640721829994674e7 0.0
0.0 0.0 0.0

-5.2870558910476e7 4.362308325122921e6 0.0
4.362308325122921e6 5.513284075617544e6 0.0
0.0 0.0 0.0

2.5697920186010953e6 7.405415690384883e6 0.0
7.405415690384883e6 -1.9541307427606057e7 0.0
0.0 0.0 0.0

-4.0311205016678395e6 1.972811284353777e7 0.0
1.972811284353777e7 2.06043724361981e7 0.0
0.0 0.0 0.0

-402154.1555857863 1.4183576711989673e7 0.0
1.4183576711989673e7 -3.2691589655030616e7 0.0
0.0 0.0 0.0

674457.7518457407 1.525433751396783e7 0.0
1.525433751396783e7 -2.5053360758941982e7 0.0
0.0 0.0 0.0

-7.934229736411501e6 2.6521105840567583e6 0.0
2.6521105840567583e6 1.3265498727890925e7 0.0
0.0 0.0 0.0

-1.214636271071561e7 9.366960741798785e6 0.0
9.366960741798785e6 2.5119101422806036e7 0.0
0.0 0.0 0.0

-2.951624477087903e6 1.553301897448104e7 0.0
1.553301897448104e7 -2.7075452098152637e6 0.0
0.0 0.0 0.0

-4.354019516731778e6 1.4357582727515645e7 0.0
1.4357582727515645e7 8.577497067835227e6 0.0
0.0 0.0 0.0

-1.1607477524446527e7 8.284601429128417e6 0.0
8.284601429128417e6 2.8996008813583285e7 0.0
0.0 0.0 0.0

-1.8797299694486584e6 1.507582738631819e7 0.0
1.507582738631819e7 -1.9752518785675485e6 0.0
0.0 0.0 0.0

-117564.1239800239 1.8287814114869546e7 0.0
1.8287814114869546e7 -1.3956165143645542e7 0.0
0.0 0.0 0.0

154224.28657496953 1.9289613022487797e7 0.0
1.9289613022487797e7 -1.1288421502576273e7 0.0
0.0 0.0 0.0

-140780.83611338027 1.987737780204273e7 0.0
1.987737780204273e7 -1.2605099087866548e7 0.0
0.0 0.0 0.0

687873.3483154485 1.5244699171043871e7 0.0
1.5244699171043871e7 -1.7690449723070316e7 0.0
0.0 0.0 0.0

1.75503060745198e6 9.032089355211295e6 0.0
9.032089355211295e6 -1.5454570928728865e7 0.0
0.0 0.0 0.0

-795458.8608882278 1.9064538086343486e7 0.0
1.9064538086343486e7 -5.834973663012552e6 0.0
0.0 0.0 0.0

-505922.73324518837 1.8656877512869533e7 0.0
1.8656877512869533e7 -1.2313971299446601e7 0.0
0.0 0.0 0.0

91419.26090871403 1.454050909324471e7 0.0
1.454050909324471e7 -9.24594128414995e6 0.0
0.0 0.0 0.0

-1.0352474770052303e7 4.082814984515841e6 0.0
4.082814984515841e6 1.916552336009662e7 0.0
0.0 0.0 0.0

863355.2730243895 1.4664517561435986e7 0.0
1.4664517561435986e7 -1.8910205959405273e7 0.0
0.0 0.0 0.0

-1.6099216387228653e7 1.9662911505545042e7 0.0
1.9662911505545042e7 -5.3664055115427956e7 0.0
0.0 0.0 0.0

-7.222090629665431e6 4.456592023143287e6 0.0
4.456592023143287e6 1.2291323329846386e7 0.0
0.0 0.0 0.0

2.2556407144822795e6 8.667444294176899e6 0.0
8.667444294176899e6 -1.9178981439363785e7 0.0
0.0 0.0 0.0

-306561.4954346423 7.33706894701919e6 0.0
7.33706894701919e6 -5.353352632195717e6 0.0
0.0 0.0 0.0

-4.0877767814413924e6 1.4412268996027047e7 0.0
1.4412268996027047e7 -5.595541838102235e7 0.0
0.0 0.0 0.0

-4.927546286043225e6 1.5156109335325126e7 0.0
1.5156109335325126e7 1.1679773905928217e7 0.0
0.0 0.0 0.0

3.3949496374402745e6 6.853916350304704e6 0.0
6.853916350304704e6 -1.8659673393099796e7 0.0
0.0 0.0 0.0

-1.2408331247198153e7 8.895997662025658e6 0.0
8.895997662025658e6 2.2445749051294226e7 0.0
0.0 0.0 0.0

-8.559454110111771e6 2.0326915073392058e6 0.0
2.0326915073392058e6 4.32126262996063e7 0.0
0.0 0.0 0.0

461275.5303416732 1.846714440171145e7 0.0
1.846714440171145e7 -1.8716524237664407e6 0.0
0.0 0.0 0.0

1.6238059388678588e6 1.6711820189109454e7 0.0
1.6711820189109454e7 4.81221446381656e6 0.0
0.0 0.0 0.0

-7.094124433032595e6 2.4447880931297474e7 0.0
2.4447880931297474e7 7.775533194096498e6 0.0
0.0 0.0 0.0

-3.437538769819907e6 2.0500318825495068e7 0.0
2.0500318825495068e7 3.851580811477464e6 0.0
0.0 0.0 0.0

3.469152796409702e6 4.865296758823575e6 0.0
4.865296758823575e6 -3.2984112192048483e7 0.0
0.0 0.0 0.0

3.4721040065173935e6 5.517449739898923e6 0.0
5.517449739898923e6 -3.34510242381104e7 0.0
0.0 0.0 0.0

-1.0367509570857402e7 1.4655678261046056e7 0.0
1.4655678261046056e7 2.6029466177515898e7 0.0
0.0 0.0 0.0

26987.234868933447 1.7430469789832473e7 0.0
1.7430469789832473e7 -1.4661108612765297e7 0.0
0.0 0.0 0.0

7.859723793307916e6 2.132484318787187e7 0.0
2.132484318787187e7 882400.0634801034 0.0
0.0 0.0 0.0

-8.529275747743744e6 4.315186035938451e6 0.0
4.315186035938451e6 4.934232346291872e7 0.0
0.0 0.0 0.0

-3.480063417541124e6 1.8233120863440093e7 0.0
1.8233120863440093e7 8.96910074724272e6 0.0
0.0 0.0 0.0

-1.1200118894357514e6 1.7200565614836685e7 0.0
1.7200565614836685e7 -9.885982633524952e6 0.0
0.0 0.0 0.0

-1.8810847795393858e6 1.5901374245212065e7 0.0
1.5901374245212065e7 5.012297956700709e7 0.0
0.0 0.0 0.0

-16517.290295633924 5.173220313698784e6 0.0
5.173220313698784e6 -567991.4990415664 0.0
0.0 0.0 0.0

-862983.1922464124 2.2578680126534346e7 0.0
2.2578680126534346e7 -7.542850490035174e6 0.0
0.0 0.0 0.0

4.371209901024298e6 2.0280071363213256e7 0.0
2.0280071363213256e7 1.5827994233988425e7 0.0
0.0 0.0 0.0

3.053855459981899e6 8.1444549526316505e6 0.0
8.1444549526316505e6 -1.834148048436867e7 0.0
0.0 0.0 0.0

-3.1738077910999544e6 1.3854736493193464e7 0.0
1.3854736493193464e7 -1.705157659370883e6 0.0
0.0 0.0 0.0

-6.224075023261784e6 1.514563886274482e7 0.0
1.514563886274482e7 3.833753876457094e7 0.0
0.0 0.0 0.0

2.416540337702023e6 9.119118204114038e6 0.0
9.119118204114038e6 -3.331333021439215e7 0.0
0.0 0.0 0.0

770313.2473636996 1.8067152766169187e7 0.0
1.8067152766169187e7 -1.716943476821527e7 0.0
0.0 0.0 0.0

-9.484384670572404e6 529343.8786695778 0.0
529343.8786695778 3.496281346893508e7 0.0
0.0 0.0 0.0

2.0368681393448636e6 1.0578205182287496e7 0.0
1.0578205182287496e7 -3.1893369944376577e7 0.0
0.0 0.0 0.0

269839.0574683747 1.0200564118914515e7 0.0
1.0200564118914515e7 -6.362111813074252e6 0.0
0.0 0.0 0.0

2.988857045071358e6 8.520997215053897e6 0.0
8.520997215053897e6 -2.8080143771463145e7 0.0
0.0 0.0 0.0

143866.1005830234 1.4520350775346506e7 0.0
1.4520350775346506e7 -1.3859399117493723e7 0.0
0.0 0.0 0.0

181410.35483476333 1.6519029829779234e7 0.0
1.6519029829779234e7 -1.5315961911269631e7 0.0
0.0 0.0 0.0

-1.1680303971537022e7 7.022490987213984e6 0.0
7.022490987213984e6 2.837645225336278e7 0.0
0.0 0.0 0.0

3.163990787059875e6 2.0059051864327323e7 0.0
2.0059051864327323e7 4.324074285228349e6 0.0
0.0 0.0 0.0

-1.039736801812839e7 2.8096651126249493e6 0.0
2.8096651126249493e6 1.807489721998194e7 0.0
0.0 0.0 0.0

1.25748589140182e6 1.5731223696657749e7 0.0
1.5731223696657749e7 -2.083301861317697e7 0.0
0.0 0.0 0.0

-3.6859403178300583e6 5.381398621655264e6 0.0
5.381398621655264e6 6.273353290496118e6 0.0
0.0 0.0 0.0

806672.5435929531 5.467084065816326e6 0.0
5.467084065816326e6 -6.520240516097743e6 0.0
0.0 0.0 0.0

-19981.43367203325 1.5856552614063473e7 0.0
1.5856552614063473e7 -1.4091162977128431e7 0.0
0.0 0.0 0.0

3.6877090934336353e6 5.382573494080572e6 0.0
5.382573494080572e6 -1.8928580781465232e7 0.0
0.0 0.0 0.0

-1.1459006526024979e7 2.8417243791719847e6 0.0
2.8417243791719847e6 2.505410139407e7 0.0
0.0 0.0 0.0

2.30983723814803e6 3.434659292751745e6 0.0
3.434659292751745e6 -4.867313339895084e7 0.0
0.0 0.0 0.0

-1.2486368121850677e6 1.744647804971175e7 0.0
1.744647804971175e7 -4.1621222324105245e6 0.0
0.0 0.0 0.0

-1.227236958333258e7 1.0814598491465136e7 0.0
1.0814598491465136e7 2.0089090216805138e7 0.0
0.0 0.0 0.0

-8.053749563207423e6 2.3472285163151182e7 0.0
2.3472285163151182e7 5.520810994239433e6 0.0
0.0 0.0 0.0

2.6915477681944002e6 2.0844895494778592e7 0.0
2.0844895494778592e7 8.42474762924227e6 0.0
0.0 0.0 0.0

-6.942944837691173e6 1.8402818389223002e7 0.0
1.8402818389223002e7 2.515643667467501e7 0.0
0.0 0.0 0.0

-5.603379620746537e6 1.9284856140867222e7 0.0
1.9284856140867222e7 1.994780244499161e7 0.0
0.0 0.0 0.0

-9.183346626323037e6 -1.5411496851749143e6 0.0
-1.5411496851749143e6 3.491498910574522e7 0.0
0.0 0.0 0.0

-3.222519209600254e6 1.4004623836223483e7 0.0
1.4004623836223483e7 3.8722624466821398e6 0.0
0.0 0.0 0.0

4.65017902339002e6 2.030877218874461e7 0.0
2.030877218874461e7 1.5259465144304274e7 0.0
0.0 0.0 0.0

-4.0411828573303334e6 2.2091470577995095e7 0.0
2.2091470577995095e7 1.1555069483496737e7 0.0
0.0 0.0 0.0

-1.2246693915303694e7 8.353839226411594e6 0.0
8.353839226411594e6 2.4308707658910573e7 0.0
0.0 0.0 0.0

948009.0320024444 1.429123536667034e7 0.0
1.429123536667034e7 -2.348287408810244e7 0.0
0.0 0.0 0.0

2.510594047290926e6 7.050162586015795e6 0.0
7.050162586015795e6 -1.6759824458671782e7 0.0
0.0 0.0 0.0

736740.2501670374 1.71760594242097e7 0.0
1.71760594242097e7 -1.426343733387154e7 0.0
0.0 0.0 0.0

-3.225363558783216e6 1.2699410275125936e7 0.0
1.2699410275125936e7 3.8589472953521023e6 0.0
0.0 0.0 0.0

3.2261379640338114e6 5.355876809828425e6 0.0
5.355876809828425e6 -1.2224707537858998e7 0.0
0.0 0.0 0.0

-996234.8269680415 2.3133853979834195e7 0.0
2.3133853979834195e7 -6.453534167499415e6 0.0
0.0 0.0 0.0

-8.916384842784312e6 3.3869156058299234e6 0.0
3.3869156058299234e6 4.122493725341617e7 0.0
0.0 0.0 0.0

-9.57113123210714e6 1.547934859067809e6 0.0
1.547934859067809e6 3.611728349750615e7 0.0
0.0 0.0 0.0

-9.746555618258553e6 1.1451398911565835e7 0.0
1.1451398911565835e7 3.520131067734885e7 0.0
0.0 0.0 0.0

-502309.67655928805 2.116913580437299e7 0.0
2.116913580437299e7 -1.0355515099507444e7 0.0
0.0 0.0 0.0

-2.00375044763015e6 8.519321170180563e6 0.0
8.519321170180563e6 -2.599412051597811e6 0.0
0.0 0.0 0.0

1.4916190477536954e7 2.2553773179565787e7 0.0
2.2553773179565787e7 1.2138101869532067e7 0.0
0.0 0.0 0.0

1.128828064666241e7 2.0971466691042084e7 0.0
2.0971466691042084e7 4.716786526474768e7 0.0
0.0 0.0 0.0

3.3746365599453924e6 6.399810548957561e6 0.0
6.399810548957561e6 -1.5720091669626154e7 0.0
0.0 0.0 0.0

-1.1073474078516362e7 4.800971049789239e6 0.0
4.800971049789239e6 2.202751203485287e7 0.0
0.0 0.0 0.0

-3.169191136108401e6 1.5221688330303637e7 0.0
1.5221688330303637e7 3.8336522873578267e6 0.0
0.0 0.0 0.0

-4.772850523885439e6 2.0798533857166294e7 0.0
2.0798533857166294e7 1.5225392548214925e7 0.0
0.0 0.0 0.0

3.1293717671546694e6 5.955941969765139e6 0.0
5.955941969765139e6 -3.585759399419936e7 0.0
0.0 0.0 0.0

3.1681637868536077e6 6.984260029398931e6 0.0
6.984260029398931e6 -3.0859494872593734e7 0.0
0.0 0.0 0.0

-5.920759726141386e6 6.132897035144854e6 0.0
6.132897035144854e6 5.126482036173249e6 0.0
0.0 0.0 0.0

-3.246069289258243e6 1.9238290076865118e7 0.0
1.9238290076865118e7 8.616843057779055e6 0.0
0.0 0.0 0.0

-2.3289895339806844e6 1.6301041181735989e7 0.0
1.6301041181735989e7 4.648984116687076e7 0.0
0.0 0.0 0.0

593398.2112414995 1.8075261261557937e7 0.0
1.8075261261557937e7 -1.3629722127903841e7 0.0
0.0 0.0 0.0

-4.114931692157493e6 7.323464485738118e6 0.0
7.323464485738118e6 6.92533998711329e6 0.0
0.0 0.0 0.0

3.2587170098619703e6 6.21057785707057e6 0.0
6.21057785707057e6 -3.2210979438176543e7 0.0
0.0 0.0 0.0

-3.799213499613379e6 2.1350021361238472e7 0.0
2.1350021361238472e7 9.410192226961259e6 0.0
0.0 0.0 0.0

2.39324866235477e6 8.417477566251315e6 0.0
8.417477566251315e6 -2.1178976263384007e7 0.0
0.0 0.0 0.0

-9.57789786393822e6 8.308440564893388e6 0.0
8.308440564893388e6 1.170030835706784e6 0.0
0.0 0.0 0.0

276163.00249673985 1.5229851960770644e7 0.0
1.5229851960770644e7 -1.5259856092425974e7 0.0
0.0 0.0 0.0

-4.1921492729199454e6 3.5074512697398746e6 0.0
3.5074512697398746e6 2.45398475334501e6 0.0
0.0 0.0 0.0

-3.141865617652766e6 1.129597021525253e7 0.0
1.129597021525253e7 3.777094318958992e6 0.0
0.0 0.0 0.0

-2.9066144535451243e6 9.749555266839053e6 0.0
9.749555266839053e6 3.6095684080825066e6 0.0
0.0 0.0 0.0

-104890.89351948723 1.546362313834736e7 0.0
1.546362313834736e7 -1.3449937544147637e7 0.0
0.0 0.0 0.0

-3.2569145957242795e6 1.5051575413713906e7 0.0
1.5051575413713906e7 -1.4861743707657054e6 0.0
0.0 0.0 0.0

-1.1936303487866238e7 8.748021932107301e6 0.0
8.748021932107301e6 2.7050827810963124e7 0.0
0.0 0.0 0.0

-5.415026931984426e6 1.406139696261266e7 0.0
1.406139696261266e7 4.434819062942568e7 0.0
0.0 0.0 0.0

-8.315567211263305e6 1.1416703852520274e7 0.0
1.1416703852520274e7 4.0246045719461784e7 0.0
0.0 0.0 0.0

-5.887406599749023e6 1.461535339902039e7 0.0
1.461535339902039e7 4.117787746222769e7 0.0
0.0 0.0 0.0

-6.242597206425998e6 7.368181274524222e6 0.0
7.368181274524222e6 6.121014157256765e7 0.0
0.0 0.0 0.0

-868533.7175604794 2.006094562699394e7 0.0
2.006094562699394e7 8.491592813748822e6 0.0
0.0 0.0 0.0

-8.843946334546195e6 5.456546665338367e6 0.0
5.456546665338367e6 4.656806112738787e7 0.0
0.0 0.0 0.0

-1.980042318728214e6 2.1709361624456037e7 0.0
2.1709361624456037e7 -5.156271521460095e6 0.0
0.0 0.0 0.0

-1.4790038448665105e6 1.8964036399866078e7 0.0
1.8964036399866078e7 -1.1294423544704832e7 0.0
0.0 0.0 0.0

-5.340247066403572e7 3.3767370286362186e7 0.0
3.3767370286362186e7 -9.749520363433544e6 0.0
0.0 0.0 0.0

3.0089246776387747e6 7.777804011060131e6 0.0
7.777804011060131e6 -1.5608324316712758e7 0.0
0.0 0.0 0.0

2.135431802679076e6 1.25316508667856e7 0.0
1.25316508667856e7 -2.22131875721447e7 0.0
0.0 0.0 0.0

-659967.2657709131 2.3326557783367366e7 0.0
2.3326557783367366e7 -5.5527866926314775e6 0.0
0.0 0.0 0.0

-2.4512963256713348e6 2.2312967907918103e7 0.0
2.2312967907918103e7 3.3599258491584784e6 0.0
0.0 0.0 0.0

3.1637809853847194e6 7.836723429450673e6 0.0
7.836723429450673e6 -2.756501667703543e7 0.0
0.0 0.0 0.0

1.5726438668521862e7 2.4186490079426017e7 0.0
2.4186490079426017e7 -3.7335612326230723e6 0.0
0.0 0.0 0.0

-4.547295886954225e6 1.1949545084702082e7 0.0
1.1949545084702082e7 2.7164058910665615e6 0.0
0.0 0.0 0.0

1.2974602602103315e6 6.196590230418872e6 0.0
6.196590230418872e6 -4.997869269241785e7 0.0
0.0 0.0 0.0

-4.525778885196786e6 1.0450008969036506e7 0.0
1.0450008969036506e7 2.483820086041268e6 0.0
0.0 0.0 0.0

2.1159434972464694e6 8.33703883489599e6 0.0
8.33703883489599e6 -1.6515343692041563e7 0.0
0.0 0.0 0.0

-6.697874208370781e6 1.8737567207827356e7 0.0
1.8737567207827356e7 2.399949432503649e7 0.0
0.0 0.0 0.0

-3.490621952924321e7 2.926003064011408e7 0.0
2.926003064011408e7 1.643355982334176e6 0.0
0.0 0.0 0.0

-1.0369914443178898e7 61828.41296234476 0.0
61828.41296234476 2.861289833489889e7 0.0
0.0 0.0 0.0

476485.20518383104 1.891483238787639e7 0.0
1.891483238787639e7 -1.295997823903525e7 0.0
0.0 0.0 0.0

-1.5321316728665419e7 2.5568843595769778e7 0.0
2.5568843595769778e7 -5.956686236702517e6 0.0
0.0 0.0 0.0

3.397576049355549e6 5.799142555745629e6 0.0
5.799142555745629e6 -1.5117595183467044e7 0.0
0.0 0.0 0.0

-1.1653441013826339e7 9.40542575265561e6 0.0
9.40542575265561e6 2.37659674880575e7 0.0
0.0 0.0 0.0

577252.0512945764 1.65101654230248e7 0.0
1.65101654230248e7 -1.3068056367727105e7 0.0
0.0 0.0 0.0

-775618.4544226681 1.5771247124914976e7 0.0
1.5771247124914976e7 -6.64681051453469e6 0.0
0.0 0.0 0.0

-4.471756420568291e6 1.3324409581540879e7 0.0
1.3324409581540879e7 2.8339654791668626e6 0.0
0.0 0.0 0.0

-1.0194735996244218e7 9.884214551194185e6 0.0
9.884214551194185e6 3.5267298564010054e7 0.0
0.0 0.0 0.0

3.7559296260929517e6 4.259494600473338e6 0.0
4.259494600473338e6 -3.018549232975792e7 0.0
0.0 0.0 0.0

3.0322164827216268e6 5.526189590757778e6 0.0
5.526189590757778e6 -1.885205652791203e7 0.0
0.0 0.0 0.0

-3.7898659812768316e6 2.1039865378770184e7 0.0
2.1039865378770184e7 8.492554287304735e6 0.0
0.0 0.0 0.0

-9.83011822919356e6 1.7220819870275517e6 0.0
1.7220819870275517e6 1.2424896755557332e7 0.0
0.0 0.0 0.0

43441.4524666667 1.4104191323990664e7 0.0
1.4104191323990664e7 -1.3150859713686273e7 0.0
0.0 0.0 0.0

3.380198746507358e6 6.988377230502817e6 0.0
6.988377230502817e6 -2.324181520852407e7 0.0
0.0 0.0 0.0

-9.678657815347716e6 4.67526144016725e6 0.0
4.67526144016725e6 3.8814665858095646e7 0.0
0.0 0.0 0.0

-1.1289898607908792e6 2.022588447996168e7 0.0
2.022588447996168e7 5.9493454243594445e6 0.0
0.0 0.0 0.0

-1.1147398608940408e7 1.6870930917818283e6 0.0
1.6870930917818283e6 2.4415241220727142e7 0.0
0.0 0.0 0.0

1.5198535946217421e6 1.1990070397897298e7 0.0
1.1990070397897298e7 -3.060923998474817e7 0.0
0.0 0.0 0.0

-381052.48898931686 1.7702256049154717e7 0.0
1.7702256049154717e7 -1.9147557919079445e7 0.0
0.0 0.0 0.0

-1.1792219564195413e7 1.2008336737736102e7 0.0
1.2008336737736102e7 1.9416994773105223e7 0.0
0.0 0.0 0.0

1.0066713963777926e6 1.5179593321071541e7 0.0
1.5179593321071541e7 -2.355177185069818e7 0.0
0.0 0.0 0.0

1.1264222007047413e6 1.5561200166608255e7 0.0
1.5561200166608255e7 -1.606297595750414e7 0.0
0.0 0.0 0.0

-588073.2372841099 2.877391821587416e6 0.0
2.877391821587416e6 1.005800561164872e6 0.0
0.0 0.0 0.0

-1.1065476321615338e7 622409.0929340099 0.0
622409.0929340099 2.1663974790417496e7 0.0
0.0 0.0 0.0

148943.549297655 1.2199221118293276e7 0.0
1.2199221118293276e7 -1.1832976784143731e7 0.0
0.0 0.0 0.0

541720.158521981 1.1067342607540248e7 0.0
1.1067342607540248e7 -1.2144846626729697e7 0.0
0.0 0.0 0.0

703258.0404271754 1.6836685982634787e7 0.0
1.6836685982634787e7 -1.3665819397319255e7 0.0
0.0 0.0 0.0

-1.6508260149517583e6 2.0379426123429e7 0.0
2.0379426123429e7 3.386842351940684e6 0.0
0.0 0.0 0.0

1.4047121838460825e6 9.727080127643274e6 0.0
9.727080127643274e6 -1.4370138289612653e7 0.0
0.0 0.0 0.0

-2.114355440812517e6 1.339643160904001e7 0.0
1.339643160904001e7 -4.5148171961065605e7 0.0
0.0 0.0 0.0

-9.4903194416365e6 3.503769601359857e6 0.0
3.503769601359857e6 1.1841447651315127e7 0.0
0.0 0.0 0.0

-1.0558250009807559e7 1.8059286682415362e7 0.0
1.8059286682415362e7 -4.010140663359269e7 0.0
0.0 0.0 0.0

-1.1320080713167223e8 1.3578977821399905e7 0.0
1.3578977821399905e7 -383071.58480972797 0.0
0.0 0.0 0.0

9.906299906130973e7 1.4477942703861874e7 0.0
1.4477942703861874e7 4.647333183797296e6 0.0
0.0 0.0 0.0

-3.401682576074248e6 1.3808210448686207e7 0.0
1.3808210448686207e7 -5.1926841350495145e7 0.0
0.0 0.0 0.0

-8.178793876720913e6 1.6145742367589137e7 0.0
1.6145742367589137e7 2.0557846200571634e7 0.0
0.0 0.0 0.0

-3.2194441717671123e6 1.9829428310098846e7 0.0
1.9829428310098846e7 473602.5575247237 0.0
0.0 0.0 0.0

-205333.02849407354 1.3267203954341562e7 0.0
1.3267203954341562e7 -1.1498306441882316e7 0.0
0.0 0.0 0.0

-559418.2911671215 6.454670158621994e6 0.0
6.454670158621994e6 -4.1466629227438774e6 0.0
0.0 0.0 0.0

399712.1620116923 7.251535999008851e6 0.0
7.251535999008851e6 -2.985820689656259e6 0.0
0.0 0.0 0.0

-4.324841973250892e6 1.4604190190442247e7 0.0
1.4604190190442247e7 2.8771809414104857e6 0.0
0.0 0.0 0.0

-2.73340434784491e6 1.3565305523087319e7 0.0
1.3565305523087319e7 -4.834687546963078e7 0.0
0.0 0.0 0.0

1.1781721826806334e6 1.17344964306701e7 0.0
1.17344964306701e7 -1.1087782999323592e7 0.0
0.0 0.0 0.0

-1.085408754515741e7 3.0552322084778114e6 0.0
3.0552322084778114e6 3.117949063776368e7 0.0
0.0 0.0 0.0

8.092673607613625e7 1.7754920580530707e7 0.0
1.7754920580530707e7 -6987.417735271156 0.0
0.0 0.0 0.0

801909.6474408996 1.28404310561724e7 0.0
1.28404310561724e7 -1.0818769493090287e7 0.0
0.0 0.0 0.0

3.488371311027631e6 6.558375843288373e6 0.0
6.558375843288373e6 -2.6384397077202674e7 0.0
0.0 0.0 0.0

3.3285945427131336e6 7.185386478464179e6 0.0
7.185386478464179e6 -2.6978846075524915e7 0.0
0.0 0.0 0.0

-6.477883953329608e6 1.909060924254135e7 0.0
1.909060924254135e7 2.2837532574559424e7 0.0
0.0 0.0 0.0

1.6148662238924112e6 1.4324467492531719e7 0.0
1.4324467492531719e7 -1.8356764573701113e7 0.0
0.0 0.0 0.0

-3.263635407070863e6 2.08000957973181e7 0.0
2.08000957973181e7 -1.1310131549860958e7 0.0
0.0 0.0 0.0

6.161839264272344e6 2.221297494145718e7 0.0
2.221297494145718e7 -3.3718085694731767e6 0.0
0.0 0.0 0.0

-1.921873678538565e6 1.3316537427489659e7 0.0
1.3316537427489659e7 -840119.6105669735 0.0
0.0 0.0 0.0

1.6374507311743565e6 6.011187335181765e6 0.0
6.011187335181765e6 -5.584790918323569e6 0.0
0.0 0.0 0.0

-2.8905827588793025e6 9.128747877406646e6 0.0
9.128747877406646e6 -953973.1148810328 0.0
0.0 0.0 0.0

-6.062639614875713e6 6.255874589057041e6 0.0
6.255874589057041e6 1.0740939818342237e7 0.0
0.0 0.0 0.0

-5.666498914867832e6 1.6346970703458963e7 0.0
1.6346970703458963e7 -2.890261668134967e7 0.0
0.0 0.0 0.0

2.0847257860356625e6 1.1798815857744306e7 0.0
1.1798815857744306e7 -2.6846381260440025e7 0.0
0.0 0.0 0.0

2.477116549600199e6 6.365098581301271e6 0.0
6.365098581301271e6 -1.6017197793256475e7 0.0
0.0 0.0 0.0

2.3613227265803525e6 9.203121550278619e6 0.0
9.203121550278619e6 -1.3490973086491963e7 0.0
0.0 0.0 0.0

-2.274782885388469e6 1.5704665460697562e7 0.0
1.5704665460697562e7 -489216.895607243 0.0
0.0 0.0 0.0

2.0549206041861353e6 8.861734396085575e6 0.0
8.861734396085575e6 -1.731479351595007e7 0.0
0.0 0.0 0.0

-1.1553470925922606e6 7.906923937061973e6 0.0
7.906923937061973e6 -4.026713106046625e6 0.0
0.0 0.0 0.0

3.902388165128299e6 4.6898444185592765e6 0.0
4.6898444185592765e6 -1.9948045547294855e7 0.0
0.0 0.0 0.0

718448.093312311 1.5124284844226638e7 0.0
1.5124284844226638e7 -1.2911643329420842e7 0.0
0.0 0.0 0.0

-9.313436147743909e6 5.457371905661893e6 0.0
5.457371905661893e6 1.0648566586185332e7 0.0
0.0 0.0 0.0

-719307.4880511763 2.2549037050958235e7 0.0
2.2549037050958235e7 -8.260395896261281e6 0.0
0.0 0.0 0.0

2.0026715280591082e6 5.772135903307746e6 0.0
5.772135903307746e6 -4.3309282696527734e7 0.0
0.0 0.0 0.0

490073.3772744611 1.611825091177766e7 0.0
1.611825091177766e7 -1.2451046527753733e7 0.0
0.0 0.0 0.0

3.0962659760542763e6 8.475865650071966e6 0.0
8.475865650071966e6 -2.09112071665732e7 0.0
0.0 0.0 0.0

-2.4486983963533593e6 4.826179923499152e6 0.0
4.826179923499152e6 4.483182677194447e6 0.0
0.0 0.0 0.0

3.261751227916523e6 7.763716033681306e6 0.0
7.763716033681306e6 -2.2109350803777866e7 0.0
0.0 0.0 0.0

-2.85980447058472e6 2.0423104315221973e7 0.0
2.0423104315221973e7 5.793080721581727e6 0.0
0.0 0.0 0.0

1.145983205940552e6 2.422544554853221e7 0.0
2.422544554853221e7 -7.791368234733381e6 0.0
0.0 0.0 0.0

-1.0915419997948864e6 1.8401231555702083e7 0.0
1.8401231555702083e7 -1.8666919387456983e7 0.0
0.0 0.0 0.0

312015.07813075 6.6686647443924155e6 0.0
6.6686647443924155e6 -6.58555858612714e6 0.0
0.0 0.0 0.0

1.0905534267037017e6 2.5152540973830808e7 0.0
2.5152540973830808e7 -6.084997989544588e6 0.0
0.0 0.0 0.0

155936.29561567167 2.0970777850550227e7 0.0
2.0970777850550227e7 -1.0070803883455975e7 0.0
0.0 0.0 0.0

-1.234466903247073e7 7.530197975356177e6 0.0
7.530197975356177e6 1.9111891563959844e7 0.0
0.0 0.0 0.0

-3.650679894106604e6 2.1749865558889113e7 0.0
2.1749865558889113e7 1.3586541327582475e7 0.0
0.0 0.0 0.0

-5.294964608682813e6 4.222648140305755e6 0.0
4.222648140305755e6 4.553797999492048e6 0.0
0.0 0.0 0.0

-2.460353080215298e6 1.0622381893619487e7 0.0
1.0622381893619487e7 2.0252095341511075e6 0.0
0.0 0.0 0.0

-8.642328460886907e6 7.701513826782319e6 0.0
7.701513826782319e6 4.36879383713988e7 0.0
0.0 0.0 0.0

-5.745924381856816e6 1.3666625636442477e7 0.0
1.3666625636442477e7 7.560669262992663e6 0.0
0.0 0.0 0.0

2.8223420366039514e6 1.9523611737679932e7 0.0
1.9523611737679932e7 1.7238981691623116e6 0.0
0.0 0.0 0.0

493467.1799854883 1.3919719317930197e7 0.0
1.3919719317930197e7 -1.0476362111757925e7 0.0
0.0 0.0 0.0

-219198.26772687119 1.5096680975061363e7 0.0
1.5096680975061363e7 -1.2702545576150311e7 0.0
0.0 0.0 0.0

-1.8731358576917984e6 1.3369793167085651e7 0.0
1.3369793167085651e7 -4.221770544606546e7 0.0
0.0 0.0 0.0

1.5647431456498299e6 6.169305147425436e6 0.0
6.169305147425436e6 -4.612996052525933e7 0.0
0.0 0.0 0.0

-1.2154281419644387e7 1.0832968614042955e7 0.0
1.0832968614042955e7 2.409233543763861e7 0.0
0.0 0.0 0.0

-2.7667031181102428e6 2.3760832903304894e7 0.0
2.3760832903304894e7 6.416488789642516e6 0.0
0.0 0.0 0.0

-1.0547570452565815e7 3.5323985510407286e6 0.0
3.5323985510407286e6 3.4560065513965525e7 0.0
0.0 0.0 0.0

330086.0923979953 1.9703727090029664e7 0.0
1.9703727090029664e7 -1.233293797097756e7 0.0
0.0 0.0 0.0

179425.76838813815 1.920316196662016e7 0.0
1.920316196662016e7 -1.4703173336374674e7 0.0
0.0 0.0 0.0

1.3431430511976773e7 5.900450226093842e6 0.0
5.900450226093842e6 -2.2451398102785945e6 0.0
0.0 0.0 0.0

1.5188416077400898e6 9.434740739218298e6 0.0
9.434740739218298e6 -9.683005340772916e6 0.0
0.0 0.0 0.0

-9.726699903269425e6 1.3333880572535615e7 0.0
1.3333880572535615e7 1.5903111554469757e7 0.0
0.0 0.0 0.0

-2.787381101976823e6 1.8291452555823002e7 0.0
1.8291452555823002e7 -1.7801808259760235e7 0.0
0.0 0.0 0.0

654162.865487305 1.4756090519010272e7 0.0
1.4756090519010272e7 -1.2165482980465122e7 0.0
0.0 0.0 0.0

857717.8490086095 1.5902217193598239e7 0.0
1.5902217193598239e7 -1.4249118770168345e7 0.0
0.0 0.0 0.0

-9.083613019177709e6 1.318587199779124e7 0.0
1.318587199779124e7 3.424074727749266e7 0.0
0.0 0.0 0.0

-1.2321323275093742e7 1.0434307991431708e7 0.0
1.0434307991431708e7 2.1747702953652553e7 0.0
0.0 0.0 0.0

-349053.27299659234 1.4709277386952652e7 0.0
1.4709277386952652e7 -1.194404263793578e7 0.0
0.0 0.0 0.0

-1.240985135990825e6 1.8087554154738087e7 0.0
1.8087554154738087e7 -9.53739528723184e6 0.0
0.0 0.0 0.0

-5.713562051402963e6 1.963238118361665e7 0.0
1.963238118361665e7 -9.941519319887694e6 0.0
0.0 0.0 0.0

-1.9898234468509448e6 2.4400153231041644e7 0.0
2.4400153231041644e7 -2.431977759070468e6 0.0
0.0 0.0 0.0

1.8806818875248116e6 1.188579956529072e7 0.0
1.188579956529072e7 -2.8679655710628502e7 0.0
0.0 0.0 0.0

-2.0879260818625253e6 2.8888189939241033e7 0.0
2.8888189939241033e7 2.248745016995784e6 0.0
0.0 0.0 0.0

-8.365224953091868e6 1.4188254877753032e7 0.0
1.4188254877753032e7 1.4194660468108753e7 0.0
0.0 0.0 0.0

-7.528764754479502e6 2.3528796851258412e7 0.0
2.3528796851258412e7 -9.840798140468922e6 0.0
0.0 0.0 0.0

39211.997757334844 1.7285732219276693e7 0.0
1.7285732219276693e7 -1.6812863382717865e6 0.0
0.0 0.0 0.0

-705088.1758430777 1.869510948567176e7 0.0
1.869510948567176e7 -1.734983536328243e7 0.0
0.0 0.0 0.0

-2.114438272577719e6 1.8542779606951173e7 0.0
1.8542779606951173e7 -1.047630581857361e7 0.0
0.0 0.0 0.0

-3.5859661757409787e6 2.3041788021050744e7 0.0
2.3041788021050744e7 8.830556386647152e6 0.0
0.0 0.0 0.0

264665.2038186169 1.8385899779446498e7 0.0
1.8385899779446498e7 -1.1908365202672683e7 0.0
0.0 0.0 0.0

-484620.2786033964 1.432201876280852e7 0.0
1.432201876280852e7 -1.111402872341794e7 0.0
0.0 0.0 0.0

-364697.27249357756 1.744577211753582e7 0.0
1.744577211753582e7 -2.094932544218341e7 0.0
0.0 0.0 0.0

-1.3909714108494045e6 1.199851347693109e7 0.0
1.199851347693109e7 -6.311113333846535e6 0.0
0.0 0.0 0.0

-2.927859853542111e6 2.2341230449154656e7 0.0
2.2341230449154656e7 1.7691657254468745e6 0.0
0.0 0.0 0.0

-1.8622200926315114e6 2.3882021105587807e7 0.0
2.3882021105587807e7 -3.52074327654157e6 0.0
0.0 0.0 0.0

-1.3065207976318845e6 4.352368363210329e6 0.0
4.352368363210329e6 2.441514585948262e6 0.0
0.0 0.0 0.0

487441.54395712586 1.0518809085305857e7 0.0
1.0518809085305857e7 -1.1269364600720849e7 0.0
0.0 0.0 0.0

-1.3761491311010127e6 2.5358131382071584e7 0.0
2.5358131382071584e7 -743041.4669581035 0.0
0.0 0.0 0.0

-3.6097725190217416e6 1.9989638506088715e7 0.0
1.9989638506088715e7 5.102725537322902e6 0.0
0.0 0.0 0.0

-8.523572381463884e7 8.3047618855141895e6 0.0
8.3047618855141895e6 2.2610304005026035e6 0.0
0.0 0.0 0.0

661801.0064932341 1.5682596351359354e7 0.0
1.5682596351359354e7 -2.3639876434080165e7 0.0
0.0 0.0 0.0

-4.205957977827736e6 1.881186877772763e7 0.0
1.881186877772763e7 7.960305913120357e6 0.0
0.0 0.0 0.0

-1.455660315682245e6 2.1986843546052467e7 0.0
2.1986843546052467e7 -3.4990841551380646e6 0.0
0.0 0.0 0.0

-3.9135999445696957e6 1.978675194706338e7 0.0
1.978675194706338e7 7.668345112499973e6 0.0
0.0 0.0 0.0

-2.0064705735458224e6 2.0615556188161235e7 0.0
2.0615556188161235e7 882108.3306893707 0.0
0.0 0.0 0.0

-82390.2922932636 1.9871206072935924e7 0.0
1.9871206072935924e7 -1.0333526448677424e7 0.0
0.0 0.0 0.0

-6.925428456824557e6 1.5088497908501795e7 0.0
1.5088497908501795e7 1.2193429340708163e7 0.0
0.0 0.0 0.0

-1.1355065045454275e7 7.120213352506751e6 0.0
7.120213352506751e6 2.6695695090422455e7 0.0
0.0 0.0 0.0

-637781.1713858563 1.2623997969138084e7 0.0
1.2623997969138084e7 -5.152429195184474e6 0.0
0.0 0.0 0.0

2.850645208968959e6 5.96106944419983e6 0.0
5.96106944419983e6 -1.1183388241684455e7 0.0
0.0 0.0 0.0

-1.7839495142117455e6 1.6174196155132677e7 0.0
1.6174196155132677e7 -7.283850484960697e6 0.0
0.0 0.0 0.0

-316219.223749659 2.0535213774882622e7 0.0
2.0535213774882622e7 -1.147182195712136e7 0.0
0.0 0.0 0.0

-3.8306042200639215e6 1.902648110427952e7 0.0
1.902648110427952e7 5.277526915692188e6 0.0
0.0 0.0 0.0

-2.5500543418595395e6 1.488872226251191e7 0.0
1.488872226251191e7 -4.158229880480803e6 0.0
0.0 0.0 0.0

-7.861654993885018e6 845439.3539120782 0.0
845439.3539120782 1.385850636619911e7 0.0
0.0 0.0 0.0

2.284386457314796e6 5.861373997148522e6 0.0
5.861373997148522e6 -1.306657858509882e7 0.0
0.0 0.0 0.0

-1.0358989983351473e7 6.651018648207856e6 0.0
6.651018648207856e6 3.434959432624878e7 0.0
0.0 0.0 0.0

-1.1613563581658129e7 2.9240519903124645e6 0.0
2.9240519903124645e6 1.9428418920167312e7 0.0
0.0 0.0 0.0

-2.486909152816793e6 1.926893232884397e7 0.0
1.926893232884397e7 2.2482705518384982e7 0.0
0.0 0.0 0.0

-1.3239025844330257e6 1.896087056138879e7 0.0
1.896087056138879e7 -9.12471405826031e6 0.0
0.0 0.0 0.0

336288.7461837572 9.903844186690578e6 0.0
9.903844186690578e6 -1.0423548873815387e7 0.0
0.0 0.0 0.0

-9.872468856091352e6 6.377926362878485e6 0.0
6.377926362878485e6 3.694707593177641e7 0.0
0.0 0.0 0.0

-1.1931435767667105e6 2.2234356707525946e7 0.0
2.2234356707525946e7 -4.337184087737212e6 0.0
0.0 0.0 0.0

-3.9957725983671397e6 1.3960369817909295e7 0.0
1.3960369817909295e7 1.2966062552394571e6 0.0
0.0 0.0 0.0

-1.687073702959169e6 9.95418777451634e6 0.0
9.95418777451634e6 315007.39553882054 0.0
0.0 0.0 0.0

-1.7814942327149233e6 1.3112430589274524e7 0.0
1.3112430589274524e7 -5.936510126188504e6 0.0
0.0 0.0 0.0

-2.758944099363208e6 1.6970280340968195e7 0.0
1.6970280340968195e7 -2.714887047799772e7 0.0
0.0 0.0 0.0

-3.0076842073941743e6 1.9857550940246142e7 0.0
1.9857550940246142e7 7.150442082044498e6 0.0
0.0 0.0 0.0

734461.0666129319 1.9148465625949636e7 0.0
1.9148465625949636e7 -1.4724193143281188e7 0.0
0.0 0.0 0.0

-16461.00540754199 1.6827647149597637e7 0.0
1.6827647149597637e7 5.5466092144651815e7 0.0
0.0 0.0 0.0

4.074852059013249e6 2.20879889637127e7 0.0
2.20879889637127e7 1.1272927218796968e7 0.0
0.0 0.0 0.0

-1.0984530889445404e7 1.2998399921449097e7 0.0
1.2998399921449097e7 1.841191452623374e7 0.0
0.0 0.0 0.0

2.0955797414057115e6 1.2433465308012601e7 0.0
1.2433465308012601e7 -2.3723196805071756e7 0.0
0.0 0.0 0.0

-1.6261518552264082e6 1.5536919416653676e7 0.0
1.5536919416653676e7 -3.1571350328185535e6 0.0
0.0 0.0 0.0

1.0236239433076945e6 2.174208393020421e7 0.0
2.174208393020421e7 -1.0857661777377075e7 0.0
0.0 0.0 0.0

-2.5602192208839147e6 2.477489226062727e7 0.0
2.477489226062727e7 4.403221270386169e6 0.0
0.0 0.0 0.0

-1.754481267150247e6 2.330843546473231e7 0.0
2.330843546473231e7 -4.462821433124833e6 0.0
0.0 0.0 0.0

-341396.6118013477 1.9078419763683278e7 0.0
1.9078419763683278e7 -1.6034923587693695e7 0.0
0.0 0.0 0.0

-1.401838550160518e6 1.4434913461780442e7 0.0
1.4434913461780442e7 -3.4407814362602574e6 0.0
0.0 0.0 0.0

-3.629238623203319e6 2.036524452574342e7 0.0
2.036524452574342e7 6.276908061215347e6 0.0
0.0 0.0 0.0

-1.2198686839140108e7 6.517897010939839e6 0.0
6.517897010939839e6 1.7765880629006363e7 0.0
0.0 0.0 0.0

2.5728108357302817e6 5.7233688113147e6 0.0
5.7233688113147e6 -1.5043334652167102e7 0.0
0.0 0.0 0.0

-1.1907738240073572e6 1.640256644883418e7 0.0
1.640256644883418e7 -5.326377627780293e6 0.0
0.0 0.0 0.0

2.7568602429469526e6 9.37279156842647e6 0.0
9.37279156842647e6 -1.804142880880202e7 0.0
0.0 0.0 0.0

-2.6078801672363747e6 1.990214124064691e7 0.0
1.990214124064691e7 2.5041507593576023e6 0.0
0.0 0.0 0.0

-861879.5403857587 9.348335185323775e6 0.0
9.348335185323775e6 -1.3459927575964532e6 0.0
0.0 0.0 0.0

-472918.36269414343 2.704225661688355e7 0.0
2.704225661688355e7 -3.4103210845444673e6 0.0
0.0 0.0 0.0

-5.66900175527668e7 4.29797581754762e6 0.0
4.29797581754762e6 5.877752714324918e6 0.0
0.0 0.0 0.0

-173254.92184237693 8.698774149355823e6 0.0
8.698774149355823e6 -2.822241675116546e6 0.0
0.0 0.0 0.0

-3.198925647483913e6 1.6075734699505745e7 0.0
1.6075734699505745e7 -3.321566468054023e7 0.0
0.0 0.0 0.0

940067.1901148795 2.0832506303484254e7 0.0
2.0832506303484254e7 -9.65108743825981e6 0.0
0.0 0.0 0.0

851177.4679256119 1.3278167377241055e7 0.0
1.3278167377241055e7 -1.1670365183149887e7 0.0
0.0 0.0 0.0

760298.746445627 1.755610883557707e7 0.0
1.755610883557707e7 -1.838432079395441e7 0.0
0.0 0.0 0.0

469744.66748781875 8.117735691781059e6 0.0
8.117735691781059e6 -4.1527633164951173e6 0.0
0.0 0.0 0.0

3.2388120487161623e6 7.833392663683978e6 0.0
7.833392663683978e6 -2.023130455900518e7 0.0
0.0 0.0 0.0

-2.101499766463188e6 2.491187848489973e7 0.0
2.491187848489973e7 -1.4460239603152876e6 0.0
0.0 0.0 0.0

180850.81168952934 5.935944115144818e6 0.0
5.935944115144818e6 -5.291230059554423e6 0.0
0.0 0.0 0.0

966613.6458308501 1.0385633452924438e7 0.0
1.0385633452924438e7 -1.3287851635703608e7 0.0
0.0 0.0 0.0

-202387.97784305166 2.8226306332364574e7 0.0
2.8226306332364574e7 -2.485372046055838e6 0.0
0.0 0.0 0.0

3.3534254128730306e6 2.0462924912057936e7 0.0
2.0462924912057936e7 534840.9065314585 0.0
0.0 0.0 0.0

1.156017343036342e6 2.331307403716225e7 0.0
2.331307403716225e7 -8.552999041617965e6 0.0
0.0 0.0 0.0

1.4731231623109654e6 8.115319477094197e6 0.0
8.115319477094197e6 -5.449370845473637e7 0.0
0.0 0.0 0.0

-8.341825717413781e6 1.703733496008817e7 0.0
1.703733496008817e7 2.6724813458618682e7 0.0
0.0 0.0 0.0

-1.9545184836825572e6 2.412099692948935e7 0.0
2.412099692948935e7 738690.8976040503 0.0
0.0 0.0 0.0

2.6344922128325673e6 9.03849457483215e6 0.0
9.03849457483215e6 -1.5397806455685124e7 0.0
0.0 0.0 0.0

980438.155983807 7.431543762927897e6 0.0
7.431543762927897e6 -5.393740647816715e6 0.0
0.0 0.0 0.0

229178.92219913285 9.299428057725223e6 0.0
9.299428057725223e6 -9.521617202232214e6 0.0
0.0 0.0 0.0

-3.3382060246049557e6 2.799880668900896e7 0.0
2.799880668900896e7 4.6118034727691095e6 0.0
0.0 0.0 0.0

-9.888429601368029e6 613095.5717414954 0.0
613095.5717414954 2.079809816939862e7 0.0
0.0 0.0 0.0

-1.038407966396427e7 1.5351527410805985e7 0.0
1.5351527410805985e7 2.4472192381960254e7 0.0
0.0 0.0 0.0

-1.2896810426414423e6 2.3569619473982252e7 0.0
2.3569619473982252e7 -3.0150548367572585e6 0.0
0.0 0.0 0.0

1.0283160416805753e6 1.4953695085740408e7 0.0
1.4953695085740408e7 -1.4827116782359704e7 0.0
0.0 0.0 0.0

-3.2291567523493897e6 2.0368975479653224e7 0.0
2.0368975479653224e7 1.901517852655761e7 0.0
0.0 0.0 0.0

-2.6763471389092985e6 1.597948811777006e7 0.0
1.597948811777006e7 -3.863819425446084e6 0.0
0.0 0.0 0.0

408254.90579469455 1.5724020276489034e7 0.0
1.5724020276489034e7 -1.1765296321523275e7 0.0
0.0 0.0 0.0

-1.0110605247022165e6 1.5460576759536423e7 0.0
1.5460576759536423e7 -2.825971043473391e7 0.0
0.0 0.0 0.0

1.8488837682701927e6 2.458062984858956e7 0.0
2.458062984858956e7 -7.217990777135301e6 0.0
0.0 0.0 0.0

-1.425250420415191e6 1.3608823414958535e7 0.0
1.3608823414958535e7 -3.964108111811801e7 0.0
0.0 0.0 0.0

-1.188509596115658e7 5.338789443961354e6 0.0
5.338789443961354e6 1.6873934914627705e7 0.0
0.0 0.0 0.0

4.793957137335701e6 2.0541221622143526e7 0.0
2.0541221622143526e7 2.217547769619381e7 0.0
0.0 0.0 0.0

-3.9021359459326826e6 2.7029466503535517e7 0.0
2.7029466503535517e7 4.981070087898501e6 0.0
0.0 0.0 0.0

-2.4200944593168865e6 1.6403105499051038e7 0.0
1.6403105499051038e7 -4.941271047517733e6 0.0
0.0 0.0 0.0

3.4466984657369154e6 2.1698088294521615e7 0.0
2.1698088294521615e7 -6.001561898459988e6 0.0
0.0 0.0 0.0

-1.0926933611897477e6 2.3049235308961965e7 0.0
2.3049235308961965e7 -4.053806691384428e6 0.0
0.0 0.0 0.0

-6.033112932349211e6 8.185752987111662e6 0.0
8.185752987111662e6 5.528711249774724e6 0.0
0.0 0.0 0.0

-32632.54899021983 1.9467321085576836e7 0.0
1.9467321085576836e7 -1.4804016504627332e7 0.0
0.0 0.0 0.0

1.700022698093174e6 1.4230022787133982e7 0.0
1.4230022787133982e7 -2.0130270890789192e7 0.0
0.0 0.0 0.0

1.4955880552548748e6 1.4792793543759732e7 0.0
1.4792793543759732e7 -1.8876155489820294e7 0.0
0.0 0.0 0.0

-909398.7551024761 1.493430623394809e7 0.0
1.493430623394809e7 -9.866937584902642e6 0.0
0.0 0.0 0.0

1.3602527300632546e7 2.5533856226361036e7 0.0
2.5533856226361036e7 -4.979525621886771e6 0.0
0.0 0.0 0.0

1.5824737058885135e6 1.1084222460060403e7 0.0
1.1084222460060403e7 -1.2194909884511122e7 0.0
0.0 0.0 0.0

2.6026684643175676e6 5.207592507911452e6 0.0
5.207592507911452e6 -1.4244769435842065e7 0.0
0.0 0.0 0.0

1.8540968659346336e6 1.3615857270282146e7 0.0
1.3615857270282146e7 -2.1278805989949133e7 0.0
0.0 0.0 0.0

1.9646940763533749e6 6.618032875030191e6 0.0
6.618032875030191e6 -4.116440899101546e7 0.0
0.0 0.0 0.0

-8.18103037006967e6 7.302903548337875e6 0.0
7.302903548337875e6 9.01350620672964e6 0.0
0.0 0.0 0.0

-3.1307542640105602e6 2.182587148457136e7 0.0
2.182587148457136e7 2.64533940797376e6 0.0
0.0 0.0 0.0

3.6031603213481046e6 4.746194291532966e6 0.0
4.746194291532966e6 -2.391641990097293e7 0.0
0.0 0.0 0.0

1.8568685902073523e6 6.580264360572582e6 0.0
6.580264360572582e6 -1.2164705274160946e7 0.0
0.0 0.0 0.0

-334256.09043024015 1.5152890935094243e7 0.0
1.5152890935094243e7 -7.970141374940297e6 0.0
0.0 0.0 0.0

-7.819245165022124e6 1.4062701403227214e7 0.0
1.4062701403227214e7 3.628269127275314e7 0.0
0.0 0.0 0.0

-4.304911437923583e6 2.161692683962262e7 0.0
2.161692683962262e7 1.3888646607885364e7 0.0
0.0 0.0 0.0

-5.228005196038337e6 9.445882735306544e6 0.0
9.445882735306544e6 4.0028663003904666e6 0.0
0.0 0.0 0.0

-6.430815585172867e6 1.9532246332800835e7 0.0
1.9532246332800835e7 2.0131891019229483e7 0.0
0.0 0.0 0.0

3.55357748189277e6 6.224731670995879e6 0.0
6.224731670995879e6 -1.7789727785997227e7 0.0
0.0 0.0 0.0

1.9067099261303488e6 1.303127528543229e7 0.0
1.303127528543229e7 -2.263471089524018e7 0.0
0.0 0.0 0.0

-2.2954250294114463e6 5.795428181934619e7 0.0
5.795428181934619e7 4.448015247477362e6 0.0
0.0 0.0 0.0

-5.43150099222677e6 1.3143621075402627e7 0.0
1.3143621075402627e7 5.994389617299931e6 0.0
0.0 0.0 0.0

-1.1352365673278112e7 3.8031343881719373e6 0.0
3.8031343881719373e6 1.5970745384593958e7 0.0
0.0 0.0 0.0

197602.95930284727 1.841434853129135e7 0.0
1.841434853129135e7 -1.5874964275148358e7 0.0
0.0 0.0 0.0

1.3402289462967943e6 1.5382666842845047e7 0.0
1.5382666842845047e7 -1.775906715724375e7 0.0
0.0 0.0 0.0

-582914.4917551242 2.448304969926029e6 0.0
2.448304969926029e6 4.1007170628990033e6 0.0
0.0 0.0 0.0

-2.5065848688892997e6 1.2725150951255858e6 0.0
1.2725150951255858e6 6.185562892296615e6 0.0
0.0 0.0 0.0

-4.284305220883371e6 2.830236417306832e7 0.0
2.830236417306832e7 4.151625954997519e6 0.0
0.0 0.0 0.0

-4.1394118869054657e6 1.8437372680594336e7 0.0
1.8437372680594336e7 6.687246990132306e6 0.0
0.0 0.0 0.0

-3.12092517587909e6 2.8055033105360653e7 0.0
2.8055033105360653e7 2.3639454601254007e6 0.0
0.0 0.0 0.0

2.896238790965071e6 9.201090705289513e6 0.0
9.201090705289513e6 -1.9889136636835415e7 0.0
0.0 0.0 0.0

-3.436043199675277e6 2.0897429619048893e7 0.0
2.0897429619048893e7 4.977996016084453e6 0.0
0.0 0.0 0.0

-1.0661589999374436e7 3.860377600595584e6 0.0
3.860377600595584e6 2.9287830774298873e7 0.0
0.0 0.0 0.0

-6.918772124728538e7 5.7577771478908425e6 0.0
5.7577771478908425e6 5.045426135061715e6 0.0
0.0 0.0 0.0

-3.0509846230529305e6 2.269703048570818e7 0.0
2.269703048570818e7 2.7118576623069528e6 0.0
0.0 0.0 0.0

-5.793837283277926e6 1.997033645192925e7 0.0
1.997033645192925e7 1.8649444393489715e7 0.0
0.0 0.0 0.0

287404.0840804945 2.4764867417562626e7 0.0
2.4764867417562626e7 -6.724466860877597e6 0.0
0.0 0.0 0.0

1.9409602878296254e6 5.972828000424022e6 0.0
5.972828000424022e6 -1.10424369893807e7 0.0
0.0 0.0 0.0

-5.350707167006297e6 1.4972161433082428e7 0.0
1.4972161433082428e7 7.459397839298889e6 0.0
0.0 0.0 0.0

-1.307593177945756e7 2.442446327973861e7 0.0
2.442446327973861e7 -7.771895846203795e6 0.0
0.0 0.0 0.0

-6.354264865017505e6 2.271541701257759e7 0.0
2.271541701257759e7 -8.258925324771096e6 0.0
0.0 0.0 0.0

3.1261128067288855e6 7.182706257173812e6 0.0
7.182706257173812e6 -1.4734859020011494e7 0.0
0.0 0.0 0.0

-5.252972716088861e6 2.0477043841137964e7 0.0
2.0477043841137964e7 1.7092779251194958e7 0.0
0.0 0.0 0.0

-427703.2929825522 1.7748177018953435e7 0.0
1.7748177018953435e7 -9.008159201725887e6 0.0
0.0 0.0 0.0

1.9980001289765649e6 4.876430747750931e6 0.0
4.876430747750931e6 -4.5053845386956856e7 0.0
0.0 0.0 0.0

-9.137676666742679e6 1.4269841491991186e6 0.0
1.4269841491991186e6 4.2314121151567705e7 0.0
0.0 0.0 0.0

2.31446053571047e6 9.741978031854164e6 0.0
9.741978031854164e6 -1.433247455973155e7 0.0
0.0 0.0 0.0

3.264997724216832e6 7.1118881916023465e6 0.0
7.1118881916023465e6 -2.8864582221446376e7 0.0
0.0 0.0 0.0

-434869.854025587 1.940422082785701e7 0.0
1.940422082785701e7 -7.530013889946551e6 0.0
0.0 0.0 0.0

477756.6775103584 1.1623819138285315e7 0.0
1.1623819138285315e7 -3.775177291001859e7 0.0
0.0 0.0 0.0

1.3186914645331337e6 3.0229710443974286e7 0.0
3.0229710443974286e7 -2.956103155855677e6 0.0
0.0 0.0 0.0

-4.467667518418517e6 1.717936473918001e7 0.0
1.717936473918001e7 3.4549771031714454e7 0.0
0.0 0.0 0.0

-9.591693957764313e6 1.2618730523951992e6 0.0
1.2618730523951992e6 3.898558491704012e7 0.0
0.0 0.0 0.0

-544959.2678658776 1.8648981363691412e7 0.0
1.8648981363691412e7 -8.632321425760668e6 0.0
0.0 0.0 0.0

2.222421722023215e6 7.850028470472392e6 0.0
7.850028470472392e6 -3.490172394706198e7 0.0
0.0 0.0 0.0

-2.3882962337056566e6 1.882600671111934e7 0.0
1.882600671111934e7 -35705.58506728092 0.0
0.0 0.0 0.0

-3.248732815462865e6 2.095989746448642e7 0.0
2.095989746448642e7 2.6078516496323487e6 0.0
0.0 0.0 0.0

-1.1419337885918818e7 5.967889767584015e6 0.0
5.967889767584015e6 2.2927114880224407e7 0.0
0.0 0.0 0.0

2.49982936427495e6 2.4975336575760312e7 0.0
2.4975336575760312e7 -6.870646567338546e6 0.0
0.0 0.0 0.0

725959.8237785765 1.983486789291289e7 0.0
1.983486789291289e7 -4.027248404640319e6 0.0
0.0 0.0 0.0

-1.3766133660258534e6 2.4121484642794188e7 0.0
2.4121484642794188e7 -1.9854828486770445e6 0.0
0.0 0.0 0.0

2.806048796062181e6 2.8978566234428883e6 0.0
2.8978566234428883e6 -4.270725983730091e7 0.0
0.0 0.0 0.0

-3.2837172329680687e6 2.1389728649847586e7 0.0
2.1389728649847586e7 3.7377064751285026e6 0.0
0.0 0.0 0.0

888497.9423733456 1.3696385661953768e7 0.0
1.3696385661953768e7 -1.248935987900727e7 0.0
0.0 0.0 0.0

-3.9748781071504755e6 1.1263946791782932e7 0.0
1.1263946791782932e7 1.0021573349590516e6 0.0
0.0 0.0 0.0

-914148.0739858616 1.3816592759354783e7 0.0
1.3816592759354783e7 -4.86633121379064e6 0.0
0.0 0.0 0.0

-8.163771467788377e6 4.949406256193302e6 0.0
4.949406256193302e6 8.805946987404125e6 0.0
0.0 0.0 0.0

1.0254619853059903e6 1.8966816743469883e7 0.0
1.8966816743469883e7 -5.132881429122953e6 0.0
0.0 0.0 0.0

-1.060618830353877e7 8.241119446839349e6 0.0
8.241119446839349e6 3.2564834914110158e7 0.0
0.0 0.0 0.0

312292.4709795425 1.5350739213303395e7 0.0
1.5350739213303395e7 -1.0971664193286087e7 0.0
0.0 0.0 0.0

-4.605667512105779e6 5.709727479713865e6 0.0
5.709727479713865e6 3.077318122610868e6 0.0
0.0 0.0 0.0

-4.75407007291382e6 2.893458879959524e7 0.0
2.893458879959524e7 4.232193323791475e6 0.0
0.0 0.0 0.0

-400951.4270239875 2.2915849865545947e7 0.0
2.2915849865545947e7 -6.249838226698418e6 0.0
0.0 0.0 0.0

982507.7443611659 1.6163955103013098e7 0.0
1.6163955103013098e7 -2.0855559042401243e7 0.0
0.0 0.0 0.0

1.9562159350295365e6 1.0413177667003954e7 0.0
1.0413177667003954e7 -1.3282200733486012e7 0.0
0.0 0.0 0.0

-2.3946531312422603e6 2.3100084965564955e7 0.0
2.3100084965564955e7 3.320577569654882e6 0.0
0.0 0.0 0.0

-6.1629904177796515e6 1.947023137767643e7 0.0
1.947023137767643e7 2.1514408235295083e7 0.0
0.0 0.0 0.0

5.230723611004238e6 1.953790112721951e7 0.0
1.953790112721951e7 1.1410087857101247e7 0.0
0.0 0.0 0.0

1.7609599676258955e6 8.11556038699293e6 0.0
8.11556038699293e6 -3.748542459623052e7 0.0
0.0 0.0 0.0

-2.8688743950466355e6 2.0763338610606465e7 0.0
2.0763338610606465e7 6.894085776641848e6 0.0
0.0 0.0 0.0

-2.6075487981170453e6 2.182383209297973e7 0.0
2.182383209297973e7 4.395229173975494e6 0.0
0.0 0.0 0.0

-1.1739904547204712e7 1.0488975809966754e7 0.0
1.0488975809966754e7 1.7483291918296035e7 0.0
0.0 0.0 0.0

1.884166737644625e6 3.0905673847056687e7 0.0
3.0905673847056687e7 -2.978083512005263e6 0.0
0.0 0.0 0.0

389836.357818502 1.348487732429378e7 0.0
1.348487732429378e7 -9.571130647151517e6 0.0
0.0 0.0 0.0

-8.700552272772994e6 1.681917250691972e7 0.0
1.681917250691972e7 1.9273701053012256e7 0.0
0.0 0.0 0.0

1.9956358924230048e6 9.881884671805276e6 0.0
9.881884671805276e6 -1.245690268669153e7 0.0
0.0 0.0 0.0

-3.4642356254258724e6 8.665189009901594e6 0.0
8.665189009901594e6 5.260379526472051e6 0.0
0.0 0.0 0.0

-2.254436638372963e6 2.3442648010636322e7 0.0
2.3442648010636322e7 2.349378804652566e6 0.0
0.0 0.0 0.0

-2.242499731947886e6 2.425044389732778e7 0.0
2.425044389732778e7 2.406463468558006e6 0.0
0.0 0.0 0.0

214895.90034287795 1.4958071576427221e7 0.0
1.4958071576427221e7 -1.012452851637037e7 0.0
0.0 0.0 0.0

1.8585293809566628e6 2.052540569919269e7 0.0
2.052540569919269e7 -5.145282005146938e6 0.0
0.0 0.0 0.0

1.1351956458808191e7 2.6529869726668715e7 0.0
2.6529869726668715e7 -5.468704152243958e6 0.0
0.0 0.0 0.0

-5.423880410701219e6 2.2758723517946202e7 0.0
2.2758723517946202e7 7.816922331823802e6 0.0
0.0 0.0 0.0

-8.514840832980648e6 1.6501903959060987e7 0.0
1.6501903959060987e7 -3.736553305864321e7 0.0
0.0 0.0 0.0

1.1496152054607286e6 1.1230297183868486e7 0.0
1.1230297183868486e7 -1.0161019965230875e7 0.0
0.0 0.0 0.0

-1.0823206743521683e7 4.323267683250619e6 0.0
4.323267683250619e6 2.7119615770269517e7 0.0
0.0 0.0 0.0

-2.530156262084763e6 2.084997652218403e7 0.0
2.084997652218403e7 -1.5276480570513215e6 0.0
0.0 0.0 0.0

-5.544015696887343e6 2.1500342182302143e7 0.0
2.1500342182302143e7 -1.0058618687221314e6 0.0
0.0 0.0 0.0

-2.7454142362713404e6 2.1274210438306015e7 0.0
2.1274210438306015e7 5.553554152142121e6 0.0
0.0 0.0 0.0

-1.0182147350463549e7 2.1961722385145654e6 0.0
2.1961722385145654e6 3.0524786631420672e7 0.0
0.0 0.0 0.0

-5.43783338024274e6 2.9561643336828582e7 0.0
2.9561643336828582e7 4.335006394580464e6 0.0
0.0 0.0 0.0

-2.8717266461029556e6 2.3083562503089644e7 0.0
2.3083562503089644e7 1.7311576504062451e6 0.0
0.0 0.0 0.0

1.9875785756244357e6 1.920244049693257e7 0.0
1.920244049693257e7 546823.3528902263 0.0
0.0 0.0 0.0

3.1353619606985245e6 1.6669877215629468e7 0.0
1.6669877215629468e7 1.0451206794504464e7 0.0
0.0 0.0 0.0

-3.045410467968378e6 2.0179458511718486e7 0.0
2.0179458511718486e7 8.278733651338212e6 0.0
0.0 0.0 0.0

-5.696441816158663e6 1.8145305186608616e7 0.0
1.8145305186608616e7 1.3597278755898008e7 0.0
0.0 0.0 0.0

3.147552439729031e6 6.553184089997206e6 0.0
6.553184089997206e6 -1.3852461235674266e7 0.0
0.0 0.0 0.0

-1.1036392183073345e6 2.435404690180716e7 0.0
2.435404690180716e7 -2.7873260265987497e6 0.0
0.0 0.0 0.0

-9.256732858622987e6 1.5009245983386027e7 0.0
1.5009245983386027e7 2.109547758072357e7 0.0
0.0 0.0 0.0

3.239839780072476e6 4.438404929404949e6 0.0
4.438404929404949e6 -2.1990120176417734e7 0.0
0.0 0.0 0.0

-1.8765444527964012e6 2.2544358311196826e7 0.0
2.2544358311196826e7 -4.835473053605049e6 0.0
0.0 0.0 0.0

-2.6707343444554303e6 2.0921271869140316e7 0.0
2.0921271869140316e7 4.538119067884898e6 0.0
0.0 0.0 0.0

-3.408177198244276e6 5.142781928681706e6 0.0
5.142781928681706e6 1.2029299851206907e6 0.0
0.0 0.0 0.0

1.3846048191106813e6 1.120008218714138e7 0.0
1.120008218714138e7 -1.6663863827994827e7 0.0
0.0 0.0 0.0

165497.0141011593 5.101650141617489e7 0.0
5.101650141617489e7 3.297735181185654e6 0.0
0.0 0.0 0.0

783174.9620015584 7.309931013088294e6 0.0
7.309931013088294e6 -6.435389998059483e7 0.0
0.0 0.0 0.0

3.125965084465755e6 5.52286745161754e6 0.0
5.52286745161754e6 -2.566249533230458e7 0.0
0.0 0.0 0.0

1.9921831488229986e6 1.2602386416399991e7 0.0
1.2602386416399991e7 -1.869562617820501e7 0.0
0.0 0.0 0.0

-5.034451733949656e6 2.220828134995074e7 0.0
2.220828134995074e7 5.758751133153204e6 0.0
0.0 0.0 0.0

577536.2208931744 1.4824189086876085e7 0.0
1.4824189086876085e7 -2.5194600005673677e7 0.0
0.0 0.0 0.0

1.1018360147821354e6 1.0694223950942654e7 0.0
1.0694223950942654e7 -9.266688396846268e6 0.0
0.0 0.0 0.0

-3.2768938602361954e6 1.0591642634029023e7 0.0
1.0591642634029023e7 -694481.1799448336 0.0
0.0 0.0 0.0

3.177297132132112e6 1.867530223008996e7 0.0
1.867530223008996e7 1.8153882361298457e7 0.0
0.0 0.0 0.0

-4.731954318465099e6 1.743806670809654e7 0.0
1.743806670809654e7 3.2382431051488418e7 0.0
0.0 0.0 0.0

1.1285953005945835e7 1.4601919235083621e7 0.0
1.4601919235083621e7 6.300483069245195e6 0.0
0.0 0.0 0.0

-4.812706470476929e6 3.2538855503286757e7 0.0
3.2538855503286757e7 2.4033576779364757e6 0.0
0.0 0.0 0.0

-1.357331425033997e6 1.5546401362750223e7 0.0
1.5546401362750223e7 -8.58949453882161e6 0.0
0.0 0.0 0.0

-2.9094980132727638e7 2.5466338840752494e7 0.0
2.5466338840752494e7 -1.0593291306136064e6 0.0
0.0 0.0 0.0

-245349.00797934225 1.688022528009129e7 0.0
1.688022528009129e7 -9.384674620820275e6 0.0
0.0 0.0 0.0

-2.6240647126863757e6 2.1446998503648773e7 0.0
2.1446998503648773e7 3.344725467907684e6 0.0
0.0 0.0 0.0

-210069.67410581 1.3651018274392357e7 0.0
1.3651018274392357e7 -7.264416190352725e6 0.0
0.0 0.0 0.0

-1.3294868157366132e6 1.6264757409356996e7 0.0
1.6264757409356996e7 -2.5786542894546375e7 0.0
0.0 0.0 0.0

3.1466863744690353e6 5.259864622022329e6 0.0
5.259864622022329e6 -2.0911827803900264e7 0.0
0.0 0.0 0.0

1.6137159142923355e6 1.0793427354337675e7 0.0
1.0793427354337675e7 -3.4055422348968334e7 0.0
0.0 0.0 0.0

-1.2260318329713931e6 2.0128929674551416e7 0.0
2.0128929674551416e7 1.6978454224835455e7 0.0
0.0 0.0 0.0

3.2210938497582227e6 7.45783250354511e6 0.0
7.45783250354511e6 -2.3909177488032833e7 0.0
0.0 0.0 0.0

-1.5713096571019865e6 2.2710069328852657e7 0.0
2.2710069328852657e7 -5.530042454586525e6 0.0
0.0 0.0 0.0

-543269.1329969699 1.9526728520031236e7 0.0
1.9526728520031236e7 -1.16443665448497e7 0.0
0.0 0.0 0.0

-2.336688899780579e6 1.3749052768507244e7 0.0
1.3749052768507244e7 -4.492568052656291e6 0.0
0.0 0.0 0.0

-4.1254086392621836e6 1.5791883821557648e7 0.0
1.5791883821557648e7 2.88054502523398e6 0.0
0.0 0.0 0.0

-8.365376369075073e6 1.7393416990454346e7 0.0
1.7393416990454346e7 2.004433313066401e7 0.0
0.0 0.0 0.0

2.505845228797802e6 1.0064013830598325e7 0.0
1.0064013830598325e7 -1.6975253713138983e7 0.0
0.0 0.0 0.0

-5.868166851810642e6 3.489920191780602e7 0.0
3.489920191780602e7 2.491352695000964e6 0.0
0.0 0.0 0.0

-6.335251658818476e6 3.0078259614598736e7 0.0
3.0078259614598736e7 4.579861164020751e6 0.0
0.0 0.0 0.0

-7.83819511938841e6 1.8331715265328173e7 0.0
1.8331715265328173e7 2.0884862302185826e7 0.0
0.0 0.0 0.0

-1.587829098352712e6 1.6222286230243487e7 0.0
1.6222286230243487e7 -5.292763381553867e6 0.0
0.0 0.0 0.0

1.1640023092909157e6 1.5950956547723792e7 0.0
1.5950956547723792e7 -1.655733926000956e7 0.0
0.0 0.0 0.0

3.3700956189884804e6 7.230868757010138e6 0.0
7.230868757010138e6 -2.146317557264852e7 0.0
0.0 0.0 0.0

-4.055487570018884e6 2.368630117771894e7 0.0
2.368630117771894e7 1.0258279105761515e7 0.0
0.0 0.0 0.0

-1.2487542950973928e7 9.447593213074517e6 0.0
9.447593213074517e6 2.087212303773707e7 0.0
0.0 0.0 0.0

3.969636655208499e6 2.7114284658425193e7 0.0
2.7114284658425193e7 -5.316917940794922e6 0.0
0.0 0.0 0.0

-7.841331883443166e6 2.2141333797397935e6 0.0
2.2141333797397935e6 5.242406031162798e7 0.0
0.0 0.0 0.0

-1.6224025450282572e6 1.961618891455485e7 0.0
1.961618891455485e7 -7.903743000419241e6 0.0
0.0 0.0 0.0

-9.509732097236244e6 -2.4427824926648834e6 0.0
-2.4427824926648834e6 2.725898350508967e7 0.0
0.0 0.0 0.0

-8.70928678152466e6 3.4804848837582944e6 0.0
3.4804848837582944e6 1.4492798516784634e7 0.0
0.0 0.0 0.0

3.1607574086350864e6 5.863933670317391e6 0.0
5.863933670317391e6 -1.3148257430373318e7 0.0
0.0 0.0 0.0

-8.830111621973831e6 1.4146910889668716e7 0.0
1.4146910889668716e7 3.2889211433451623e7 0.0
0.0 0.0 0.0

2.195918482337484e6 1.1197475238531336e7 0.0
1.1197475238531336e7 -2.826635311907548e7 0.0
0.0 0.0 0.0

-1.3737849401891758e6 2.2813985250184055e7 0.0
2.2813985250184055e7 -3.222802537516632e6 0.0
0.0 0.0 0.0

-2.5523709844059525e6 2.2639387728743386e7 0.0
2.2639387728743386e7 4.392985941641547e6 0.0
0.0 0.0 0.0

-1.792491020716951e6 1.6610020703013524e7 0.0
1.6610020703013524e7 -2.891747690477223e6 0.0
0.0 0.0 0.0

-2.7276880890606153e6 2.2985393789240737e7 0.0
2.2985393789240737e7 6.600921086298967e6 0.0
0.0 0.0 0.0

1.0430095255091195e6 5.978083705102644e6 0.0
5.978083705102644e6 -7.605498061574062e6 0.0
0.0 0.0 0.0

-2.5479878667628826e6 1.937402111256751e7 0.0
1.937402111256751e7 -3.990601869506366e6 0.0
0.0 0.0 0.0

9.46053143782739e6 2.7192779287106067e7 0.0
2.7192779287106067e7 -5.495057468779976e6 0.0
0.0 0.0 0.0

908322.8917189091 9.973684859155156e6 0.0
9.973684859155156e6 -8.53255157624159e6 0.0
0.0 0.0 0.0

-181348.28448421508 1.5561317228848098e7 0.0
1.5561317228848098e7 -8.895108529208815e6 0.0
0.0 0.0 0.0

-5.424388066031928e6 2.2127825543710306e7 0.0
2.2127825543710306e7 -6.24091224510046e6 0.0
0.0 0.0 0.0

-2.024185842165508e6 1.616761268569e7 0.0
1.616761268569e7 -1.734356456191758e6 0.0
0.0 0.0 0.0

1.0745952990745578e7 2.265920429871749e7 0.0
2.265920429871749e7 -2.283585371959406e6 0.0
0.0 0.0 0.0

-2.2187300081994534e6 4.528370747022196e6 0.0
4.528370747022196e6 -677033.872125302 0.0
0.0 0.0 0.0

3.0083576986080073e6 4.794238549610092e6 0.0
4.794238549610092e6 -3.0998527389718477e7 0.0
0.0 0.0 0.0

-3.032394848316128e6 3.154451358132097e6 0.0
3.154451358132097e6 6.256895527159339e6 0.0
0.0 0.0 0.0

-2.465692666909022e6 9.950417996203111e6 0.0
9.950417996203111e6 -2.286727063088028e6 0.0
0.0 0.0 0.0

-2.1710366633446906e6 1.680320661826703e7 0.0
1.680320661826703e7 -5.96258744723606e6 0.0
0.0 0.0 0.0

-8.377765092862131e6 5.002716205769849e6 0.0
5.002716205769849e6 1.4018069067643639e7 0.0
0.0 0.0 0.0

2.5265828263774137e6 6.706321037070878e6 0.0
6.706321037070878e6 -9.96938780003452e6 0.0
0.0 0.0 0.0

321893.09726845473 1.9944321408186093e7 0.0
1.9944321408186093e7 -1.3613390904800696e7 0.0
0.0 0.0 0.0

-1.6236455159908177e6 9.35636983073057e6 0.0
9.35636983073057e6 -3.890357025493417e6 0.0
0.0 0.0 0.0

-252299.38532083144 4.5982040849997096e7 0.0
4.5982040849997096e7 2.0127112663902054e6 0.0
0.0 0.0 0.0

1.152923881556075e7 2.210805282626965e7 0.0
2.210805282626965e7 1.077294427004981e7 0.0
0.0 0.0 0.0

-859644.925011862 8.712706885719493e6 0.0
8.712706885719493e6 -5.114660136617835e6 0.0
0.0 0.0 0.0

-5.8364804905109145e6 1.425416833768714e7 0.0
1.425416833768714e7 1.3647512779846234e7 0.0
0.0 0.0 0.0

1.8474108784076003e6 4.334427849855506e6 0.0
4.334427849855506e6 -6.664059096335592e6 0.0
0.0 0.0 0.0

-1.1026389029360669e7 8.74558623815248e6 0.0
8.74558623815248e6 3.035458748065786e7 0.0
0.0 0.0 0.0

-201270.38138877787 8.034645567501412e6 0.0
8.034645567501412e6 -6.37048785431029e6 0.0
0.0 0.0 0.0

-7.672870166724054e6 3.484347246546947e7 0.0
3.484347246546947e7 4.4938275433554435e6 0.0
0.0 0.0 0.0

5.037965150156879e6 2.7377772037002604e7 0.0
2.7377772037002604e7 -5.272582010347564e6 0.0
0.0 0.0 0.0

3.548943005546013e6 6.472160121478731e6 0.0
6.472160121478731e6 -2.2536940925380215e7 0.0
0.0 0.0 0.0

-719903.3658414437 2.0064654128271773e7 0.0
2.0064654128271773e7 -1.0459828163934845e7 0.0
0.0 0.0 0.0

2.4439085642168503e6 7.518615773281551e6 0.0
7.518615773281551e6 -3.1688687987221275e7 0.0
0.0 0.0 0.0

-2.514742406075253e6 1.742944307511522e7 0.0
1.742944307511522e7 -4.628335829727386e6 0.0
0.0 0.0 0.0

2.391859616265049e6 2.000486248841255e7 0.0
2.000486248841255e7 1.213486332031689e7 0.0
0.0 0.0 0.0

7.722031397041148e6 2.7484619445674803e7 0.0
2.7484619445674803e7 -5.381984174607474e6 0.0
0.0 0.0 0.0

868479.8719096929 9.518336532314861e6 0.0
9.518336532314861e6 -7.470646641472996e6 0.0
0.0 0.0 0.0

2.422628102758618e6 8.595836744199032e6 0.0
8.595836744199032e6 -1.268230572448217e7 0.0
0.0 0.0 0.0

-694252.2057322141 1.209178101224219e7 0.0
1.209178101224219e7 -4.0072665400794055e6 0.0
0.0 0.0 0.0

-7.711873246904099e6 3.0523074014605924e7 0.0
3.0523074014605924e7 4.753773709425038e6 0.0
0.0 0.0 0.0

-3.907229976444104e6 1.518060365476405e7 0.0
1.518060365476405e7 1.3777539761284918e6 0.0
0.0 0.0 0.0

6.832976094613829e6 3.2106705939386033e7 0.0
3.2106705939386033e7 -3.8488423595335823e6 0.0
0.0 0.0 0.0

-1.5626591566018644e6 1.7025103044610076e7 0.0
1.7025103044610076e7 -3.9812767898126575e6 0.0
0.0 0.0 0.0

5.101371893371066e6 1.8663247054750815e7 0.0
1.8663247054750815e7 2.289631203526059e7 0.0
0.0 0.0 0.0

-4.643544039985477e6 2.1742163433726028e7 0.0
2.1742163433726028e7 -4.035265358744886e6 0.0
0.0 0.0 0.0

-1.5280137141900558e6 2.4610410700549386e7 0.0
2.4610410700549386e7 -965790.1915107153 0.0
0.0 0.0 0.0

-934310.8070131908 1.9349675064956293e7 0.0
1.9349675064956293e7 -1.3285786765193785e7 0.0
0.0 0.0 0.0

-1.2631324642635453e6 1.373071989021374e7 0.0
1.373071989021374e7 -3.7149655517987885e7 0.0
0.0 0.0 0.0

-6.816845766828854e6 1.7190622831992973e7 0.0
1.7190622831992973e7 2.9810109131961368e7 0.0
0.0 0.0 0.0

603799.1333814012 1.1570780732595036e7 0.0
1.1570780732595036e7 -1.2981902913427358e7 0.0
0.0 0.0 0.0

-1.1326527752012627e7 9.249118347171975e6 0.0
9.249118347171975e6 2.8087945339218196e7 0.0
0.0 0.0 0.0

1.9861700345165487e6 1.240472978855769e7 0.0
1.240472978855769e7 -2.5490621518746164e7 0.0
0.0 0.0 0.0

-2.0631564628802054e6 1.2564036030054105e7 0.0
1.2564036030054105e7 -4.741095492241628e6 0.0
0.0 0.0 0.0

3.0254236433328893e6 4.237505396794344e6 0.0
4.237505396794344e6 -1.3060159409426315e7 0.0
0.0 0.0 0.0

-3.310556571375122e6 1.88439862926031e7 0.0
1.88439862926031e7 410743.3863864981 0.0
0.0 0.0 0.0

-2.8411240043040514e6 2.3823407281603348e7 0.0
2.3823407281603348e7 1.7339400424340654e6 0.0
0.0 0.0 0.0

821139.8747639041 2.822159474924506e7 0.0
2.822159474924506e7 -3.749602879164418e6 0.0
0.0 0.0 0.0

-2.552972353117139e6 1.841569737198787e7 0.0
1.841569737198787e7 -4.302670672265113e6 0.0
0.0 0.0 0.0

2.5120986446409584e6 5.98679586486362e6 0.0
5.98679586486362e6 -9.107707495783627e6 0.0
0.0 0.0 0.0

6.254300938935138e6 2.751572175255308e7 0.0
2.751572175255308e7 -5.344024007713601e6 0.0
0.0 0.0 0.0

-1.1485198438352823e7 1.0782746364030186e7 0.0
1.0782746364030186e7 2.276682655834047e7 0.0
0.0 0.0 0.0

1.8641712813146617e6 7.4204340240087425e6 0.0
7.4204340240087425e6 -3.931302332262038e7 0.0
0.0 0.0 0.0

3.221607499644575e6 2.1860397304431446e7 0.0
2.1860397304431446e7 1.1860011037017696e7 0.0
0.0 0.0 0.0

-3.286755093268671e6 2.6394480787840858e7 0.0
2.6394480787840858e7 3.8674856952758497e6 0.0
0.0 0.0 0.0

-2.585777905441894e6 1.7979975849687412e7 0.0
1.7979975849687412e7 -1.13841970448547e7 0.0
0.0 0.0 0.0

-4.930096692381168e6 1.7753575299823165e7 0.0
1.7753575299823165e7 3.05447744536115e7 0.0
0.0 0.0 0.0

-4.589034964540125e6 1.880043093361262e7 0.0
1.880043093361262e7 -1.5296783286168942e7 0.0
0.0 0.0 0.0

-356019.17816346046 1.2804326836355196e7 0.0
1.2804326836355196e7 -1.0585155642271258e7 0.0
0.0 0.0 0.0

1.6375075461850394e6 1.9067277812573843e7 0.0
1.9067277812573843e7 1.5882535058420427e7 0.0
0.0 0.0 0.0

-15829.681034112 4.279650815027412e7 0.0
4.279650815027412e7 1.66858459235207e6 0.0
0.0 0.0 0.0

-3.4680941561874556e6 2.176393169690115e7 0.0
2.176393169690115e7 -9.269175766703265e6 0.0
0.0 0.0 0.0

5.388217219269002e7 1.8688937436540797e7 0.0
1.8688937436540797e7 4.237326345734946e6 0.0
0.0 0.0 0.0

-2.0501235527717005e6 1.425544144902518e7 0.0
1.425544144902518e7 -5.557619795900538e6 0.0
0.0 0.0 0.0

-3.146550064604959e6 1.9260211762681484e7 0.0
1.9260211762681484e7 -750658.079955634 0.0
0.0 0.0 0.0

877916.8280631155 1.4451796713317107e7 0.0
1.4451796713317107e7 -1.6651312975293886e7 0.0
0.0 0.0 0.0

1.2533906617393335e6 2.8802569700714e7 0.0
2.8802569700714e7 -3.725041917890352e6 0.0
0.0 0.0 0.0

2.625823949840272e6 6.025048679317235e6 0.0
6.025048679317235e6 -3.4336544583194815e7 0.0
0.0 0.0 0.0

-38781.68166025821 8.574907839107817e6 0.0
8.574907839107817e6 -7.378622518261212e6 0.0
0.0 0.0 0.0

1.5800655244258502e6 1.1479437973177759e7 0.0
1.1479437973177759e7 -1.9139281438767448e7 0.0
0.0 0.0 0.0

-4.184297360287753e6 2.1713218867324498e7 0.0
2.1713218867324498e7 1.435449627035057e7 0.0
0.0 0.0 0.0

-2.5236390495833326e6 2.029351142628836e7 0.0
2.029351142628836e7 -3.697434470098656e6 0.0
0.0 0.0 0.0

216345.9257343011 1.8849840495459475e7 0.0
1.8849840495459475e7 5.555934801580627e6 0.0
0.0 0.0 0.0

-1.1062501815987166e6 1.3260813034824008e7 0.0
1.3260813034824008e7 -3.7204945317074647e6 0.0
0.0 0.0 0.0

-1.7520343480064645e6 1.900419672699375e7 0.0
1.900419672699375e7 -3.39146796961855e6 0.0
0.0 0.0 0.0

1.857879558211239e6 1.937710453620687e7 0.0
1.937710453620687e7 -4.342294221390063e6 0.0
0.0 0.0 0.0

549235.2214543744 4.053756292516689e7 0.0
4.053756292516689e7 1.6849805894235289e6 0.0
0.0 0.0 0.0

-1.7687991147057177e6 1.993530547625704e7 0.0
1.993530547625704e7 -3.114880808563769e6 0.0
0.0 0.0 0.0

-3.0047247624010686e6 6.825037740089799e6 0.0
6.825037740089799e6 4.787959917683585e6 0.0
0.0 0.0 0.0

2.5347983515600972e7 1.3174187171256335e7 0.0
1.3174187171256335e7 1.3381681164720496e6 0.0
0.0 0.0 0.0

96003.87483951636 9.743313487648457e6 0.0
9.743313487648457e6 -4.867484684839216e7 0.0
0.0 0.0 0.0

-2.0804305188489507e6 2.460156055432294e7 0.0
2.460156055432294e7 1.6677094818898488e6 0.0
0.0 0.0 0.0

-5.070877238146803e6 7.891043660367243e6 0.0
7.891043660367243e6 8.870789155451942e6 0.0
0.0 0.0 0.0

-1.5097509860140628e6 1.3684232292784285e7 0.0
1.3684232292784285e7 -6.837106249118608e6 0.0
0.0 0.0 0.0

37824.518553667236 1.171066401316441e7 0.0
1.171066401316441e7 -1.0930560612745536e7 0.0
0.0 0.0 0.0

518115.4091983215 3.864771909242966e7 0.0
3.864771909242966e7 1.0430400868939855e6 0.0
0.0 0.0 0.0

1.8618291148114745e6 1.0267836373950968e7 0.0
1.0267836373950968e7 -2.984586711039943e7 0.0
0.0 0.0 0.0

-1.1801203864576573e7 4.506677028730628e6 0.0
4.506677028730628e6 2.3773864259137258e7 0.0
0.0 0.0 0.0

-4.949659537837783e6 2.117114137369365e7 0.0
2.117114137369365e7 -1.2178902660588386e7 0.0
0.0 0.0 0.0

-7.156593059552796e6 6.801702701620372e6 0.0
6.801702701620372e6 1.2666907276226299e7 0.0
0.0 0.0 0.0

-1.5732547519558715e6 1.8725941323244598e7 0.0
1.8725941323244598e7 -8.307192437344161e6 0.0
0.0 0.0 0.0

-2.8546691169486362e6 2.0508328679854378e7 0.0
2.0508328679854378e7 -1.5451384392723355e6 0.0
0.0 0.0 0.0

693853.373020838 1.5772615838740047e7 0.0
1.5772615838740047e7 -2.0685886929290693e7 0.0
0.0 0.0 0.0

227273.36614931162 3.7083725106202096e7 0.0
3.7083725106202096e7 784232.7951350115 0.0
0.0 0.0 0.0

-4.029997049762154e6 2.2348225913595814e7 0.0
2.2348225913595814e7 1.2951355961236415e7 0.0
0.0 0.0 0.0

-1.753704296075081e6 2.0831371635546323e7 0.0
2.0831371635546323e7 -2.864025545652314e6 0.0
0.0 0.0 0.0

2.5083583210120834e6 6.776663306811658e6 0.0
6.776663306811658e6 -3.311238531677656e7 0.0
0.0 0.0 0.0

-3.661452951001267e6 1.0368359051942207e7 0.0
1.0368359051942207e7 5.411309987817952e6 0.0
0.0 0.0 0.0

431120.72729244933 3.586100751925566e7 0.0
3.586100751925566e7 832787.2988584557 0.0
0.0 0.0 0.0

1.1429476893432327e6 8.758618972204758e6 0.0
8.758618972204758e6 -5.119716990981986e7 0.0
0.0 0.0 0.0

498110.52609498496 3.483571769577742e7 0.0
3.483571769577742e7 706938.5859237043 0.0
0.0 0.0 0.0

375410.6796470768 3.389610659317153e7 0.0
3.389610659317153e7 471554.00216370233 0.0
0.0 0.0 0.0

-1.788895457135307e6 2.7022653782890346e7 0.0
2.7022653782890346e7 -845460.0075822443 0.0
0.0 0.0 0.0

-1.6834144712241548e6 2.764939583666731e7 0.0
2.764939583666731e7 -679505.1116176874 0.0
0.0 0.0 0.0

-1.6168592569340584e6 2.8267345474988583e7 0.0
2.8267345474988583e7 -558352.033456601 0.0
0.0 0.0 0.0

-1.5388877707039951e6 2.8852927866359215e7 0.0
2.8852927866359215e7 -514082.56396362477 0.0
0.0 0.0 0.0

-1.4900478823958135e6 2.9443250225017246e7 0.0
2.9443250225017246e7 -413010.82792894443 0.0
0.0 0.0 0.0

-1.445025320487888e6 3.0063461600771938e7 0.0
3.0063461600771938e7 -429138.03488729976 0.0
0.0 0.0 0.0

-6.226261915003529e6 1.415986528150193e7 0.0
1.415986528150193e7 9.122087152563889e6 0.0
0.0 0.0 0.0

-1.304886333357466e6 3.067588914658846e7 0.0
3.067588914658846e7 -327300.04610795196 0.0
0.0 0.0 0.0

-1.382364368875335e6 3.1333312111284707e7 0.0
3.1333312111284707e7 -299248.42705962807 0.0
0.0 0.0 0.0

-8.16987441199183e6 1.6650696040753476e7 0.0
1.6650696040753476e7 2.1259860717996627e7 0.0
0.0 0.0 0.0

222134.05051724263 3.3062561299367797e7 0.0
3.3062561299367797e7 443776.54805185366 0.0
0.0 0.0 0.0

-1.4860564320445915e6 3.193956963038819e7 0.0
3.193956963038819e7 -249251.66682106766 0.0
0.0 0.0 0.0

-1.3659219668573143e6 3.2696025668397356e7 0.0
3.2696025668397356e7 -119412.2427232163 0.0
0.0 0.0 0.0

110775.16246924739 3.234068777371908e7 0.0
3.234068777371908e7 378698.56410440995 0.0
0.0 0.0 0.0

-1.4025242250720554e6 1.5982026089215312e7 0.0
1.5982026089215312e7 -4.271360791827182e6 0.0
0.0 0.0 0.0

-1.539780664990735e6 3.3492271458879363e7 0.0
3.3492271458879363e7 -161695.76394049794 0.0
0.0 0.0 0.0

-202811.52189197426 3.1619721949034967e7 0.0
3.1619721949034967e7 179385.58808031006 0.0
0.0 0.0 0.0

-42291.03248654671 3.0967016330808032e7 0.0
3.0967016330808032e7 178834.30382691516 0.0
0.0 0.0 0.0

-306809.1125466272 3.0399847766871657e7 0.0
3.0399847766871657e7 104375.61724308884 0.0
0.0 0.0 0.0

-536143.7393191889 2.974722839329837e7 0.0
2.974722839329837e7 62902.750349278416 0.0
0.0 0.0 0.0

-636409.9706255055 2.9177227154989418e7 0.0
2.9177227154989418e7 -6692.96333967548 0.0
0.0 0.0 0.0

-867927.7909241073 2.8574835271637473e7 0.0
2.8574835271637473e7 -70216.58860808695 0.0
0.0 0.0 0.0

-919856.0285924809 2.7996068820915796e7 0.0
2.7996068820915796e7 -130807.36627237595 0.0
0.0 0.0 0.0

-1.0254951269112908e6 2.738690503390823e7 0.0
2.738690503390823e7 -264498.89759884827 0.0
0.0 0.0 0.0

-2.0052999419679618e6 2.311763589219812e7 0.0
2.311763589219812e7 -3.7182827854202194e6 0.0
0.0 0.0 0.0

-6.634975266698383e6 1.7680807311000254e7 0.0
1.7680807311000254e7 2.822693928932883e7 0.0
0.0 0.0 0.0

-1.821694447613989e6 3.431848045483303e7 0.0
3.431848045483303e7 -103534.45625444822 0.0
0.0 0.0 0.0

2.4986318196845036e6 8.26075504922445e6 0.0
8.26075504922445e6 -2.289705665237469e7 0.0
0.0 0.0 0.0

-2.3447590325552784e6 2.269120605754005e7 0.0
2.269120605754005e7 2.3103157031850317e6 0.0
0.0 0.0 0.0

-2.2649685829464174e6 3.534533643746569e7 0.0
3.534533643746569e7 25259.426038600388 0.0
0.0 0.0 0.0

-1.1085201759520713e7 1.1983997368121983e7 0.0
1.1983997368121983e7 2.180416720596451e7 0.0
0.0 0.0 0.0

-2.8936798071285086e6 3.6528695745043986e7 0.0
3.6528695745043986e7 -51602.051967787906 0.0
0.0 0.0 0.0

-1.1562234753378168e7 1.035175133363799e7 0.0
1.035175133363799e7 2.4384989358383887e7 0.0
0.0 0.0 0.0

-3.706409398623914e6 3.783212445410533e7 0.0
3.783212445410533e7 -193541.46283552074 0.0
0.0 0.0 0.0

278795.01208441984 1.8619389206768677e7 0.0
1.8619389206768677e7 -1.5952643342843758e7 0.0
0.0 0.0 0.0

2.3188049984327154e6 1.1046078826181892e7 0.0
1.1046078826181892e7 -1.8447519582948208e7 0.0
0.0 0.0 0.0

-929605.009412583 1.392064953753183e7 0.0
1.392064953753183e7 -3.452042573688034e7 0.0
0.0 0.0 0.0

-1.9632374120692099e6 2.051779307210486e7 0.0
2.051779307210486e7 -1.9031780534816426e6 0.0
0.0 0.0 0.0

-1.151299811608787e6 1.5927653884038642e7 0.0
1.5927653884038642e7 -9.470443353765536e6 0.0
0.0 0.0 0.0

-1.7066189269816184e6 2.1922795622659575e7 0.0
2.1922795622659575e7 -5.970732914960514e6 0.0
0.0 0.0 0.0

246994.30292631965 1.881920902473927e7 0.0
1.881920902473927e7 -1.5952327018529562e7 0.0
0.0 0.0 0.0

3.8685172546687853e6 2.175270553207602e6 0.0
2.175270553207602e6 -2.7945704099444874e7 0.0
0.0 0.0 0.0

-3.6798449416073356e6 1.3301597034371745e7 0.0
1.3301597034371745e7 5.506398055385487e6 0.0
0.0 0.0 0.0

-4.621011204986054e6 3.946131893297977e7 0.0
3.946131893297977e7 952.4725544715766 0.0
0.0 0.0 0.0

1.931607852623771e6 1.1887251431902763e7 0.0
1.1887251431902763e7 -1.5572603644844666e7 0.0
0.0 0.0 0.0

-1.1334340954050858e7 1.0746142789911885e7 0.0
1.0746142789911885e7 2.695493015096463e7 0.0
0.0 0.0 0.0

-1.67703542416048e6 1.8035718973679047e7 0.0
1.8035718973679047e7 -3.691452418089235e6 0.0
0.0 0.0 0.0

84754.0179802865 2.952110919922208e7 0.0
2.952110919922208e7 -1.3829482899427903e6 0.0
0.0 0.0 0.0

2.670097035405606e6 7.516711102573206e6 0.0
7.516711102573206e6 -2.4073623486752104e7 0.0
0.0 0.0 0.0

-1.1385757503364032e7 3.515508339939328e7 0.0
3.515508339939328e7 4.6751881955383355e6 0.0
0.0 0.0 0.0

-5.897835417360848e6 1.5903097349917928e7 0.0
1.5903097349917928e7 1.0377501414693346e7 0.0
0.0 0.0 0.0

-1.6155977171301017e7 2.6501055655758735e7 0.0
2.6501055655758735e7 3.66301500989639e6 0.0
0.0 0.0 0.0

2.1026170523946453e6 1.8523878364819035e7 0.0
1.8523878364819035e7 1.370662647062773e7 0.0
0.0 0.0 0.0

-6.642660460722605e6 4.176785593859188e7 0.0
4.176785593859188e7 58926.50716475304 0.0
0.0 0.0 0.0

1.5193501522762869e6 1.1526167459385252e7 0.0
1.1526167459385252e7 -2.878129484799414e7 0.0
0.0 0.0 0.0

-4.762254320684291e6 1.574182884667953e7 0.0
1.574182884667953e7 5.867911774776332e6 0.0
0.0 0.0 0.0

1.3069846615730934e6 1.7311438259031188e7 0.0
1.7311438259031188e7 4.3566159912192365e6 0.0
0.0 0.0 0.0

2.1692325680812513e6 9.178539195805302e6 0.0
9.178539195805302e6 -1.998794015508315e7 0.0
0.0 0.0 0.0

823131.9587474584 2.0099365440276664e7 0.0
2.0099365440276664e7 3.9531030027264673e6 0.0
0.0 0.0 0.0

2.334361189359757e6 9.003780199165372e6 0.0
9.003780199165372e6 -2.1759652320540704e7 0.0
0.0 0.0 0.0

-139766.55456386157 1.6409865187498247e7 0.0
1.6409865187498247e7 -2.790999602475884e6 0.0
0.0 0.0 0.0

-2.12242065488391e6 2.104870548437872e7 0.0
2.104870548437872e7 -716092.7195920037 0.0
0.0 0.0 0.0

-2.465652705268288e6 2.1175122253297374e7 0.0
2.1175122253297374e7 -3.4221985904463674e6 0.0
0.0 0.0 0.0

1.7350305778218852e6 9.563195976913609e6 0.0
9.563195976913609e6 -1.6244345306161085e7 0.0
0.0 0.0 0.0

2.409695768248083e7 2.244363892076258e7 0.0
2.244363892076258e7 9.482729065063765e6 0.0
0.0 0.0 0.0

1.568148774275859e6 1.2913127253160145e7 0.0
1.2913127253160145e7 -1.5221207773123648e7 0.0
0.0 0.0 0.0

-574288.387222427 1.6178000810728993e7 0.0
1.6178000810728993e7 -7.615669755865071e6 0.0
0.0 0.0 0.0

-5.339042944312388e6 2.267163125505332e7 0.0
2.267163125505332e7 6.532543131552504e6 0.0
0.0 0.0 0.0

652678.7460916075 1.1899416956795722e7 0.0
1.1899416956795722e7 -8.988128894882187e6 0.0
0.0 0.0 0.0

-4.0581650193842594e6 2.301692842206649e7 0.0
2.301692842206649e7 1.1475093070706107e7 0.0
0.0 0.0 0.0

4.111047016788964e6 1.7897360335546147e7 0.0
1.7897360335546147e7 2.3981849720046595e7 0.0
0.0 0.0 0.0

-9.004650455950735e6 1.3137075249429421e7 0.0
1.3137075249429421e7 1.8448447236736406e7 0.0
0.0 0.0 0.0

-9.71263371576688e6 4.440667581892263e7 0.0
4.440667581892263e7 -438812.497904032 0.0
0.0 0.0 0.0

245109.19794631563 1.8024279723203763e7 0.0
1.8024279723203763e7 4.0102828363430254e7 0.0
0.0 0.0 0.0

-3.2853157011418655e6 1.6181599357434137e7 0.0
1.6181599357434137e7 -1.2664798531574912e6 0.0
0.0 0.0 0.0

1.0156666021483097e7 2.0064026629728463e7 0.0
2.0064026629728463e7 3.1150301910854005e6 0.0
0.0 0.0 0.0

2.834012759067677e6 6.991700567973286e6 0.0
6.991700567973286e6 -2.71059383022152e7 0.0
0.0 0.0 0.0

901755.7424257547 1.1767690259712035e7 0.0
1.1767690259712035e7 -3.275978875417854e7 0.0
0.0 0.0 0.0

-4.925724959516e6 1.8825708175247435e7 0.0
1.8825708175247435e7 1.1902580144824846e7 0.0
0.0 0.0 0.0

-1.3309662703820413e7 2.5265125258241355e7 0.0
2.5265125258241355e7 -9.550853656224553e6 0.0
0.0 0.0 0.0

-2.585549156716603e6 1.8401655188001096e7 0.0
1.8401655188001096e7 1.1460894988490024e6 0.0
0.0 0.0 0.0

-291209.41307839705 1.641316298126895e7 0.0
1.641316298126895e7 -1.2911981635337606e7 0.0
0.0 0.0 0.0

-1.5320921670030743e7 3.3790927146179564e7 0.0
3.3790927146179564e7 6.111801533673862e6 0.0
0.0 0.0 0.0

1.5333839067822136e6 1.192941376786372e7 0.0
1.192941376786372e7 -1.979370799178247e7 0.0
0.0 0.0 0.0

-2.5450606160711925e6 1.9373727367435124e7 0.0
1.9373727367435124e7 1.235011520507738e6 0.0
0.0 0.0 0.0

-4.314154505028384e6 9.242665943532007e6 0.0
9.242665943532007e6 7.137097174313226e6 0.0
0.0 0.0 0.0

-3.5694115640525115e6 1.8563315148241658e7 0.0
1.8563315148241658e7 1.0186870177322261e7 0.0
0.0 0.0 0.0

-6.713855644502133e6 6.731834835475367e7 0.0
6.731834835475367e7 1.4977036341361813e6 0.0
0.0 0.0 0.0

-7.608268729674034e6 1.3929845452366633e7 0.0
1.3929845452366633e7 1.6852064675843425e7 0.0
0.0 0.0 0.0

-3.916583224021299e6 7.074072468236616e6 0.0
7.074072468236616e6 1.7068801730803815e6 0.0
0.0 0.0 0.0

-1.841013565060498e6 2.225621853670377e7 0.0
2.225621853670377e7 -1.4614194242626354e6 0.0
0.0 0.0 0.0

-3.087429030069235e6 2.218100678552192e7 0.0
2.218100678552192e7 3.771838424020008e6 0.0
0.0 0.0 0.0

-617258.7761735029 1.9553028574991208e7 0.0
1.9553028574991208e7 -8.18797163712047e6 0.0
0.0 0.0 0.0

-2.5777384248953834e6 2.1745725611198228e7 0.0
2.1745725611198228e7 -2.2506391566675445e6 0.0
0.0 0.0 0.0

-9.440190853696002e6 1.55227692712708e6 0.0
1.55227692712708e6 1.4609194958276328e7 0.0
0.0 0.0 0.0

-68207.87164591393 1.8221981323170297e7 0.0
1.8221981323170297e7 -4.325163566243316e6 0.0
0.0 0.0 0.0

-3.105448944433582e6 2.297608724771907e7 0.0
2.297608724771907e7 3.8198389652301166e6 0.0
0.0 0.0 0.0

1.0079323189841975e6 1.0908890069504522e7 0.0
1.0908890069504522e7 -1.4083892789807914e7 0.0
0.0 0.0 0.0

619888.6398683968 1.8657494495499093e7 0.0
1.8657494495499093e7 -3.3256770105588874e6 0.0
0.0 0.0 0.0

-1.9029518974610463e7 2.537911416622887e7 0.0
2.537911416622887e7 1.2099779220600538e6 0.0
0.0 0.0 0.0

-6.138814319322851e6 1.468008020222022e7 0.0
1.468008020222022e7 1.500329901284829e7 0.0
0.0 0.0 0.0

308406.646139645 1.8080321316694517e7 0.0
1.8080321316694517e7 -1.7141975228263132e7 0.0
0.0 0.0 0.0

-3.265044030997581e6 2.3392408053160388e7 0.0
2.3392408053160388e7 5.90109338424352e6 0.0
0.0 0.0 0.0

3.6109224380787276e6 2.6930295142327305e6 0.0
2.6930295142327305e6 -1.5157361679349244e7 0.0
0.0 0.0 0.0

-4.1485016542446506e6 -2.81937916171824e6 0.0
-2.81937916171824e6 5.082810914506449e6 0.0
0.0 0.0 0.0

-2.728914856930896e6 -1.5119947425461938e6 0.0
-1.5119947425461938e6 3.1827740435490394e6 0.0
0.0 0.0 0.0

-8.815351529956859e6 -4.585133855613485e6 0.0
-4.585133855613485e6 2.7049452600374676e7 0.0
0.0 0.0 0.0

-1.661643337592128e6 167563.1018573792 0.0
167563.1018573792 1.171548281794258e6 0.0
0.0 0.0 0.0

-8.620618683315404e6 -5.04301562874841e6 0.0
-5.04301562874841e6 2.459740850180219e7 0.0
0.0 0.0 0.0

3.533967168106105e6 2.8641196495408006e6 0.0
2.8641196495408006e6 -1.1865499415288756e7 0.0
0.0 0.0 0.0

-5.220389718275731e6 -5.814832372537701e6 0.0
-5.814832372537701e6 1.0435835211468546e7 0.0
0.0 0.0 0.0

-7.55132837056001e6 -6.438016487341043e6 0.0
-6.438016487341043e6 1.7008278259647984e7 0.0
0.0 0.0 0.0

30927.046554060886 1.7496423146868898e6 0.0
1.7496423146868898e6 -1.6509439730150818e6 0.0
0.0 0.0 0.0

-8.431827442829935e6 -5.669847601760092e6 0.0
-5.669847601760092e6 2.1986110102599975e7 0.0
0.0 0.0 0.0

2.82349044348868e6 2.966147856779784e6 0.0
2.966147856779784e6 -8.461670491183462e6 0.0
0.0 0.0 0.0

1.733543126586959e6 2.7777111281561083e6 0.0
2.7777111281561083e6 -5.1190424423880605e6 0.0
0.0 0.0 0.0

-4.011408249910757e6 -3.9664430281754555e6 0.0
-3.9664430281754555e6 6.328670787818038e6 0.0
0.0 0.0 0.0

3.9591586778168213e6 2.258610673143904e6 0.0
2.258610673143904e6 -2.5152207596897863e7 0.0
0.0 0.0 0.0

3.9995961719724704e6 2.167391274362704e6 0.0
2.167391274362704e6 -2.7256549524843592e7 0.0
0.0 0.0 0.0

3.9880642371142386e6 2.2893819188751346e6 0.0
2.2893819188751346e6 -2.3042316412223406e7 0.0
0.0 0.0 0.0

4.1331657401606375e6 2.5131245245808787e6 0.0
2.5131245245808787e6 -1.976863482317459e7 0.0
0.0 0.0 0.0

-5.309429894191604e6 -4.984091538413679e6 0.0
-4.984091538413679e6 8.872492471940715e6 0.0
0.0 0.0 0.0

-8.362732529363068e6 -5.3007592080755625e6 0.0
-5.3007592080755625e6 2.3193592844305273e7 0.0
0.0 0.0 0.0

3.9834846847643796e6 2.263747139303628e6 0.0
2.263747139303628e6 -2.6303093906762436e7 0.0
0.0 0.0 0.0

3.711101574973928e6 2.6137464071091977e6 0.0
2.6137464071091977e6 -1.7459300107337527e7 0.0
0.0 0.0 0.0

3.893396261619714e6 2.5680813186168387e6 0.0
2.5680813186168387e6 -1.8596614562138587e7 0.0
0.0 0.0 0.0

3.845867204674403e6 2.6412811071376423e6 0.0
2.6412811071376423e6 -1.64174863958191e7 0.0
0.0 0.0 0.0

932627.671746863 1.6558557677104933e7 0.0
1.6558557677104933e7 -1.5470583861500958e7 0.0
0.0 0.0 0.0

-1.0290877301933192e7 1.293939111945974e7 0.0
1.293939111945974e7 2.078151702204994e7 0.0
0.0 0.0 0.0

-1.1930272041161701e7 7.777946183648203e6 0.0
7.777946183648203e6 2.6230728092110828e7 0.0
0.0 0.0 0.0

-3.9863699641334717e6 2.3745025647400297e7 0.0
2.3745025647400297e7 1.0223377577655936e7 0.0
0.0 0.0 0.0

-1.0465374089160282e6 1.6527464075524157e7 0.0
1.6527464075524157e7 -2.40504283091763e7 0.0
0.0 0.0 0.0

-3.6142769367275736e6 1.952028094788585e7 0.0
1.952028094788585e7 3.936606202015249e6 0.0
0.0 0.0 0.0

-1.4599203336490383e7 4.826462021874247e7 0.0
4.826462021874247e7 -959348.7508650031 0.0
0.0 0.0 0.0

-3.2619915085525885e6 1.725399332605355e7 0.0
1.725399332605355e7 -1.0713224716426434e6 0.0
0.0 0.0 0.0

-4.69286219842195e6 1.9958170610263236e7 0.0
1.9958170610263236e7 -1.4206113680398326e7 0.0
0.0 0.0 0.0

8.881469367954824e6 2.2231775054215077e7 0.0
2.2231775054215077e7 1.0678690175700516e7 0.0
0.0 0.0 0.0

-2.9233204428296555e6 2.059519540572077e7 0.0
2.059519540572077e7 8.523510121509943e6 0.0
0.0 0.0 0.0

-3.3105023170291767e6 1.9542443415248625e7 0.0
1.9542443415248625e7 9.758437921061063e6 0.0
0.0 0.0 0.0

633442.2836479121 2.0445805382714756e7 0.0
2.0445805382714756e7 -1.2518539353706082e7 0.0
0.0 0.0 0.0

-4.0312890296541555e6 1.7852891934300814e7 0.0
1.7852891934300814e7 1.1862887776360756e7 0.0
0.0 0.0 0.0

-2.6143430612118253e6 2.2300959506298203e7 0.0
2.2300959506298203e7 -1.1957398788365917e6 0.0
0.0 0.0 0.0

-2.296617575659337e6 2.0588256307365626e7 0.0
2.0588256307365626e7 -4.615896046580432e6 0.0
0.0 0.0 0.0

-6.625670559681359e6 1.4601905672817226e7 0.0
1.4601905672817226e7 1.0810326564342624e7 0.0
0.0 0.0 0.0

-743943.5366228716 1.5328124003889505e7 0.0
1.5328124003889505e7 -1.0707116129543848e7 0.0
0.0 0.0 0.0

-2.797156890202677e6 1.79487029401083e7 0.0
1.79487029401083e7 2.390039958133479e6 0.0
0.0 0.0 0.0

1.3904061406747475e6 1.024695203807906e7 0.0
1.024695203807906e7 -1.5149129057840522e7 0.0
0.0 0.0 0.0

-3.236702756943166e6 -3.458277066504875e6 0.0
-3.458277066504875e6 8.296023349550405e6 0.0
0.0 0.0 0.0

-2.6415930832118522e6 -1.8897366966156804e6 0.0
-1.8897366966156804e6 6.553638717226537e6 0.0
0.0 0.0 0.0

-8.663687595561557e6 -5.517328120561192e6 0.0
-5.517328120561192e6 2.195407799773061e7 0.0
0.0 0.0 0.0

-3.8627179205940864e6 -4.134417220326051e6 0.0
-4.134417220326051e6 9.878467609356632e6 0.0
0.0 0.0 0.0

-4.654832972398893e6 -5.463290963975292e6 0.0
-5.463290963975292e6 1.1218010138917556e7 0.0
0.0 0.0 0.0

3.913364223760832e6 2.2307538547761794e6 0.0
2.2307538547761794e6 -2.5330789302951198e7 0.0
0.0 0.0 0.0

3.868143665821295e6 2.1753349687396716e6 0.0
2.1753349687396716e6 -2.6186718408147786e7 0.0
0.0 0.0 0.0

-8.650610059478272e6 -5.137467393541481e6 0.0
-5.137467393541481e6 2.3542534011745907e7 0.0
0.0 0.0 0.0

3.8731631370718936e6 2.5722384309217385e6 0.0
2.5722384309217385e6 -1.909700308502879e7 0.0
0.0 0.0 0.0

3.7901323506958093e6 2.765174174963507e6 0.0
2.765174174963507e6 -1.5445654093966715e7 0.0
0.0 0.0 0.0

3.8211670349944932e6 2.6546372348018223e6 0.0
2.6546372348018223e6 -1.756158681152765e7 0.0
0.0 0.0 0.0

3.8189221024440257e6 2.621088949365695e6 0.0
2.621088949365695e6 -1.6489616220309734e7 0.0
0.0 0.0 0.0

-3.8020816439869287e6 1.6327670648617176e7 0.0
1.6327670648617176e7 1.4620612260588103e6 0.0
0.0 0.0 0.0

-6.518451365018722e6 1.812618619214662e7 0.0
1.812618619214662e7 2.6670524497226473e7 0.0
0.0 0.0 0.0

-4.928840511758261e6 1.7484764216514625e7 0.0
1.7484764216514625e7 1.4815563148209061e7 0.0
0.0 0.0 0.0

3.6873108399547627e6 5.841354569763526e6 0.0
5.841354569763526e6 -2.226424072028331e7 0.0
0.0 0.0 0.0

-874465.6323570578 2.45652568832789e7 0.0
2.45652568832789e7 -5.048318335638718e6 0.0
0.0 0.0 0.0

-1.3247453484524926e6 1.994774198541261e7 0.0
1.994774198541261e7 2.070215654219095e7 0.0
0.0 0.0 0.0

-1.0813777266892381e7 1.4844012363838287e7 0.0
1.4844012363838287e7 2.2430550889283113e7 0.0
0.0 0.0 0.0

1.938441376914232e6 9.873633666498933e6 0.0
9.873633666498933e6 -1.8852317385192506e7 0.0
0.0 0.0 0.0

1.5010825663236976e6 1.2358796620315226e7 0.0
1.2358796620315226e7 -2.0318710683526248e7 0.0
0.0 0.0 0.0

-2.3307253946047053e6 1.9693666546821855e7 0.0
1.9693666546821855e7 -4.930016444121288e6 0.0
0.0 0.0 0.0

-2.274937385400555e6 1.966469411001856e7 0.0
1.966469411001856e7 2.306945761925151e7 0.0
0.0 0.0 0.0

-3.7254817922457517e6 1.1909728208630534e7 0.0
1.1909728208630534e7 5.495695482983496e6 0.0
0.0 0.0 0.0

-836248.432431997 2.018028804085744e7 0.0
2.018028804085744e7 -7.015358627272284e6 0.0
0.0 0.0 0.0

-1.7648402617219472e6 2.436553472671965e7 0.0
2.436553472671965e7 -78272.53377595352 0.0
0.0 0.0 0.0

1.1859936651485097e6 1.3879758987325873e7 0.0
1.3879758987325873e7 -1.502358159333337e7 0.0
0.0 0.0 0.0

-1.9247544859614572e6 2.13962513276389e7 0.0
2.13962513276389e7 -1.6752686967684547e6 0.0
0.0 0.0 0.0

2.2819354996967614e6 4.0895462352647744e6 0.0
4.0895462352647744e6 1.4358863831401283e6 0.0
0.0 0.0 0.0

-2.705948687369925e6 1.992564584793786e7 0.0
1.992564584793786e7 2.1902969753330614e7 0.0
0.0 0.0 0.0

1.074264711803427e6 1.0580429741098927e7 0.0
1.0580429741098927e7 -3.8675001049024716e7 0.0
0.0 0.0 0.0

1.2704764013668e6 1.1583621140633224e7 0.0
1.1583621140633224e7 -3.07624447880732e7 0.0
0.0 0.0 0.0

-797975.6748771195 1.929485051059127e7 0.0
1.929485051059127e7 -7.3994482570941495e6 0.0
0.0 0.0 0.0

-9.651215271011718e6 2.427220262955776e7 0.0
2.427220262955776e7 4.974384008816231e6 0.0
0.0 0.0 0.0

2.857001840681331e6 6.57876654250509e6 0.0
6.57876654250509e6 -1.1943682936925042e7 0.0
0.0 0.0 0.0

-2.611397523803458e6 1.7392690870669454e7 0.0
1.7392690870669454e7 1.0661199083490295e6 0.0
0.0 0.0 0.0

-2.677427281378818e6 2.086996949894615e7 0.0
2.086996949894615e7 -2.4870498183610057e6 0.0
0.0 0.0 0.0

-1.6960047829139407e6 2.1706028980738692e7 0.0
2.1706028980738692e7 -2.600778982645197e6 0.0
0.0 0.0 0.0

-1.2764364285038458e6 1.6544413810159829e7 0.0
1.6544413810159829e7 -2.6267667838311646e7 0.0
0.0 0.0 0.0

1.524912793727547e6 1.2117387404302338e7 0.0
1.2117387404302338e7 -2.55954561326901e7 0.0
0.0 0.0 0.0

-5.019475479027501e6 1.256922166612943e7 0.0
1.256922166612943e7 4.3977208503688285e6 0.0
0.0 0.0 0.0

-4.80651065395277e6 1.8492653486499183e7 0.0
1.8492653486499183e7 1.0749728527096968e7 0.0
0.0 0.0 0.0

255288.75569384173 1.4986449994045382e7 0.0
1.4986449994045382e7 -2.7036722899235144e7 0.0
0.0 0.0 0.0

-958163.9350956695 2.2460534019542184e7 0.0
2.2460534019542184e7 -5.135393793049294e6 0.0
0.0 0.0 0.0

2.198049738127152e6 2.833133455098363e6 0.0
2.833133455098363e6 -6.296192178436203e6 0.0
0.0 0.0 0.0

5.278020108428722e6 3.1607692260773346e7 0.0
3.1607692260773346e7 -3.487992845436485e6 0.0
0.0 0.0 0.0

2.458382401474313e6 7.388922444950284e6 0.0
7.388922444950284e6 -1.0971100895866536e7 0.0
0.0 0.0 0.0

-1.1738933547979929e6 1.4897806907691065e7 0.0
1.4897806907691065e7 -4.555417211939837e6 0.0
0.0 0.0 0.0

-4.315588221011868e6 2.1167753275430366e7 0.0
2.1167753275430366e7 1.2613728525196085e7 0.0
0.0 0.0 0.0

-2.8545456164244977e6 1.4614520350917403e7 0.0
1.4614520350917403e7 2.313217147733527e6 0.0
0.0 0.0 0.0

-3.006392264746464e6 1.6615166952380078e7 0.0
1.6615166952380078e7 -2.4572516654482386e6 0.0
0.0 0.0 0.0

-2.773837493455771e6 2.1404332256589003e7 0.0
2.1404332256589003e7 -1.3203429442956485e6 0.0
0.0 0.0 0.0

-5.173556983070386e6 1.1081646817054635e7 0.0
1.1081646817054635e7 4.24363900681267e6 0.0
0.0 0.0 0.0

-8.560525018609855e6 -224639.756607323 0.0
-224639.756607323 1.4079723686200751e7 0.0
0.0 0.0 0.0

-3.8998073733444936e6 1.751272428238965e7 0.0
1.751272428238965e7 1.063700543199479e7 0.0
0.0 0.0 0.0

-2.9992013140433026e6 1.9460130854669105e7 0.0
1.9460130854669105e7 5.994450210465929e6 0.0
0.0 0.0 0.0

350837.6117906333 7.309172966025531e6 0.0
7.309172966025531e6 -7.449606909347863e6 0.0
0.0 0.0 0.0

-5.149206869870487e6 1.5593470377544783e7 0.0
1.5593470377544783e7 1.2995924949110469e7 0.0
0.0 0.0 0.0

-2.3680065340488404e6 2.2047932079660982e7 0.0
2.2047932079660982e7 -3.1641662004518094e6 0.0
0.0 0.0 0.0

2.889157099205559e6 9.24639345542317e6 0.0
9.24639345542317e6 -2.681702917165563e7 0.0
0.0 0.0 0.0

-8.68769623933651e6 2.453509004239789e7 0.0
2.453509004239789e7 4.22165556116917e6 0.0
0.0 0.0 0.0

-2.33080530668677e6 1.8760920734120365e7 0.0
1.8760920734120365e7 -5.259829937749056e6 0.0
0.0 0.0 0.0

1.966700790949304e6 2.906072088025355e6 0.0
2.906072088025355e6 -5.3595423972105505e6 0.0
0.0 0.0 0.0

-4.200336336711438e6 2.5773596938744597e7 0.0
2.5773596938744597e7 6.954320027933071e6 0.0
0.0 0.0 0.0

-1.2232732426449243e7 9.90075265867302e6 0.0
9.90075265867302e6 1.926331229516114e7 0.0
0.0 0.0 0.0

-2.7798956205995576e6 1.8051558358405683e7 0.0
1.8051558358405683e7 -3.3108872660413887e6 0.0
0.0 0.0 0.0

-1.5228976415866192e6 2.33424812328641e7 0.0
2.33424812328641e7 -2.1752575029495074e6 0.0
0.0 0.0 0.0

-2.4451494235303216e6 2.3951797018935844e7 0.0
2.3951797018935844e7 -785159.8514972888 0.0
0.0 0.0 0.0

-2.2311241039310372e6 2.1461040462311648e7 0.0
2.1461040462311648e7 -4.320516697761836e6 0.0
0.0 0.0 0.0

-2.2470791610743995e6 2.15414051398388e7 0.0
2.15414051398388e7 400884.3445848749 0.0
0.0 0.0 0.0

3.0519373632912147e6 2.916374643756699e6 0.0
2.916374643756699e6 -9.550495323498141e6 0.0
0.0 0.0 0.0

-280717.8604870711 2.6425251917240866e7 0.0
2.6425251917240866e7 -4.250748496118498e6 0.0
0.0 0.0 0.0

-1.5468808290799808e7 1.8710954399576742e7 0.0
1.8710954399576742e7 -6.657635510097216e7 0.0
0.0 0.0 0.0

1.5026431547457626e7 1.939637257382067e7 0.0
1.939637257382067e7 6.464488412996234e7 0.0
0.0 0.0 0.0

861158.6108016437 1.5068191882119726e7 0.0
1.5068191882119726e7 -1.9314088828982264e7 0.0
0.0 0.0 0.0

-1.1237056255273593e6 2.078187247624166e7 0.0
2.078187247624166e7 -5.833773059575439e6 0.0
0.0 0.0 0.0

-3.984765020780216e6 1.6538788256598258e7 0.0
1.6538788256598258e7 -2.0632295709913377e7 0.0
0.0 0.0 0.0

-2.271898355326078e6 1.7798248100203667e7 0.0
1.7798248100203667e7 -5.612225127596758e6 0.0
0.0 0.0 0.0

763334.6664657528 2.0609434177522283e7 0.0
2.0609434177522283e7 -1.268706732759552e7 0.0
0.0 0.0 0.0

-1.5704231090193826e6 1.6549945286520317e7 0.0
1.6549945286520317e7 -8.1987543082602685e6 0.0
0.0 0.0 0.0

-2.89331914882316e6 2.107904159311674e7 0.0
2.107904159311674e7 -365069.5716405499 0.0
0.0 0.0 0.0

1.1043505855183713e6 9.280298330182638e6 0.0
9.280298330182638e6 -4.796370144504668e7 0.0
0.0 0.0 0.0

-9.250303026659518e6 2.307284670091082e7 0.0
2.307284670091082e7 3.3688219307956495e6 0.0
0.0 0.0 0.0

-3.4142737676823535e6 2.1231828027420294e7 0.0
2.1231828027420294e7 6.126433874137744e6 0.0
0.0 0.0 0.0

-991260.4171067292 1.679501166610532e7 0.0
1.679501166610532e7 -6.329168027431757e6 0.0
0.0 0.0 0.0

1.4203540335870786e6 1.2747019994968073e7 0.0
1.2747019994968073e7 -2.4223234991531406e7 0.0
0.0 0.0 0.0

1.448864013894893e7 2.0208029243783332e7 0.0
2.0208029243783332e7 4.8295467249981344e7 0.0
0.0 0.0 0.0

-347481.1478299075 2.117744789336025e7 0.0
2.117744789336025e7 -8.840875490330445e6 0.0
0.0 0.0 0.0

-2.4653163346450634e7 5.441025375918173e7 0.0
5.441025375918173e7 -920457.4868029188 0.0
0.0 0.0 0.0

1.0002462865132364e6 1.4467520115056904e7 0.0
1.4467520115056904e7 -2.049888451530915e7 0.0
0.0 0.0 0.0

-1.5255746640236825e6 2.1127234428726222e7 0.0
2.1127234428726222e7 -3.779780335911301e6 0.0
0.0 0.0 0.0

2.868340202699194e6 2.977840292440625e6 0.0
2.977840292440625e6 -8.808048386508353e6 0.0
0.0 0.0 0.0

2.5872107886070646e6 8.191719583185847e6 0.0
8.191719583185847e6 -2.6358583361938313e7 0.0
0.0 0.0 0.0

-1.8413658936899062e6 2.359851101969378e7 0.0
2.359851101969378e7 -214250.3565981211 0.0
0.0 0.0 0.0

-6.7443109802549295e6 1.7188218320543263e7 0.0
1.7188218320543263e7 -3.857023041587302e7 0.0
0.0 0.0 0.0

-1.351529337731563e6 1.741960012455057e7 0.0
1.741960012455057e7 -5.01001524295137e6 0.0
0.0 0.0 0.0

1.2084748434054153e6 1.2216473069051068e7 0.0
1.2216473069051068e7 -1.1950523347447436e7 0.0
0.0 0.0 0.0

-3.4047171483283415e6 1.578007372431374e7 0.0
1.578007372431374e7 5.302393726823943e6 0.0
0.0 0.0 0.0

1.2055848836146258e6 1.3909654191058813e7 0.0
1.3909654191058813e7 -2.174752834726518e7 0.0
0.0 0.0 0.0

-4.564516360826587e6 1.5193648457128555e7 0.0
1.5193648457128555e7 4.40272102538708e6 0.0
0.0 0.0 0.0

346864.6648591617 1.755692318272668e7 0.0
1.755692318272668e7 -1.8350597950573124e7 0.0
0.0 0.0 0.0

-2.252211551064523e7 2.8522828868380688e7 0.0
2.8522828868380688e7 -9.545105337172415e6 0.0
0.0 0.0 0.0

-6.275998453449376e6 -6.308173077614347e6 0.0
-6.308173077614347e6 1.2829769951616727e7 0.0
0.0 0.0 0.0

-4.021980623608429e6 1.5579024256653115e7 0.0
1.5579024256653115e7 8.38862049398198e6 0.0
0.0 0.0 0.0

-2.046055009079686e6 2.1909774158767518e7 0.0
2.1909774158767518e7 -518629.99873062404 0.0
0.0 0.0 0.0

-8.226711124672808e6 1.271097450191417e6 0.0
1.271097450191417e6 4.534754775951579e7 0.0
0.0 0.0 0.0

383719.6364234383 1.9476386637648422e7 0.0
1.9476386637648422e7 1.3496649930105973e7 0.0
0.0 0.0 0.0

-1.9428293997708447e6 1.7168843628158882e7 0.0
1.7168843628158882e7 -6.919549367987987e6 0.0
0.0 0.0 0.0

416831.5954600065 2.0504539437874425e7 0.0
2.0504539437874425e7 -1.1742493448542727e7 0.0
0.0 0.0 0.0

-1.0119321769961291e6 1.8376845766668875e7 0.0
1.8376845766668875e7 -1.0195307362924289e7 0.0
0.0 0.0 0.0

-1.3371951617995542e6 1.4082775671596061e7 0.0
1.4082775671596061e7 -7.941058244264021e6 0.0
0.0 0.0 0.0

-1.861633701620805e6 2.0238294938467957e7 0.0
2.0238294938467957e7 -6.685350240830669e6 0.0
0.0 0.0 0.0

-4.3057675845370805e6 1.848127974162164e7 0.0
1.848127974162164e7 1.4140063131270543e7 0.0
0.0 0.0 0.0

-2.7077096866051666e6 1.8924487837576516e7 0.0
1.8924487837576516e7 2.406302964910726e6 0.0
0.0 0.0 0.0

-3.016796770812864e6 1.7661793728784367e7 0.0
1.7661793728784367e7 -2.2390257227746593e6 0.0
0.0 0.0 0.0

2.629380179239601e6 8.021851832928396e6 0.0
8.021851832928396e6 -3.3699109760230035e7 0.0
0.0 0.0 0.0

-5.10132351041206e6 2.6377226341331866e7 0.0
2.6377226341331866e7 7.230444826397921e6 0.0
0.0 0.0 0.0

-5.497282446334396e6 2.1872674647521847e6 0.0
2.1872674647521847e6 8.59653799144076e6 0.0
0.0 0.0 0.0

-4.1649479704484204e6 1.8173174708618365e7 0.0
1.8173174708618365e7 1.3034948626625402e7 0.0
0.0 0.0 0.0

732298.0264226724 1.2388305703171706e7 0.0
1.2388305703171706e7 -9.931290445010617e6 0.0
0.0 0.0 0.0

3.633685329788318e6 3.6318537262871806e6 0.0
3.6318537262871806e6 -2.1006789068351164e7 0.0
0.0 0.0 0.0

1.305999933121616e6 1.3294437208972184e7 0.0
1.3294437208972184e7 -2.305283923432176e7 0.0
0.0 0.0 0.0

-5.077745890757164e6 7.5818799247642895e6 0.0
7.5818799247642895e6 3.611678688701576e6 0.0
0.0 0.0 0.0

-1.0713085293105943e7 1.436060090803579e7 0.0
1.436060090803579e7 2.6630893057388205e7 0.0
0.0 0.0 0.0

-2.098868117405769e6 1.9080175663051523e7 0.0
1.9080175663051523e7 -6.1777364995866185e6 0.0
0.0 0.0 0.0

-5.363861211746936e6 -5.863262608910494e6 0.0
-5.863262608910494e6 1.2941266798619239e7 0.0
0.0 0.0 0.0

-4.821010447534623e6 1.393684273679266e7 0.0
1.393684273679266e7 4.436484148293976e6 0.0
0.0 0.0 0.0

327199.0100293481 2.1112159547307737e7 0.0
2.1112159547307737e7 -1.0574624959858324e7 0.0
0.0 0.0 0.0

-2.1930036392707764e6 1.8275497517013736e7 0.0
1.8275497517013736e7 -1.8988288717440903e7 0.0
0.0 0.0 0.0

1.032777987813984e6 1.2325685633418025e7 0.0
1.2325685633418025e7 -1.6297124090251196e7 0.0
0.0 0.0 0.0

-474815.21680430137 9.798288246577745e6 0.0
9.798288246577745e6 -7.106094083126028e6 0.0
0.0 0.0 0.0

-1.4704442294279211e6 1.8398402603406407e7 0.0
1.8398402603406407e7 -4.681557575961962e6 0.0
0.0 0.0 0.0

-3.593406135962667e6 1.895919699090744e7 0.0
1.895919699090744e7 2.499900382589352e7 0.0
0.0 0.0 0.0

-2.2586792301874794e6 2.4168682992060237e7 0.0
2.4168682992060237e7 -1.6382691740978807e6 0.0
0.0 0.0 0.0

-6.780618226433404e6 1.9206499050946645e7 0.0
1.9206499050946645e7 1.9838991342010226e7 0.0
0.0 0.0 0.0

-3.2484779679536964e6 2.1034681314164843e7 0.0
2.1034681314164843e7 1.1277680148364736e7 0.0
0.0 0.0 0.0

127285.30312904669 1.1120710114086937e7 0.0
1.1120710114086937e7 -9.959822070878513e6 0.0
0.0 0.0 0.0

-3.5655718153989385e6 1.4586923804241363e7 0.0
1.4586923804241363e7 5.431176254133477e6 0.0
0.0 0.0 0.0

-523270.30972062796 1.9324910910083458e7 0.0
1.9324910910083458e7 1.3746654535164168e7 0.0
0.0 0.0 0.0

-1.7935769387089373e6 1.4727322702178717e7 0.0
1.4727322702178717e7 -6.605454289341051e6 0.0
0.0 0.0 0.0

221103.55874368828 1.5276543107433923e7 0.0
1.5276543107433923e7 -2.5096603052582964e7 0.0
0.0 0.0 0.0

-1.5376569229674041e6 1.9339498921183508e7 0.0
1.9339498921183508e7 -4.360903024111964e6 0.0
0.0 0.0 0.0

672601.7283311756 1.56316249296256e7 0.0
1.56316249296256e7 -1.8149620894150604e7 0.0
0.0 0.0 0.0

-3.1070934283301136e6 1.6372478011155572e7 0.0
1.6372478011155572e7 3.774154126378188e6 0.0
0.0 0.0 0.0

-7.6363268592894655e6 1.6493391349547535e7 0.0
1.6493391349547535e7 -2.8685328827214897e7 0.0
0.0 0.0 0.0

-1.5528126696882334e6 2.0248248434173025e7 0.0
2.0248248434173025e7 -4.0680854594558803e6 0.0
0.0 0.0 0.0

5.848472204841431e6 2.021324595068913e7 0.0
2.021324595068913e7 -836826.3682877368 0.0
0.0 0.0 0.0

-8.51851008750905e6 3.373286481424478e6 0.0
3.373286481424478e6 4.432851933199904e7 0.0
0.0 0.0 0.0

-7.7176161313059535e6 3.453633701977167e7 0.0
3.453633701977167e7 4.200471681555038e6 0.0
0.0 0.0 0.0

-3.3223177556589306e6 2.1170959794457294e7 0.0
2.1170959794457294e7 1.024073595189673e7 0.0
0.0 0.0 0.0

-8.769483952904623e6 1.5280036839485683e7 0.0
1.5280036839485683e7 2.923687447382053e7 0.0
0.0 0.0 0.0

-3.5523314767570305e6 2.3723330278871626e7 0.0
2.3723330278871626e7 9.29054770293318e6 0.0
0.0 0.0 0.0

-2.607914208390685e6 1.6323114130504971e7 0.0
1.6323114130504971e7 961019.2368947259 0.0
0.0 0.0 0.0

-802400.4259403362 1.7154237735909477e7 0.0
1.7154237735909477e7 -7.250632292700882e6 0.0
0.0 0.0 0.0

-1.2478756037455192e6 1.872609312538643e7 0.0
1.872609312538643e7 -5.616127304047066e6 0.0
0.0 0.0 0.0

-1.3610455157906595e6 1.0724537667024968e7 0.0
1.0724537667024968e7 -1.1420639271849098e6 0.0
0.0 0.0 0.0

236704.9219216439 2.17497941877348e7 0.0
2.17497941877348e7 -9.4939461421103e6 0.0
0.0 0.0 0.0

2.7865484308431856e6 6.649893920407112e6 0.0
6.649893920407112e6 -2.0716867808520954e7 0.0
0.0 0.0 0.0

1.4849289624430556e6 6.711943059227454e6 0.0
6.711943059227454e6 -1.0224140667102236e7 0.0
0.0 0.0 0.0

-3.7012268321089325e6 2.0574594737364024e7 0.0
2.0574594737364024e7 1.3725067045391936e7 0.0
0.0 0.0 0.0

-2.109921316252332e6 2.3660534330592193e7 0.0
2.3660534330592193e7 -2.7019202514779423e6 0.0
0.0 0.0 0.0

4.966579542681528e6 2.0552399338156994e7 0.0
2.0552399338156994e7 -2.9483936621871376e6 0.0
0.0 0.0 0.0

-1.2111146504518164e7 2.6204631383833393e7 0.0
2.6204631383833393e7 4.806983252737365e6 0.0
0.0 0.0 0.0

2.188057674353216e6 6.446745076296829e6 0.0
6.446745076296829e6 -1.4138052279351713e7 0.0
0.0 0.0 0.0

-2.268470939137078e6 1.5341889205822667e7 0.0
1.5341889205822667e7 -5.260111933737481e6 0.0
0.0 0.0 0.0

4.319973949925921e7 1.6013638956680218e7 0.0
1.6013638956680218e7 2.423271197786005e6 0.0
0.0 0.0 0.0

-220433.77877952158 1.0165647970376087e7 0.0
1.0165647970376087e7 -8.318117128593669e6 0.0
0.0 0.0 0.0

2.800073779056696e6 6.827579878408093e6 0.0
6.827579878408093e6 -2.5199919469850082e7 0.0
0.0 0.0 0.0

-6.350527258737773e6 1.8474900889973357e7 0.0
1.8474900889973357e7 2.53016397880154e7 0.0
0.0 0.0 0.0

654187.7061915752 1.6581303044646922e7 0.0
1.6581303044646922e7 -1.9312602402683523e7 0.0
0.0 0.0 0.0

-9.8394669914828e6 1.1370207963385157e7 0.0
1.1370207963385157e7 1.8889495685320515e7 0.0
0.0 0.0 0.0

-1.2264532097030573e7 3.3384692103016406e7 0.0
3.3384692103016406e7 5.159737055757077e6 0.0
0.0 0.0 0.0

-6.15562310556794e6 1.878341752599646e7 0.0
1.878341752599646e7 2.4098185942727648e7 0.0
0.0 0.0 0.0

-4.012912738744366e6 2.443136128634096e7 0.0
2.443136128634096e7 9.024268189373506e6 0.0
0.0 0.0 0.0

-1.8676354527563363e7 2.641439355498732e7 0.0
2.641439355498732e7 -8.900171959861768e6 0.0
0.0 0.0 0.0

-3.4308429658771167e6 1.785645852515146e7 0.0
1.785645852515146e7 295947.3505769102 0.0
0.0 0.0 0.0

4.02132797651408e7 6.458890904307776e6 0.0
6.458890904307776e6 -1.3928826733976174e6 0.0
0.0 0.0 0.0

-411980.7144706687 1.9027991912381276e7 0.0
1.9027991912381276e7 -9.364858764995957e6 0.0
0.0 0.0 0.0

-1.379789434062564e6 1.6115434052755658e7 0.0
1.6115434052755658e7 -472543.68020794727 0.0
0.0 0.0 0.0

121966.07681772113 2.236903656076875e7 0.0
2.236903656076875e7 -8.367346515452536e6 0.0
0.0 0.0 0.0

-1.296901446463383e7 2.2824829172125004e7 0.0
2.2824829172125004e7 -5.37575760774117e6 0.0
0.0 0.0 0.0

-17442.022823727224 9.469395608470192e6 0.0
9.469395608470192e6 -3.8623131171613242e6 0.0
0.0 0.0 0.0

-3.7464096311662216e6 2.106906296651264e7 0.0
2.106906296651264e7 1.5024052667011604e7 0.0
0.0 0.0 0.0

-3.2536330737983035e6 1.689748039378338e7 0.0
1.689748039378338e7 -1.9442305549057703e7 0.0
0.0 0.0 0.0

-1.1661825216537569e7 5.105255036232157e6 0.0
5.105255036232157e6 2.6684001012437556e7 0.0
0.0 0.0 0.0

-2.353169959835336e6 2.3406020987316974e7 0.0
2.3406020987316974e7 -1.8656314610471036e6 0.0
0.0 0.0 0.0

-2.3546417458184035e6 1.6792938407762803e7 0.0
1.6792938407762803e7 -317995.33165541466 0.0
0.0 0.0 0.0

-1.6270414634137184e6 2.3864695312311374e7 0.0
2.3864695312311374e7 -1.1457818526330364e6 0.0
0.0 0.0 0.0

258215.25841984805 1.7050275067631356e7 0.0
1.7050275067631356e7 -1.1977906781086795e7 0.0
0.0 0.0 0.0

-5.944473619958577e6 8.409859604390694e6 0.0
8.409859604390694e6 1.0705115719610281e7 0.0
0.0 0.0 0.0

-3.3047726516081444e6 2.411690780544157e7 0.0
2.411690780544157e7 5.810690336783816e6 0.0
0.0 0.0 0.0

-4.303385423330096e6 2.0486115758937538e7 0.0
2.0486115758937538e7 1.713263466941683e7 0.0
0.0 0.0 0.0

-3.4682755619515134e6 2.011061995930011e7 0.0
2.011061995930011e7 1.1852721173099242e7 0.0
0.0 0.0 0.0

-734380.3017438438 1.4289939655907031e7 0.0
1.4289939655907031e7 -5.910328691695977e6 0.0
0.0 0.0 0.0

1.432347211734604e6 1.2106165971525427e7 0.0
1.2106165971525427e7 -2.7333243684307806e7 0.0
0.0 0.0 0.0

-3.3504045618352564e6 1.9380986144415658e7 0.0
1.9380986144415658e7 1.6282343463029787e6 0.0
0.0 0.0 0.0

32683.38295209594 1.85047879559873e7 0.0
1.85047879559873e7 -1.4353783094233898e7 0.0
0.0 0.0 0.0

-218907.68107219227 1.680294121159563e7 0.0
1.680294121159563e7 -1.3523910981199706e7 0.0
0.0 0.0 0.0

-905647.3937697465 2.384480734495194e7 0.0
2.384480734495194e7 -6.10720637273164e6 0.0
0.0 0.0 0.0

-1.1008801112489048e6 1.928137566525678e7 0.0
1.928137566525678e7 -9.673060658146061e6 0.0
0.0 0.0 0.0

1.6011949710053513e6 1.2418616067217123e7 0.0
1.2418616067217123e7 -2.2105776079842426e7 0.0
0.0 0.0 0.0

1.587037998681115e6 6.741763750627523e6 0.0
6.741763750627523e6 -6.538594177139377e6 0.0
0.0 0.0 0.0

-1.9784895131236864e6 6.283083685865018e6 0.0
6.283083685865018e6 2.9643530391377476e6 0.0
0.0 0.0 0.0

598251.2529743843 3.1268626390920963e7 0.0
3.1268626390920963e7 -711407.1958395494 0.0
0.0 0.0 0.0

-3.5141598075430295e6 1.8414118193150897e7 0.0
1.8414118193150897e7 1.6068252427046222e6 0.0
0.0 0.0 0.0

-1.6470751858216263e6 2.049711317715668e7 0.0
2.049711317715668e7 -7.515113752398444e6 0.0
0.0 0.0 0.0

3.3878942425984545e6 4.234746599918636e6 0.0
4.234746599918636e6 -1.333414338061238e7 0.0
0.0 0.0 0.0

-8.9517488275108e6 5.728418377690114e6 0.0
5.728418377690114e6 4.451152332652408e7 0.0
0.0 0.0 0.0

1.7168039917918527e6 1.0052963781612454e7 0.0
1.0052963781612454e7 -1.700478466078571e7 0.0
0.0 0.0 0.0

5.179956791246736e6 2.444095868830059e7 0.0
2.444095868830059e7 -6.059655698313622e6 0.0
0.0 0.0 0.0

588711.4485211379 2.5361303860125013e7 0.0
2.5361303860125013e7 -5.544961896115676e6 0.0
0.0 0.0 0.0

-3.244352488097012e6 2.461951969353396e7 0.0
2.461951969353396e7 4.819765487970773e6 0.0
0.0 0.0 0.0

3.428121064302789e6 3.634981957912107e6 0.0
3.634981957912107e6 -2.9394165139697943e7 0.0
0.0 0.0 0.0

-1.2831936031533196e6 2.1399234412404623e7 0.0
2.1399234412404623e7 -4.656803191586628e6 0.0
0.0 0.0 0.0

-769906.7126630552 2.2617627551219005e7 0.0
2.2617627551219005e7 -5.935750795405909e6 0.0
0.0 0.0 0.0

2.5993521267890576e6 7.606650122668852e6 0.0
7.606650122668852e6 -2.7660847310953274e7 0.0
0.0 0.0 0.0

-1.222935323360938e6 2.5631126644549664e7 0.0
2.5631126644549664e7 -3.291181376653898e6 0.0
0.0 0.0 0.0

2.3026881117255106e6 2.1095465610316247e7 0.0
2.1095465610316247e7 -8.216052180945238e6 0.0
0.0 0.0 0.0

-2.058914284973336e6 2.0857382001276024e7 0.0
2.0857382001276024e7 -5.498481762966198e6 0.0
0.0 0.0 0.0

-514293.5741495043 1.5942344057921601e7 0.0
1.5942344057921601e7 -2.6798245354237437e7 0.0
0.0 0.0 0.0

1.8155019471629793e6 7.252076223960029e6 0.0
7.252076223960029e6 -1.306000331198891e7 0.0
0.0 0.0 0.0

655315.8114974694 1.2034840451295873e7 0.0
1.2034840451295873e7 -1.3798832538819421e7 0.0
0.0 0.0 0.0

-846898.6504547792 2.1371133099774588e7 0.0
2.1371133099774588e7 -8.208255496949792e6 0.0
0.0 0.0 0.0

1.6079627425101115e6 2.0998705889643982e7 0.0
2.0998705889643982e7 -9.750349568777464e6 0.0
0.0 0.0 0.0

-1.339864366661401e6 1.9819051301801994e7 0.0
1.9819051301801994e7 -8.60165627147659e6 0.0
0.0 0.0 0.0

2.7678187466189833e6 7.916850310202763e6 0.0
7.916850310202763e6 -1.3736571076307295e7 0.0
0.0 0.0 0.0

3.767365163452424e6 4.845290992622475e6 0.0
4.845290992622475e6 -2.4709290154489085e7 0.0
0.0 0.0 0.0

246431.1893388983 1.6794945915426377e7 0.0
1.6794945915426377e7 -1.5838080184345588e7 0.0
0.0 0.0 0.0

245470.0987883052 1.2657151021857731e7 0.0
1.2657151021857731e7 -1.2658299623190694e7 0.0
0.0 0.0 0.0

-3.515582692622174e6 1.6805393470903907e7 0.0
1.6805393470903907e7 160605.77891754964 0.0
0.0 0.0 0.0

-9.867437764340937e6 2.655384416180043e7 0.0
2.655384416180043e7 5.876676127673161e6 0.0
0.0 0.0 0.0

-381675.6446669996 1.4647937728346473e7 0.0
1.4647937728346473e7 7.13256261671856e7 0.0
0.0 0.0 0.0

-1.2006210901027145e7 5.623436011174287e6 0.0
5.623436011174287e6 2.4611239574635383e7 0.0
0.0 0.0 0.0

650048.2333208304 2.3726923289365724e7 0.0
2.3726923289365724e7 -8.212159744133712e6 0.0
0.0 0.0 0.0

-3.6551898531228597e6 1.7401962977096923e7 0.0
1.7401962977096923e7 1.5445689081683194e6 0.0
0.0 0.0 0.0

-1.0201020441144537e7 7.904563130011722e6 0.0
7.904563130011722e6 3.5107901159329064e7 0.0
0.0 0.0 0.0

3.7288727984963506e6 4.893151912544381e6 0.0
4.893151912544381e6 -2.1957393638599385e7 0.0
0.0 0.0 0.0

-2.886830778853191e6 1.8462651600375492e7 0.0
1.8462651600375492e7 3.692157868930504e6 0.0
0.0 0.0 0.0

484140.0411368599 1.6224430100015078e7 0.0
1.6224430100015078e7 -2.0934821060132936e7 0.0
0.0 0.0 0.0

36346.657961202785 2.3063139484987512e7 0.0
2.3063139484987512e7 -7.362110212781196e6 0.0
0.0 0.0 0.0

-1.0104674749635697e6 2.1624171584242076e7 0.0
2.1624171584242076e7 -5.493568578165039e6 0.0
0.0 0.0 0.0

-4.943236176194467e6 1.622756737538152e7 0.0
1.622756737538152e7 7.26252099504341e6 0.0
0.0 0.0 0.0

-1.903357744601618e6 1.7638342992235683e7 0.0
1.7638342992235683e7 -2.635851675474516e6 0.0
0.0 0.0 0.0

-8.354762891778019e6 9.968139322734796e6 0.0
9.968139322734796e6 1.0850118612941656e7 0.0
0.0 0.0 0.0

-4.463112879196456e7 2.500409294096136e7 0.0
2.500409294096136e7 5.0044444075456485e6 0.0
0.0 0.0 0.0

4.0679711824849914e6 2.1132976328102477e7 0.0
2.1132976328102477e7 1.0915442103618387e7 0.0
0.0 0.0 0.0

-3.329687246116046e6 2.2069008990560193e7 0.0
2.2069008990560193e7 1.1575389766260885e7 0.0
0.0 0.0 0.0

-1.8169333624002545e6 2.5567320432446178e7 0.0
2.5567320432446178e7 950766.4737379784 0.0
0.0 0.0 0.0

2.0821507895705895e6 9.694545953560133e6 0.0
9.694545953560133e6 -2.0683439415446706e7 0.0
0.0 0.0 0.0

2.5976407764955033e6 8.057355301077037e6 0.0
8.057355301077037e6 -2.4773091602165777e7 0.0
0.0 0.0 0.0

2.5475204068895504e6 9.82990211705593e6 0.0
9.82990211705593e6 -2.917906098174482e7 0.0
0.0 0.0 0.0

-4.287233744051755e6 1.6359688238794992e7 0.0
1.6359688238794992e7 4.321102589175433e6 0.0
0.0 0.0 0.0

-1.1345473447640345e7 1.3692848686500594e7 0.0
1.3692848686500594e7 2.474839382338301e7 0.0
0.0 0.0 0.0

-6.414895697679747e6 1.096418669779537e7 0.0
1.096418669779537e7 1.2364159102775978e7 0.0
0.0 0.0 0.0

3.8819481177384052e6 2.087318563099026e7 0.0
2.087318563099026e7 -4.812621849684524e6 0.0
0.0 0.0 0.0

-2.595048656789173e6 1.7231766661345065e7 0.0
1.7231766661345065e7 -1.7998542457008857e7 0.0
0.0 0.0 0.0

-3.6432718615518655e6 2.4411617889525425e7 0.0
2.4411617889525425e7 7.492175070261199e6 0.0
0.0 0.0 0.0

5.843530917510149e6 3.0287402089525554e7 0.0
3.0287402089525554e7 -4.0364747919996977e6 0.0
0.0 0.0 0.0

-8.103114625819061e6 2.6658599265856005e7 0.0
2.6658599265856005e7 6.609199920978345e6 0.0
0.0 0.0 0.0

-5.37892807825731e6 1.9544578505291823e7 0.0
1.9544578505291823e7 2.01866829766103e7 0.0
0.0 0.0 0.0

1.3160140211560745e6 7.053293106885371e6 0.0
7.053293106885371e6 -4.731448694064991e7 0.0
0.0 0.0 0.0

50520.28375964053 1.626805341679593e7 0.0
1.626805341679593e7 -1.0603992071260648e7 0.0
0.0 0.0 0.0

3.2948262018554355e6 3.0087623470672746e6 0.0
3.0087623470672746e6 -1.1051453569635814e7 0.0
0.0 0.0 0.0

2.892736754534699e6 8.439742131104108e6 0.0
8.439742131104108e6 -3.0065019777936447e7 0.0
0.0 0.0 0.0

-3.148702463499855e6 2.510312336763156e7 0.0
2.510312336763156e7 3.8723620345619014e6 0.0
0.0 0.0 0.0

-1.0613601598340508e7 1.4112288957593048e7 0.0
1.4112288957593048e7 2.378144994888775e7 0.0
0.0 0.0 0.0

-6.0143790755778905e6 1.9152595152431723e7 0.0
1.9152595152431723e7 2.1726318544763904e7 0.0
0.0 0.0 0.0

-3.2972453656624844e6 2.277221556472295e7 0.0
2.277221556472295e7 1.0901716702184534e7 0.0
0.0 0.0 0.0

2.282021558441978e6 1.0247909378015885e7 0.0
1.0247909378015885e7 -1.5150011435287017e7 0.0
0.0 0.0 0.0

-6.127883502057815e6 2.231639908073513e7 0.0
2.231639908073513e7 -1.0264795992821332e7 0.0
0.0 0.0 0.0

974395.4419586634 3.0968465054427333e7 0.0
3.0968465054427333e7 -2.2615464195928485e6 0.0
0.0 0.0 0.0

-3.7552146711415583e6 2.6161833436949767e7 0.0
2.6161833436949767e7 5.502030693182682e6 0.0
0.0 0.0 0.0

-5.808374012152445e6 1.909068379821722e7 0.0
1.909068379821722e7 2.2869517585935775e7 0.0
0.0 0.0 0.0

-7.104047319852059e6 5.934138879650048e7 0.0
5.934138879650048e7 -1.1822396354783935e7 0.0
0.0 0.0 0.0

-5.575795187683519e6 2.157053821125221e7 0.0
2.157053821125221e7 -1.2542303087014332e7 0.0
0.0 0.0 0.0

-4.687076130196426e6 1.8145913110857353e7 0.0
1.8145913110857353e7 9.53793215160489e6 0.0
0.0 0.0 0.0

-1.0351863773179052e7 1.9488982580510208e6 0.0
1.9488982580510208e6 1.4153015223345403e7 0.0
0.0 0.0 0.0

-1.1441386168509587e6 1.7782038760274813e7 0.0
1.7782038760274813e7 -5.968414727914353e6 0.0
0.0 0.0 0.0

-1.0183378802299969e7 2.3140612521727066e7 0.0
2.3140612521727066e7 -5.831691145255594e6 0.0
0.0 0.0 0.0

-7.948425106512103e6 3.309215869464255e7 0.0
3.309215869464255e7 3.8933859980381997e6 0.0
0.0 0.0 0.0

-694640.5271220147 2.0372399229084022e7 0.0
2.0372399229084022e7 -7.708147922159283e6 0.0
0.0 0.0 0.0

-1.4746070900346907e6 2.2084575269047882e7 0.0
2.2084575269047882e7 -6.712580260288741e6 0.0
0.0 0.0 0.0

-1.0722370961223736e7 3.0405718977674847e6 0.0
3.0405718977674847e6 2.2588352937520437e7 0.0
0.0 0.0 0.0

3.5474836583877197e6 5.961217303325414e6 0.0
5.961217303325414e6 -1.9626641431273937e7 0.0
0.0 0.0 0.0

1.249095981123255e6 3.0105466829586294e7 0.0
3.0105466829586294e7 -1.7482474405473787e6 0.0
0.0 0.0 0.0

-4.820299985712961e6 1.9992340896121353e7 0.0
1.9992340896121353e7 1.8715589204615604e7 0.0
0.0 0.0 0.0

-1.4693519387608761e7 2.4619502768791106e7 0.0
2.4619502768791106e7 -3.1297599617038695e6 0.0
0.0 0.0 0.0

-1.753656756537146e6 5.885941026766471e6 0.0
5.885941026766471e6 -1.6933671764609711e6 0.0
0.0 0.0 0.0

-1.1314724650537668e7 2.445020983526039e7 0.0
2.445020983526039e7 -9.39072835348742e6 0.0
0.0 0.0 0.0

-1.8051001779966345e6 2.1089600107459094e7 0.0
2.1089600107459094e7 -6.32734386785465e6 0.0
0.0 0.0 0.0

465947.6364090573 1.6220380139034716e7 0.0
1.6220380139034716e7 -1.6981468215134036e7 0.0
0.0 0.0 0.0

-1.3237023743860293e6 1.964172322067205e7 0.0
1.964172322067205e7 -5.288761664629789e6 0.0
0.0 0.0 0.0

1.6784460712776976e6 1.0539904223799048e7 0.0
1.0539904223799048e7 -1.774743735901533e7 0.0
0.0 0.0 0.0

-2.272357738459002e6 2.0691051813838508e7 0.0
2.0691051813838508e7 306903.2389200778 0.0
0.0 0.0 0.0

-1.0367107654803803e7 4.12315130498414e6 0.0
4.12315130498414e6 1.35586148691248e7 0.0
0.0 0.0 0.0

-9.165551389289182e6 1.3726937201153183e7 0.0
1.3726937201153183e7 1.952467601790374e7 0.0
0.0 0.0 0.0

-4.199574696142545e6 1.6021098541085158e7 0.0
1.6021098541085158e7 9.786171762876097e6 0.0
0.0 0.0 0.0

-5.109184683987709e6 1.6979319557311825e7 0.0
1.6979319557311825e7 -1.713553435589714e7 0.0
0.0 0.0 0.0

-3.578015529729096e6 1.6274618757859468e7 0.0
1.6274618757859468e7 6.703400737823588e6 0.0
0.0 0.0 0.0

-3.419786939047484e7 2.91299743531766e7 0.0
2.91299743531766e7 -3.268041698670367e6 0.0
0.0 0.0 0.0

-3.75149338482875e6 1.7953162375155896e7 0.0
1.7953162375155896e7 2.8583029460764825e6 0.0
0.0 0.0 0.0

-1.719335036306819e6 1.9808821474606052e7 0.0
1.9808821474606052e7 -3.1999162020214684e6 0.0
0.0 0.0 0.0

-5.04839303429357e7 2.4106405052472033e7 0.0
2.4106405052472033e7 3.1474602115413025e6 0.0
0.0 0.0 0.0

3.024161035321928e6 2.1114874221464213e7 0.0
2.1114874221464213e7 -6.687392169660309e6 0.0
0.0 0.0 0.0

-2.8460411578037813e6 1.6911447000460748e7 0.0
1.6911447000460748e7 2.369381245314081e6 0.0
0.0 0.0 0.0

1.5840092080731653e6 1.1560582815837193e7 0.0
1.1560582815837193e7 -1.3035717561418016e7 0.0
0.0 0.0 0.0

-1.9831720591251e6 2.5981090114618465e7 0.0
2.5981090114618465e7 1.8302240902292193e6 0.0
0.0 0.0 0.0

1.3565428992198594e6 1.2097363764990527e7 0.0
1.2097363764990527e7 -1.8050922351163954e7 0.0
0.0 0.0 0.0

1.2565310715755885e6 1.2990265151892547e7 0.0
1.2990265151892547e7 -1.933223140132829e7 0.0
0.0 0.0 0.0

-6.887628420698003e6 8.789800611498537e6 0.0
8.789800611498537e6 7.389950933955366e6 0.0
0.0 0.0 0.0

-4.0484418170966497e6 2.0432798214334354e7 0.0
2.0432798214334354e7 9.848543612147802e6 0.0
0.0 0.0 0.0

3.192208471079152e6 7.819900284289547e6 0.0
7.819900284289547e6 -2.5761919290408578e7 0.0
0.0 0.0 0.0

-1.1444785077461738e7 6.914207265672065e6 0.0
6.914207265672065e6 1.954803892682019e7 0.0
0.0 0.0 0.0

1.3246615635241596e6 1.2521607813026918e7 0.0
1.2521607813026918e7 -1.871742861300768e7 0.0
0.0 0.0 0.0

-8.508596854261242e7 9.389797265568139e6 0.0
9.389797265568139e6 4.352711395726323e6 0.0
0.0 0.0 0.0

1.609939472843144e6 6.93436673994571e6 0.0
6.93436673994571e6 -4.405568208186198e7 0.0
0.0 0.0 0.0

-4.277027900097705e6 1.9157148155691523e7 0.0
1.9157148155691523e7 9.158757537723057e6 0.0
0.0 0.0 0.0

-3.7154663067567986e6 2.073219070256025e7 0.0
2.073219070256025e7 7.338245425405674e6 0.0
0.0 0.0 0.0

-4.731358990462394e6 2.5727685785906255e7 0.0
2.5727685785906255e7 8.302487156743045e6 0.0
0.0 0.0 0.0

-2.0441437375299225e6 1.8142439109402254e7 0.0
1.8142439109402254e7 -6.538589145054732e6 0.0
0.0 0.0 0.0

-4.479978427122893e6 2.079714873073941e7 0.0
2.079714873073941e7 1.744461053033782e7 0.0
0.0 0.0 0.0

616028.9108420275 1.4372288708488481e7 0.0
1.4372288708488481e7 -1.5672255329358181e7 0.0
0.0 0.0 0.0

2.1864101687128916e6 9.881094898309074e6 0.0
9.881094898309074e6 -2.4673011890515145e7 0.0
0.0 0.0 0.0

-2.208429462386893e6 2.5617627389577202e7 0.0
2.5617627389577202e7 2.629300816046242e6 0.0
0.0 0.0 0.0

1.123506072883298e6 2.6752952445985273e7 0.0
2.6752952445985273e7 -5.350721052329157e6 0.0
0.0 0.0 0.0

2.1740135604337025e6 9.172015577607011e6 0.0
9.172015577607011e6 -3.5397819905919254e7 0.0
0.0 0.0 0.0

-5.0893673345610425e6 1.3488534696412481e7 0.0
1.3488534696412481e7 1.0279871657425668e7 0.0
0.0 0.0 0.0

-6.681398365352914e6 2.6488607999042664e7 0.0
2.6488607999042664e7 7.21901191950399e6 0.0
0.0 0.0 0.0

-4.488608245486418e7 6.3878988711543575e7 0.0
6.3878988711543575e7 -2.8688449583176505e6 0.0
0.0 0.0 0.0

-1.0813468765568295e7 9.860132914339414e6 0.0
9.860132914339414e6 3.0884006453907713e7 0.0
0.0 0.0 0.0

-4.088477292258545e6 1.5924726817699661e7 0.0
1.5924726817699661e7 -1.5376902794057965e7 0.0
0.0 0.0 0.0

-908198.355877782 5.697649414563411e6 0.0
5.697649414563411e6 1.092040019687564e6 0.0
0.0 0.0 0.0

-8.57110850320965e6 -3.921137237020705e6 0.0
-3.921137237020705e6 3.0628047337041225e7 0.0
0.0 0.0 0.0

3.8867941722368374e6 2.052911873362526e6 0.0
2.052911873362526e6 -3.0461817480579857e7 0.0
0.0 0.0 0.0

-7.137927719456911e6 2.3328704348101087e7 0.0
2.3328704348101087e7 2.1965011071911235e6 0.0
0.0 0.0 0.0

-1.2684312100950358e6 1.7635901665200155e7 0.0
1.7635901665200155e7 -1.927859832547447e7 0.0
0.0 0.0 0.0

-7.388003463545255e6 1.5688135360135572e7 0.0
1.5688135360135572e7 3.261308684125866e7 0.0
0.0 0.0 0.0

635550.1760940752 2.2987119107840396e7 0.0
2.2987119107840396e7 -9.133013178473858e6 0.0
0.0 0.0 0.0

1.3866610666006878e6 1.1664042746626256e7 0.0
1.1664042746626256e7 -1.7344278615877632e7 0.0
0.0 0.0 0.0

-3.2055968865318503e6 1.619619902818106e7 0.0
1.619619902818106e7 4.262005306550896e7 0.0
0.0 0.0 0.0

-2.171227058826952e6 1.823787328909996e7 0.0
1.823787328909996e7 -1.3174058488756376e6 0.0
0.0 0.0 0.0

-2.2873245903024543e6 1.8284538233494855e7 0.0
1.8284538233494855e7 3.0874028116072886e7 0.0
0.0 0.0 0.0

-934151.2074101549 1.7953757815718804e7 0.0
1.7953757815718804e7 -1.7911452065706287e7 0.0
0.0 0.0 0.0

7.157285883865054e7 9.370082749964464e6 0.0
9.370082749964464e6 1.5991856771734022e6 0.0
0.0 0.0 0.0

-44054.252676924225 2.373432904861142e7 0.0
2.373432904861142e7 -6.401179335624134e6 0.0
0.0 0.0 0.0

2.240167009154096e6 2.990932755071522e7 0.0
2.990932755071522e7 -2.458728076396483e6 0.0
0.0 0.0 0.0

1.150140028539259e6 1.2705270603262695e7 0.0
1.2705270603262695e7 -1.691255428615707e7 0.0
0.0 0.0 0.0

2.100654452733407e6 1.1683356582146334e7 0.0
1.1683356582146334e7 -1.7387510209475808e7 0.0
0.0 0.0 0.0

-1.7168779299162196e6 1.7515463719667897e7 0.0
1.7515463719667897e7 -7.819029189652476e6 0.0
0.0 0.0 0.0

-1.146150304841113e7 1.1250876183278482e7 0.0
1.1250876183278482e7 2.511994178795437e7 0.0
0.0 0.0 0.0

-2.325823488192767e6 1.6440423301852265e7 0.0
1.6440423301852265e7 -2.632032822226602e7 0.0
0.0 0.0 0.0

3.1288808665336585e6 2.942411133680821e6 0.0
2.942411133680821e6 -1.0025703924731432e7 0.0
0.0 0.0 0.0

726718.9658439066 1.5150746374790797e7 0.0
1.5150746374790797e7 -1.6919853921261072e7 0.0
0.0 0.0 0.0

-2.6356138173641592e7 3.2962849946678706e7 0.0
3.2962849946678706e7 7.285594728152478e6 0.0
0.0 0.0 0.0

-3.459450733130372e6 1.1979323162408793e7 0.0
1.1979323162408793e7 -494252.8126912643 0.0
0.0 0.0 0.0

-1.0941212182404809e6 1.6289195048591053e7 0.0
1.6289195048591053e7 5.066637204067129e7 0.0
0.0 0.0 0.0

-3.4882668160274783e6 2.095194887722308e7 0.0
2.095194887722308e7 1.4141007343258634e7 0.0
0.0 0.0 0.0

6.606825692660979e6 2.114497826058857e7 0.0
2.114497826058857e7 3.496278771145045e6 0.0
0.0 0.0 0.0

-5.508946937665388e6 2.61720291994071e7 0.0
2.61720291994071e7 7.72747209823437e6 0.0
0.0 0.0 0.0

-44661.96267441381 2.4367607761131518e7 0.0
2.4367607761131518e7 -5.331498357237278e6 0.0
0.0 0.0 0.0

-3.859274706678812e6 2.5725294424128987e7 0.0
2.5725294424128987e7 6.242210155856758e6 0.0
0.0 0.0 0.0

-1.13902167765942e7 1.1639061191012446e7 0.0
1.1639061191012446e7 2.342278082514455e7 0.0
0.0 0.0 0.0

-8.144895322227371e6 1.560262967491208e7 0.0
1.560262967491208e7 1.9787405426883753e7 0.0
0.0 0.0 0.0

-1.032679900841198e7 5.984650669450221e6 0.0
5.984650669450221e6 1.2383336229887651e7 0.0
0.0 0.0 0.0

1.7142781643549073e7 1.2161678041128768e7 0.0
1.2161678041128768e7 992702.3979434464 0.0
0.0 0.0 0.0

-582736.959859414 1.8285906777773224e7 0.0
1.8285906777773224e7 -1.666364825716713e7 0.0
0.0 0.0 0.0

-459182.48234484554 2.426849027621896e7 0.0
2.426849027621896e7 -4.670903303412203e6 0.0
0.0 0.0 0.0

-2.992439349278342e6 2.5524427466367114e7 0.0
2.5524427466367114e7 2.965649039606463e6 0.0
0.0 0.0 0.0

-9.347409680321451e6 -3.3019985891131335e6 0.0
-3.3019985891131335e6 2.1913233173259154e7 0.0
0.0 0.0 0.0

-3.4994544038350675e6 2.703590020252314e7 0.0
2.703590020252314e7 3.9821186545308717e6 0.0
0.0 0.0 0.0

-3.0002065366000915e6 1.744569545449849e7 0.0
1.744569545449849e7 3.7233942507142164e6 0.0
0.0 0.0 0.0

-4.389874825784803e6 2.7643763917756513e7 0.0
2.7643763917756513e7 4.946306069776078e6 0.0
0.0 0.0 0.0

6.364228483776587e6 1.9995260497773208e7 0.0
1.9995260497773208e7 1.724229119903587e6 0.0
0.0 0.0 0.0

1.4043333777062006e6 2.7964647472242933e7 0.0
2.7964647472242933e7 -3.3372724120681267e6 0.0
0.0 0.0 0.0

3.320001137629878e6 4.939011237030882e6 0.0
4.939011237030882e6 -2.4803412945910774e7 0.0
0.0 0.0 0.0

-1.1144616373445742e7 1.0220539288779119e7 0.0
1.0220539288779119e7 2.8882124642008085e7 0.0
0.0 0.0 0.0

369701.2312667961 1.997873325435756e7 0.0
1.997873325435756e7 -9.993648527929572e6 0.0
0.0 0.0 0.0

-251212.58112022653 1.8707781521902133e7 0.0
1.8707781521902133e7 -1.5396677005579311e7 0.0
0.0 0.0 0.0

-2.1276640743116857e6 1.7219129982872296e7 0.0
1.7219129982872296e7 -1.5151531612335532e6 0.0
0.0 0.0 0.0

-4.419869578448424e6 2.1757648868548155e7 0.0
2.1757648868548155e7 5.9916746070523e6 0.0
0.0 0.0 0.0

1.615525898319934e6 2.379954773334195e7 0.0
2.379954773334195e7 -8.078930770973086e6 0.0
0.0 0.0 0.0

-218344.46882582735 1.8534395931840785e7 0.0
1.8534395931840785e7 -8.755758178168224e6 0.0
0.0 0.0 0.0

-1.0909961647744462e7 1.3720320031665616e7 0.0
1.3720320031665616e7 1.9313944803308077e7 0.0
0.0 0.0 0.0

2.777658869121841e6 9.694984414624332e6 0.0
9.694984414624332e6 -2.060159714516838e7 0.0
0.0 0.0 0.0

-1.1236245955120702e6 1.8709807699484684e7 0.0
1.8709807699484684e7 -1.5997030035738265e7 0.0
0.0 0.0 0.0

2.199926209450036e6 2.0902215485649258e7 0.0
2.0902215485649258e7 1.2760395649823416e7 0.0
0.0 0.0 0.0

-2.099030651409846e6 1.998296728911631e7 0.0
1.998296728911631e7 -5.832798755162245e6 0.0
0.0 0.0 0.0

2.879408076427767e6 7.429362324916099e6 0.0
7.429362324916099e6 -3.4194316726049736e7 0.0
0.0 0.0 0.0

2.815991237008447e6 5.494496134587058e6 0.0
5.494496134587058e6 -4.5241690790091276e7 0.0
0.0 0.0 0.0

-5.043911969229415e6 1.6688979921746189e7 0.0
1.6688979921746189e7 8.606395647806128e6 0.0
0.0 0.0 0.0

-2.7967987738404246e6 2.592166857375885e7 0.0
2.592166857375885e7 2.133601820170642e6 0.0
0.0 0.0 0.0

-1.0777314693372522e7 3.1259593808662724e6 0.0
3.1259593808662724e6 2.6251883116430596e7 0.0
0.0 0.0 0.0

-7.273835701323873e6 1.5522153301893532e7 0.0
1.5522153301893532e7 1.352423991906778e7 0.0
0.0 0.0 0.0

-3.959484509702461e6 2.009546555611745e7 0.0
2.009546555611745e7 8.80993902228418e6 0.0
0.0 0.0 0.0

2.6409383886699406e6 9.90493097000903e6 0.0
9.90493097000903e6 -1.8803161367008608e7 0.0
0.0 0.0 0.0

3.781866700357236e6 1.9281601323391453e6 0.0
1.9281601323391453e6 -3.144664048310733e7 0.0
0.0 0.0 0.0

-3.6497813745909706e6 1.8876280388816267e7 0.0
1.8876280388816267e7 1.135152263195988e7 0.0
0.0 0.0 0.0

1.9532565677006915e6 1.7735805047622606e7 0.0
1.7735805047622606e7 6.269844122772005e7 0.0
0.0 0.0 0.0

-2.902369797341938e6 2.106689663429446e7 0.0
2.106689663429446e7 7.855921804259777e6 0.0
0.0 0.0 0.0

-235748.86706279824 2.490795625055673e7 0.0
2.490795625055673e7 -4.4987813772329455e6 0.0
0.0 0.0 0.0

1.1585360617911266e6 1.3463534089717314e7 0.0
1.3463534089717314e7 -1.7957830045218144e7 0.0
0.0 0.0 0.0

-802599.1913120053 2.6955834406766284e7 0.0
2.6955834406766284e7 -1.062786414932984e6 0.0
0.0 0.0 0.0

-2.393005664617968e6 2.5217597066010334e7 0.0
2.5217597066010334e7 3.470360538266537e6 0.0
0.0 0.0 0.0

7.042854579612419e6 1.777264534895353e7 0.0
1.777264534895353e7 3.590273682685493e7 0.0
0.0 0.0 0.0

3.158734308657622e6 2.9543937811930072e6 0.0
2.9543937811930072e6 -1.0593035270668007e7 0.0
0.0 0.0 0.0

3.159147274204065e6 2.1740055749880098e7 0.0
2.1740055749880098e7 -7.532291180092767e6 0.0
0.0 0.0 0.0

3.560997851159092e6 3.9767313602302093e6 0.0
3.9767313602302093e6 -1.797647501747474e7 0.0
0.0 0.0 0.0

-1.0136997416139685e7 1.219681149611854e7 0.0
1.219681149611854e7 1.986046511892521e7 0.0
0.0 0.0 0.0

-3.1839185387471616e6 2.3919823838228054e7 0.0
2.3919823838228054e7 4.919160548776284e6 0.0
0.0 0.0 0.0

-1.3308941289022644e6 2.053098080908183e7 0.0
2.053098080908183e7 -4.975422259924649e6 0.0
0.0 0.0 0.0

2.239559814236897e6 1.0736335565557951e7 0.0
1.0736335565557951e7 -1.5906462537433164e7 0.0
0.0 0.0 0.0

-100084.61151634995 1.8900131763511106e7 0.0
1.8900131763511106e7 -1.01926889135004e7 0.0
0.0 0.0 0.0

-397953.5482399812 2.5490521181139186e7 0.0
2.5490521181139186e7 -3.638134679597798e6 0.0
0.0 0.0 0.0

-1.0722089095968692e7 4.974899890595605e6 0.0
4.974899890595605e6 3.0211306761379823e7 0.0
0.0 0.0 0.0

-7.083504689303419e6 1.7156236094912592e7 0.0
1.7156236094912592e7 1.9844373614258215e7 0.0
0.0 0.0 0.0

-1.142800612833963e7 8.982785829780314e6 0.0
8.982785829780314e6 2.10669333839675e7 0.0
0.0 0.0 0.0

-3.9328019023395833e6 1.6905946820389204e7 0.0
1.6905946820389204e7 2.876036230412162e6 0.0
0.0 0.0 0.0

-3.102514111308152e6 2.5286611307966884e7 0.0
2.5286611307966884e7 6.934305912374914e6 0.0
0.0 0.0 0.0

-2.7313534236442195e6 1.9963888479806732e7 0.0
1.9963888479806732e7 -2.7601421854303475e6 0.0
0.0 0.0 0.0

-2.1238410719903936e6 2.6813043458936766e7 0.0
2.6813043458936766e7 -167241.83111815288 0.0
0.0 0.0 0.0

-7.70481678712164e6 9.307691816644635e6 0.0
9.307691816644635e6 9.211862502561057e6 0.0
0.0 0.0 0.0

-8.0464411795402095e6 1.5021898725420149e7 0.0
1.5021898725420149e7 1.893330548128373e7 0.0
0.0 0.0 0.0

-2.603440776073272e6 2.6272732401605703e7 0.0
2.6272732401605703e7 1.3736270303721428e6 0.0
0.0 0.0 0.0

1.4988468073291369e6 2.271741899129921e7 0.0
2.271741899129921e7 -9.196920225956643e6 0.0
0.0 0.0 0.0

1.2827290466965461e7 2.2795782696656186e7 0.0
2.2795782696656186e7 1.162055043704148e7 0.0
0.0 0.0 0.0

-3.246100705163635e6 1.689594950488445e7 0.0
1.689594950488445e7 5.168533683881057e6 0.0
0.0 0.0 0.0

5.290622445109984e6 2.5510676433900967e7 0.0
2.5510676433900967e7 -5.955767758034547e6 0.0
0.0 0.0 0.0

-3.4326742419755e6 1.7848878811566714e7 0.0
1.7848878811566714e7 7.705970285963014e6 0.0
0.0 0.0 0.0

-7.084749637452028e6 1.6678973386242673e7 0.0
1.6678973386242673e7 1.9064278034863986e7 0.0
0.0 0.0 0.0

-5.808975589435859e6 1.032599183068542e7 0.0
1.032599183068542e7 1.0765783691110134e7 0.0
0.0 0.0 0.0

-2.3898528703707056e6 2.6559903859317504e7 0.0
2.6559903859317504e7 546219.0260398188 0.0
0.0 0.0 0.0

3.592888281484604e6 6.252496622325522e6 0.0
6.252496622325522e6 -2.430209061801131e7 0.0
0.0 0.0 0.0

3.1800918510017525e6 8.268738618835275e6 0.0
8.268738618835275e6 -2.2803809648911886e7 0.0
0.0 0.0 0.0

-4.1279029060053253e6 2.5209651669661872e7 0.0
2.5209651669661872e7 8.781108840833189e6 0.0
0.0 0.0 0.0

-137115.39872198272 1.2244895886769747e7 0.0
1.2244895886769747e7 -6.89171603500207e6 0.0
0.0 0.0 0.0

2.1827234132576045e6 1.1227577859643154e7 0.0
1.1227577859643154e7 -1.6638012432848252e7 0.0
0.0 0.0 0.0

-942014.4614540539 2.899807411534837e7 0.0
2.899807411534837e7 -1.0860931736714859e6 0.0
0.0 0.0 0.0

-605380.4063122486 2.650056783390898e7 0.0
2.650056783390898e7 -1.8925429857286476e6 0.0
0.0 0.0 0.0

-1.5106616706017526e6 2.1290404147128753e7 0.0
2.1290404147128753e7 -7.087103676957206e6 0.0
0.0 0.0 0.0

-1.63465263839903e6 1.7268337216572177e7 0.0
1.7268337216572177e7 -2.3826821847999536e7 0.0
0.0 0.0 0.0

-3.0120099202029034e6 2.921394871975382e7 0.0
2.921394871975382e7 1.7422485072340602e6 0.0
0.0 0.0 0.0

-7.00326557791272e6 1.7609090581185073e7 0.0
1.7609090581185073e7 2.037186539167818e7 0.0
0.0 0.0 0.0

2.2114287412471734e6 7.161380702498292e6 0.0
7.161380702498292e6 -1.4873092133787848e7 0.0
0.0 0.0 0.0

962237.3471274851 3.1418713995770562e7 0.0
3.1418713995770562e7 -1.2152565463804454e6 0.0
0.0 0.0 0.0

-3.2987640085784113e6 2.1505131600989107e7 0.0
2.1505131600989107e7 1.2019958140865136e7 0.0
0.0 0.0 0.0

-483992.6036597541 2.601050930768142e7 0.0
2.601050930768142e7 -2.6920643582198513e6 0.0
0.0 0.0 0.0

90991.31093003973 1.913548950662462e7 0.0
1.913548950662462e7 -1.4234312947393354e7 0.0
0.0 0.0 0.0

-1.396386326557241e6 2.716942979655328e7 0.0
2.716942979655328e7 402290.79050990666 0.0
0.0 0.0 0.0

-3.6963220334046455e6 2.17309278459982e7 0.0
2.17309278459982e7 1.441180145457066e7 0.0
0.0 0.0 0.0

-1.4142592856130558e6 2.7213306281741977e7 0.0
2.7213306281741977e7 -1.4759949557386865e6 0.0
0.0 0.0 0.0

6.39692895094778e6 3.358011298695386e7 0.0
3.358011298695386e7 -2.9412487337351874e6 0.0
0.0 0.0 0.0

-1.0030905147507759e7 1.5414367756797155e7 0.0
1.5414367756797155e7 2.487787801290119e7 0.0
0.0 0.0 0.0

1.8751922637959505e6 1.2316169325029086e7 0.0
1.2316169325029086e7 -1.630252768359071e7 0.0
0.0 0.0 0.0

-1.1263876028237497e7 1.2089489431851467e7 0.0
1.2089489431851467e7 2.5810576831636023e7 0.0
0.0 0.0 0.0

-9.860233075006932e6 1.3925115258887205e7 0.0
1.3925115258887205e7 1.7068073427765932e7 0.0
0.0 0.0 0.0

-554763.7959914072 -1.2504704517769096e6 0.0
-1.2504704517769096e6 1.2324022065423715e6 0.0
0.0 0.0 0.0

-713947.0605908982 -2.3625755119591462e6 0.0
-2.3625755119591462e6 2.45053136528661e6 0.0
0.0 0.0 0.0

-9.645135965278858e6 1.601475422317279e7 0.0
1.601475422317279e7 2.5354153914760824e7 0.0
0.0 0.0 0.0

1.1368588963046473e7 2.1934508958514486e7 0.0
2.1934508958514486e7 1.0108216558463667e7 0.0
0.0 0.0 0.0

476044.1024783163 2.7445746358263128e7 0.0
2.7445746358263128e7 -2.8121372086389745e6 0.0
0.0 0.0 0.0

-813998.3392479108 2.186552869067796e7 0.0
2.186552869067796e7 -6.375635839780657e6 0.0
0.0 0.0 0.0

1.8117464607005334e6 1.2732306884570848e7 0.0
1.2732306884570848e7 -1.706643277803238e7 0.0
0.0 0.0 0.0

6.464835234396647e6 1.7701301610534664e7 0.0
1.7701301610534664e7 3.169814697009e7 0.0
0.0 0.0 0.0

-2.7745659494907134e6 2.9725297548982725e7 0.0
2.9725297548982725e7 2.8327019775601793e6 0.0
0.0 0.0 0.0

-865378.6786318428 2.9548996590031352e7 0.0
2.9548996590031352e7 -1.0534863061590253e6 0.0
0.0 0.0 0.0

-500151.51243751176 3.01269451645102e7 0.0
3.01269451645102e7 -1.0533254051881633e6 0.0
0.0 0.0 0.0

-5.05395747509542e6 1.914119497278741e7 0.0
1.914119497278741e7 1.2958494347150339e7 0.0
0.0 0.0 0.0

-5.205870590626584e6 1.7064029695067313e7 0.0
1.7064029695067313e7 9.934970682694346e6 0.0
0.0 0.0 0.0

-7.7673258753544735e6 1.1869998359199353e7 0.0
1.1869998359199353e7 1.0781615977789324e7 0.0
0.0 0.0 0.0

-3.0638865138256038e6 2.2685680855176043e7 0.0
2.2685680855176043e7 9.598976234178174e6 0.0
0.0 0.0 0.0

-4.319934214819133e6 1.6377772918377915e7 0.0
1.6377772918377915e7 1.1127855039483186e7 0.0
0.0 0.0 0.0

-9.935780077094974e6 1.5030049172544653e7 0.0
1.5030049172544653e7 2.7629990036533535e7 0.0
0.0 0.0 0.0

1.7995710017855912e6 1.323340606513042e7 0.0
1.323340606513042e7 -1.762755104083402e7 0.0
0.0 0.0 0.0

-4.127708190732833e6 2.072578991670738e7 0.0
2.072578991670738e7 1.0794289908609865e7 0.0
0.0 0.0 0.0

-1.0424969217842633e7 1.3389114899589978e7 0.0
1.3389114899589978e7 2.8742274093297273e7 0.0
0.0 0.0 0.0

3.6539235541489124e6 1.96993917796639e7 0.0
1.96993917796639e7 1.4306767289538827e7 0.0
0.0 0.0 0.0

-4.0970493016261444e6 1.797787715530587e7 0.0
1.797787715530587e7 5.478393038772985e6 0.0
0.0 0.0 0.0

-1.3189735467218612e6 2.7773360291715164e7 0.0
2.7773360291715164e7 508469.3966882394 0.0
0.0 0.0 0.0

-1.4573912267578207e6 2.6525049447453342e7 0.0
2.6525049447453342e7 293438.66699570563 0.0
0.0 0.0 0.0

-3.582306350768363e6 2.2378619909607068e7 0.0
2.2378619909607068e7 1.2983572782640414e7 0.0
0.0 0.0 0.0

-1.5415025019496195e6 1.8069275041464295e7 0.0
1.8069275041464295e7 -1.9991839351154935e7 0.0
0.0 0.0 0.0

-3.347194889863585e6 2.2893916185473565e7 0.0
2.2893916185473565e7 7.1326466132482365e6 0.0
0.0 0.0 0.0

-6.115132045112185e6 1.809393972158581e7 0.0
1.809393972158581e7 1.892939646611923e7 0.0
0.0 0.0 0.0

-949541.144060235 2.1031805795744114e7 0.0
2.1031805795744114e7 -6.679894191997338e6 0.0
0.0 0.0 0.0

2.944333883253089e6 3.0549157719443448e7 0.0
3.0549157719443448e7 -2.4602520024671447e6 0.0
0.0 0.0 0.0

-3.624151235337536e6 2.3113882579156213e7 0.0
2.3113882579156213e7 1.1626273507671297e7 0.0
0.0 0.0 0.0

-1.2223841949046506e6 2.0686671658314697e7 0.0
2.0686671658314697e7 -8.187313553268483e6 0.0
0.0 0.0 0.0

2.9335959092754666e6 8.846265065083317e6 0.0
8.846265065083317e6 -2.3528085334469438e7 0.0
0.0 0.0 0.0

-3.7638322710741507e6 1.916459578750313e7 0.0
1.916459578750313e7 1.2439014212107226e7 0.0
0.0 0.0 0.0

3.2788969348356505e6 2.5266730395470817e7 0.0
2.5266730395470817e7 -6.54264251012816e6 0.0
0.0 0.0 0.0

2.6535315755365766e6 3.035114909330238e6 0.0
3.035114909330238e6 -7.695629204986976e6 0.0
0.0 0.0 0.0

2.137658272303799e6 8.937502423664432e6 0.0
8.937502423664432e6 -3.0840791079659343e7 0.0
0.0 0.0 0.0

-254522.26769707957 1.9480937571017753e7 0.0
1.9480937571017753e7 -9.969984879401315e6 0.0
0.0 0.0 0.0

1.1597717060840607e7 2.280113929305555e7 0.0
2.280113929305555e7 1.173301231034085e7 0.0
0.0 0.0 0.0

2.277790017791114e6 9.280624813049989e6 0.0
9.280624813049989e6 -2.422115705246791e7 0.0
0.0 0.0 0.0

2.0619290360309435e6 1.0440743770543467e7 0.0
1.0440743770543467e7 -2.3564966467640687e7 0.0
0.0 0.0 0.0

1.3818393150582407e6 1.9367935254997145e7 0.0
1.9367935254997145e7 5.401877330232964e6 0.0
0.0 0.0 0.0

-1.111105163657597e7 6.635593018234439e6 0.0
6.635593018234439e6 2.8631288995746523e7 0.0
0.0 0.0 0.0

-9.134631890061151e6 1.2258857252540356e7 0.0
1.2258857252540356e7 1.3771929716426946e7 0.0
0.0 0.0 0.0

-9.03065491129672e6 1.801700978861442e7 0.0
1.801700978861442e7 -4.401297776437032e7 0.0
0.0 0.0 0.0

-6.290371197778405e6 1.6721687848950064e7 0.0
1.6721687848950064e7 1.2979191517157651e7 0.0
0.0 0.0 0.0

-1.2089971283210311e7 1.1716224192739183e7 0.0
1.1716224192739183e7 2.0993418984618217e7 0.0
0.0 0.0 0.0

2.5508516002716916e6 2.1461706814866673e7 0.0
2.1461706814866673e7 1.0368722014362028e7 0.0
0.0 0.0 0.0

-8.725303911430044e6 -4.216917205070036e6 0.0
-4.216917205070036e6 2.9700541996382553e7 0.0
0.0 0.0 0.0

-4.370422481753824e6 1.948332574562681e7 0.0
1.948332574562681e7 1.0304137064212138e7 0.0
0.0 0.0 0.0

-3.422744097347151e6 2.534982087596012e7 0.0
2.534982087596012e7 7.617543077510083e6 0.0
0.0 0.0 0.0

130484.30790346861 1.7682328078443985e7 0.0
1.7682328078443985e7 -1.5143570407634687e7 0.0
0.0 0.0 0.0

-7.132246872498492e6 -2.433515395196342e6 0.0
-2.433515395196342e6 1.0463165215883594e7 0.0
0.0 0.0 0.0

-7.315413996295381e6 1.125244665765643e7 0.0
1.125244665765643e7 9.197633862694947e6 0.0
0.0 0.0 0.0

558754.2799627148 7.627982425093534e6 0.0
7.627982425093534e6 -5.1447753960538775e7 0.0
0.0 0.0 0.0

5.058282396725225e6 3.0781953384664774e7 0.0
3.0781953384664774e7 -3.2325841825999403e6 0.0
0.0 0.0 0.0

-8.782347946275633e6 1.2362358438738896e7 0.0
1.2362358438738896e7 3.651665465268379e7 0.0
0.0 0.0 0.0

-4.989297678615247e6 1.8595599430816136e7 0.0
1.8595599430816136e7 -1.4957751455836667e7 0.0
0.0 0.0 0.0

-1.2213387897286063e7 1.129747569455545e7 0.0
1.129747569455545e7 2.2541382049229696e7 0.0
0.0 0.0 0.0

-1.215997680196639e7 2.505536479958803e7 0.0
2.505536479958803e7 -8.110715914265331e6 0.0
0.0 0.0 0.0

-1.190819761694624e6 1.946540523282969e7 0.0
1.946540523282969e7 -4.882182172624048e6 0.0
0.0 0.0 0.0

2.7630484725841326e6 1.8059966211402845e7 0.0
1.8059966211402845e7 1.6389992597909724e7 0.0
0.0 0.0 0.0

2.2343726544582006e6 8.221527260349193e6 0.0
8.221527260349193e6 -3.233506283782678e7 0.0
0.0 0.0 0.0

-4.757518241056161e6 1.7200588968713444e7 0.0
1.7200588968713444e7 -1.399615330816119e7 0.0
0.0 0.0 0.0

6.216621590371668e6 3.521980012033543e7 0.0
3.521980012033543e7 -4.526936274589426e6 0.0
0.0 0.0 0.0

-3.879259588494257e6 1.9447848403856408e7 0.0
1.9447848403856408e7 1.3449122652929753e7 0.0
0.0 0.0 0.0

-8.725297105718315e6 -3.4432279891550746e6 0.0
-3.4432279891550746e6 3.2929466899861984e7 0.0
0.0 0.0 0.0

-1.6902136824336816e6 1.9520402457842328e7 0.0
1.9520402457842328e7 1.6142898172493452e7 0.0
0.0 0.0 0.0

-1.0059540511293912e7 2.407930105980399e7 0.0
2.407930105980399e7 -9.851973078363527e6 0.0
0.0 0.0 0.0

-5.967781607765451e6 1.005088225415271e7 0.0
1.005088225415271e7 5.805413255345352e6 0.0
0.0 0.0 0.0

2.500204028015066e6 1.854866555285579e7 0.0
1.854866555285579e7 3.459625968834515e7 0.0
0.0 0.0 0.0

-8.752288937870525e6 1.6320703559587682e7 0.0
1.6320703559587682e7 1.8489447146794282e7 0.0
0.0 0.0 0.0

-9.901168652489197e6 1.4504760614303764e7 0.0
1.4504760614303764e7 1.8109339537267495e7 0.0
0.0 0.0 0.0

-9.518926836112766e6 1.0526294520370182e7 0.0
1.0526294520370182e7 3.6284938716446966e7 0.0
0.0 0.0 0.0

-1.7377533410801357e6 1.94030362416412e7 0.0
1.94030362416412e7 1.9984657989304665e7 0.0
0.0 0.0 0.0

-8.443306745612333e6 2.9505227454431172e7 0.0
2.9505227454431172e7 5.272682810432331e6 0.0
0.0 0.0 0.0

-339825.9628743975 3.2134709868342962e7 0.0
3.2134709868342962e7 -1.1046709697795438e6 0.0
0.0 0.0 0.0

-3.8320075180099593e6 2.1565222293349825e7 0.0
2.1565222293349825e7 1.0322814106190003e7 0.0
0.0 0.0 0.0

2.3273529763091244e6 2.893040797272551e6 0.0
2.893040797272551e6 -6.542977513711941e6 0.0
0.0 0.0 0.0

2.271717959456362e6 1.1509002299273577e7 0.0
1.1509002299273577e7 -1.9147950677881863e7 0.0
0.0 0.0 0.0

1.9293421611345606e6 1.139836890235238e7 0.0
1.139836890235238e7 -1.4855396245016038e7 0.0
0.0 0.0 0.0

-5.350198441038437e6 1.7442455587296646e7 0.0
1.7442455587296646e7 1.121469945130013e7 0.0
0.0 0.0 0.0

-1.4802520846941252e6 4.288274783202223e7 0.0
4.288274783202223e7 -3.234761737261656e6 0.0
0.0 0.0 0.0

-9.355950434835652e6 7.896472060426564e6 0.0
7.896472060426564e6 1.0850511042378874e7 0.0
0.0 0.0 0.0

1.9118376234242895e6 2.8523038746074975e7 0.0
2.8523038746074975e7 -3.279326870766375e6 0.0
0.0 0.0 0.0

3.660833250595304e6 2.615459193759148e7 0.0
2.615459193759148e7 -5.926922127891507e6 0.0
0.0 0.0 0.0

-4.33292147120597e6 1.093816814659854e7 0.0
1.093816814659854e7 7.161737183235063e6 0.0
0.0 0.0 0.0

-277804.6393291319 1.787009777107841e7 0.0
1.787009777107841e7 1.2002758140718995e6 0.0
0.0 0.0 0.0

1.818961293286039e7 2.176852919829146e7 0.0
2.176852919829146e7 9.711232352484575e6 0.0
0.0 0.0 0.0

7.091738140851543e6 1.9345229130494963e7 0.0
1.9345229130494963e7 3.314930942572293e7 0.0
0.0 0.0 0.0

1.3692067534875101e6 1.8528063328848068e7 0.0
1.8528063328848068e7 1.3924568044560336e7 0.0
0.0 0.0 0.0

-8.753644103094745e6 1.577979529932528e7 0.0
1.577979529932528e7 1.7604759199332662e7 0.0
0.0 0.0 0.0

-721496.8440574897 4.0080062247951746e7 0.0
4.0080062247951746e7 -2.4722292302143527e6 0.0
0.0 0.0 0.0

-1.773282532186159e7 2.634642382539159e7 0.0
2.634642382539159e7 -7.548695026918884e6 0.0
0.0 0.0 0.0

-9.839344894818809e6 1.5110725286239656e7 0.0
1.5110725286239656e7 1.9001669408428553e7 0.0
0.0 0.0 0.0

447066.789272001 1.255482057045469e7 0.0
1.255482057045469e7 -3.2936650109014735e7 0.0
0.0 0.0 0.0

3.5149538507782407e6 1.7776150273909431e6 0.0
1.7776150273909431e6 -3.685461240231549e7 0.0
0.0 0.0 0.0

940597.1728592189 1.686617478742635e7 0.0
1.686617478742635e7 -1.5943789187527005e7 0.0
0.0 0.0 0.0

2.028969942480782e6 1.2138615051382499e7 0.0
1.2138615051382499e7 -1.8104320402694773e7 0.0
0.0 0.0 0.0

659359.4691586522 1.830589493550215e7 0.0
1.830589493550215e7 -1.4066353992940467e7 0.0
0.0 0.0 0.0

-2.39538983943146e6 4.641026803189923e7 0.0
4.641026803189923e7 -5.21611096794784e6 0.0
0.0 0.0 0.0

-2.5283892975100656e6 2.339823470468163e7 0.0
2.339823470468163e7 4.337267435674525e6 0.0
0.0 0.0 0.0

305737.4340929184 2.1342684868623465e7 0.0
2.1342684868623465e7 -1.1389618189209724e7 0.0
0.0 0.0 0.0

-100727.52173258178 2.0611479197769713e7 0.0
2.0611479197769713e7 -1.1871016529995423e7 0.0
0.0 0.0 0.0

2.4041837889479334e6 1.0567760668535693e7 0.0
1.0567760668535693e7 -1.7723235302502636e7 0.0
0.0 0.0 0.0

-3.920789593380187e6 2.259780330423563e7 0.0
2.259780330423563e7 1.0641238072032023e7 0.0
0.0 0.0 0.0

-106787.41824055184 1.9936016119340684e7 0.0
1.9936016119340684e7 1.7604595098443158e7 0.0
0.0 0.0 0.0

-6.3832348747224705e6 2.3612674387273632e7 0.0
2.3612674387273632e7 7.836013638814315e6 0.0
0.0 0.0 0.0

-3.980054500314411e6 8.1263740673730895e6 0.0
8.1263740673730895e6 6.86331375104074e7 0.0
0.0 0.0 0.0

-8.812297907328863e6 -2.2501257855853215e6 0.0
-2.2501257855853215e6 2.054408683230153e7 0.0
0.0 0.0 0.0

-1.2200248534653187e7 6.918703652704494e7 0.0
6.918703652704494e7 -1.692742478309739e7 0.0
0.0 0.0 0.0

3.6375371557569816e6 1.825659785516296e7 0.0
1.825659785516296e7 2.0793882432230294e7 0.0
0.0 0.0 0.0

-314923.0275390957 3.820551112595088e7 0.0
3.820551112595088e7 -1.7472323622496051e6 0.0
0.0 0.0 0.0

144451.841296806 1.7992491887330607e7 0.0
1.7992491887330607e7 -1.1368538596537353e7 0.0
0.0 0.0 0.0

1.0043114369491972e6 2.0736460331412442e7 0.0
2.0736460331412442e7 -1.1002874654069392e7 0.0
0.0 0.0 0.0

-2.8047823875312284e6 2.4430225014288682e7 0.0
2.4430225014288682e7 6.2958467548678825e6 0.0
0.0 0.0 0.0

4.1015660031135995e6 2.3482624937647455e6 0.0
2.3482624937647455e6 -2.0830080076860048e7 0.0
0.0 0.0 0.0

8.158036689139264e6 2.0103119853883777e7 0.0
2.0103119853883777e7 2.49349625584498e6 0.0
0.0 0.0 0.0

2.181466463133539e6 1.2048966518749462e7 0.0
1.2048966518749462e7 -1.9807315537739333e7 0.0
0.0 0.0 0.0

3.9224147658276027e6 2.385209300395245e7 0.0
2.385209300395245e7 -6.7472851928144125e6 0.0
0.0 0.0 0.0

2.9330815942779593e6 7.655445065377322e6 0.0
7.655445065377322e6 -3.1471923920379385e7 0.0
0.0 0.0 0.0

-3.117762243532851e6 2.047858873417925e7 0.0
2.047858873417925e7 9.407739801405549e6 0.0
0.0 0.0 0.0

2.8217867098667296e6 7.283600211847793e6 0.0
7.283600211847793e6 -1.2867054692208968e7 0.0
0.0 0.0 0.0

-1.9949627285087132e6 1.1354068775691349e7 0.0
1.1354068775691349e7 504834.2095365141 0.0
0.0 0.0 0.0

-1.6592267061451767e7 2.348948430919124e7 0.0
2.348948430919124e7 -5.527592914651934e6 0.0
0.0 0.0 0.0

2.7039820069963047e6 1.0052357061856888e7 0.0
1.0052357061856888e7 -2.29358518155422e7 0.0
0.0 0.0 0.0

-2.755537830336456e6 1.703385329367413e7 0.0
1.703385329367413e7 -3.573822197016819e6 0.0
0.0 0.0 0.0

-309670.49225357175 2.190837890134016e7 0.0
2.190837890134016e7 -9.725716328231031e6 0.0
0.0 0.0 0.0

-1.6436602055184897e6 1.8941534166187927e7 0.0
1.8941534166187927e7 2.491268399669578e7 0.0
0.0 0.0 0.0

328046.95288785954 1.959041180293809e7 0.0
1.959041180293809e7 -1.9253581486996503e6 0.0
0.0 0.0 0.0

-6.08381584752849e6 1.6328993168161241e7 0.0
1.6328993168161241e7 1.1708097755008323e7 0.0
0.0 0.0 0.0

-1.122053641098728e7 7.959153854511086e6 0.0
7.959153854511086e6 3.144444872183321e7 0.0
0.0 0.0 0.0

-1.0907031179907583e6 1.9282780755266402e7 0.0
1.9282780755266402e7 2.5393760481850572e7 0.0
0.0 0.0 0.0

-7.633572319700105e6 1.7379114268856723e7 0.0
1.7379114268856723e7 1.7837900377764467e7 0.0
0.0 0.0 0.0

-1.1124591428557308e7 3.303135681617023e6 0.0
3.303135681617023e6 2.8198183926857866e7 0.0
0.0 0.0 0.0

-4.503137420936692e6 1.8814310647757526e7 0.0
1.8814310647757526e7 1.5066608610724166e7 0.0
0.0 0.0 0.0

-4.5578832016077945e6 2.1148512261351604e7 0.0
2.1148512261351604e7 1.5893802475674694e7 0.0
0.0 0.0 0.0

-9.300877527446326e6 5.964241020397946e6 0.0
5.964241020397946e6 1.5808856794706825e7 0.0
0.0 0.0 0.0

-192352.32965685613 2.126672746541165e7 0.0
2.126672746541165e7 -1.0808042863311496e7 0.0
0.0 0.0 0.0

-3.071074361020198e6 2.4402952051015504e7 0.0
2.4402952051015504e7 3.9050386987078995e6 0.0
0.0 0.0 0.0

-7.503831648460222e6 1.7861440156635124e7 0.0
1.7861440156635124e7 1.857351992187024e7 0.0
0.0 0.0 0.0

-9.60091508825775e6 3.405272002536007e6 0.0
3.405272002536007e6 4.066793941380052e7 0.0
0.0 0.0 0.0

-2.314828942986654e6 2.068029807947665e7 0.0
2.068029807947665e7 1.2684725059351606e7 0.0
0.0 0.0 0.0

-9.257811043487638e6 1.439583053262409e7 0.0
1.439583053262409e7 2.0348936354999077e7 0.0
0.0 0.0 0.0

956881.9542725775 1.2263867619292587e7 0.0
1.2263867619292587e7 -3.1030861708836418e7 0.0
0.0 0.0 0.0

-2.298318376778161e6 1.828250919870918e7 0.0
1.828250919870918e7 3.0870319361007687e7 0.0
0.0 0.0 0.0

-9.563673552396383e6 1.6077583747361103e7 0.0
1.6077583747361103e7 2.366380239302734e7 0.0
0.0 0.0 0.0

1.9408527459770655e6 1.0902030295645732e7 0.0
1.0902030295645732e7 -1.4105504448754523e7 0.0
0.0 0.0 0.0

3.32736048499291e6 3.5441886340399683e6 0.0
3.5441886340399683e6 -2.9325627906247653e7 0.0
0.0 0.0 0.0

2.188729326486226e6 1.846806825317086e7 0.0
1.846806825317086e7 2.664354261352548e7 0.0
0.0 0.0 0.0

141241.4899114631 1.865968647318378e7 0.0
1.865968647318378e7 2.8834651878957033e7 0.0
0.0 0.0 0.0

-623887.1210334646 1.746652456830296e7 0.0
1.746652456830296e7 -8.138794270634159e6 0.0
0.0 0.0 0.0

-3.668855409982591e6 2.388508339883264e7 0.0
2.388508339883264e7 1.0438564866481196e7 0.0
0.0 0.0 0.0

-131295.92083820014 3.457334177810536e7 0.0
3.457334177810536e7 -1.3344947832217265e6 0.0
0.0 0.0 0.0

426079.53328921925 1.9640366423019387e7 0.0
1.9640366423019387e7 -1.3095767194750518e7 0.0
0.0 0.0 0.0

-9.617321281979997e6 -1.077032278454451e6 0.0
-1.077032278454451e6 2.1656392974574216e7 0.0
0.0 0.0 0.0

498949.2302740887 1.4322118692198137e7 0.0
1.4322118692198137e7 -2.6695675428002406e7 0.0
0.0 0.0 0.0

-3.4977776838953216e6 2.138127641733674e7 0.0
2.138127641733674e7 1.2937377176372658e7 0.0
0.0 0.0 0.0

-1.026481665681779e7 1.4827762349043777e7 0.0
1.4827762349043777e7 2.4309510448013306e7 0.0
0.0 0.0 0.0

3.2986997887344253e6 1.5901196389461506e7 0.0
1.5901196389461506e7 1.1795520900346741e7 0.0
0.0 0.0 0.0

1.352266342841588e6 9.766539287368963e6 0.0
9.766539287368963e6 -3.628445696133459e7 0.0
0.0 0.0 0.0

1.2463903739906512e6 1.2146160645465884e7 0.0
1.2146160645465884e7 -2.908539276201364e7 0.0
0.0 0.0 0.0

7.661580621434909e6 3.678179518620496e7 0.0
3.678179518620496e7 -5.334971497627504e6 0.0
0.0 0.0 0.0

-2.370090737691736e6 2.384531909114657e7 0.0
2.384531909114657e7 3.3359512730221357e6 0.0
0.0 0.0 0.0

-2.716575457852397e6 2.4942827879945707e7 0.0
2.4942827879945707e7 5.32234741177018e6 0.0
0.0 0.0 0.0

-1.8654064598311656e6 2.5148061969629157e7 0.0
2.5148061969629157e7 -2.2293395252278997e6 0.0
0.0 0.0 0.0

3.8905173435801193e6 4.261889764505725e6 0.0
4.261889764505725e6 -1.7351097584913045e7 0.0
0.0 0.0 0.0

-1.8930584088560063e6 1.6651022594924834e7 0.0
1.6651022594924834e7 -7.606270614052264e6 0.0
0.0 0.0 0.0

-3.35893310064275e6 2.1226313060808036e7 0.0
2.1226313060808036e7 1.2182036577857025e7 0.0
0.0 0.0 0.0

752159.6324648447 2.1868242215445824e7 0.0
2.1868242215445824e7 -1.0522721731828673e7 0.0
0.0 0.0 0.0

-133094.53505931157 3.364053835927661e7 0.0
3.364053835927661e7 -1.1749632638750193e6 0.0
0.0 0.0 0.0

-6.759892853177356e6 8.991527641214235e6 0.0
8.991527641214235e6 1.2557525689502459e7 0.0
0.0 0.0 0.0

-1.1967948536749274e7 1.027793693603254e7 0.0
1.027793693603254e7 2.592915783145518e7 0.0
0.0 0.0 0.0

-229418.43003385764 3.2883693837736305e7 0.0
3.2883693837736305e7 -1.0223851539246435e6 0.0
0.0 0.0 0.0

-398803.7090876512 2.2581862022945963e7 0.0
2.2581862022945963e7 -8.705911353992911e6 0.0
0.0 0.0 0.0

1.636554226356295e6 1.1017840747302892e7 0.0
1.1017840747302892e7 -1.8449048750325013e7 0.0
0.0 0.0 0.0

-4.704327335952593e6 1.7130303688442264e7 0.0
1.7130303688442264e7 1.3641883653410625e7 0.0
0.0 0.0 0.0

1.4189995646613967e6 9.040045717139365e6 0.0
9.040045717139365e6 -3.8047974260806605e7 0.0
0.0 0.0 0.0

-1.1912792729739784e6 2.8929890163420726e7 0.0
2.8929890163420726e7 632225.1771785002 0.0
0.0 0.0 0.0

-3.713471146974809e6 2.178823356886672e7 0.0
2.178823356886672e7 9.891902786313856e6 0.0
0.0 0.0 0.0

-111254.28988733701 1.3348038182294164e7 0.0
1.3348038182294164e7 -3.3192854346596505e7 0.0
0.0 0.0 0.0

-3.519875856038328e6 2.549060417677866e7 0.0
2.549060417677866e7 5.588905814155916e6 0.0
0.0 0.0 0.0

-1.167821806579076e7 9.93315324348644e6 0.0
9.93315324348644e6 2.7769650484885287e7 0.0
0.0 0.0 0.0

1.3901374822599702e6 1.0717668085931627e7 0.0
1.0717668085931627e7 -1.5915477266354535e7 0.0
0.0 0.0 0.0

1.5896684976470827e6 2.0688707594617624e7 0.0
2.0688707594617624e7 1.025890036253903e7 0.0
0.0 0.0 0.0

-2.786835964155233e6 2.3158427553103115e7 0.0
2.3158427553103115e7 7.535169359207137e6 0.0
0.0 0.0 0.0

-774470.1500787064 1.4243531755104313e7 0.0
1.4243531755104313e7 -3.2782644972604394e7 0.0
0.0 0.0 0.0

-3.2703455277197235e6 5.1299497186318666e7 0.0
5.1299497186318666e7 -8.213377406266393e6 0.0
0.0 0.0 0.0

-8.775456722846027e6 1.726811884523444e7 0.0
1.726811884523444e7 2.1590471430509042e7 0.0
0.0 0.0 0.0

-1.0686050919898584e7 1.76642994388686e7 0.0
1.76642994388686e7 -5.3140546988817744e7 0.0
0.0 0.0 0.0

-5.065187435835082e6 9.812981883162985e6 0.0
9.812981883162985e6 8.951716209657995e6 0.0
0.0 0.0 0.0

-4.470508652298173e6 1.9792815912176408e7 0.0
1.9792815912176408e7 1.1354686548057465e7 0.0
0.0 0.0 0.0

-5.023021323682966e6 1.8012443199929956e7 0.0
1.8012443199929956e7 2.8943857550015137e7 0.0
0.0 0.0 0.0

-5.365880611786981e6 1.5984223808118075e7 0.0
1.5984223808118075e7 1.4271833306161785e7 0.0
0.0 0.0 0.0

-665008.2888381071 1.655244200999385e7 0.0
1.655244200999385e7 5.5060242724974506e7 0.0
0.0 0.0 0.0

-3.3695176527538425e6 1.9832313923446473e7 0.0
1.9832313923446473e7 1.085030628699236e7 0.0
0.0 0.0 0.0

-1.25010311271278e6 1.7540856788473092e7 0.0
1.7540856788473092e7 -2.2298253838730358e7 0.0
0.0 0.0 0.0

543106.4017468989 2.0077238823344067e7 0.0
2.0077238823344067e7 -1.3779221276734296e7 0.0
0.0 0.0 0.0

1.4566703754540166e8 2.582771281615803e7 0.0
2.582771281615803e7 1.3450114371895999e7 0.0
0.0 0.0 0.0

-8.654969292339822e6 -3.300922053679286e6 0.0
-3.300922053679286e6 3.4082329533527635e7 0.0
0.0 0.0 0.0

3.688322210263882e6 1.8311697735375906e6 0.0
1.8311697735375906e6 -3.3597039708963096e7 0.0
0.0 0.0 0.0

-8.546763674412271e6 1.0592429435988346e6 0.0
1.0592429435988346e6 1.1331587455420554e7 0.0
0.0 0.0 0.0

-1.7001373976003872e6 2.458956660441864e7 0.0
2.458956660441864e7 -3.159425762706049e6 0.0
0.0 0.0 0.0

-7.943304697977027e6 -2.297017866503545e6 0.0
-2.297017866503545e6 4.381599968014709e7 0.0
0.0 0.0 0.0

-6.925049274181139e6 1.6651659495287353e7 0.0
1.6651659495287353e7 -3.1690203416467037e7 0.0
0.0 0.0 0.0

-1.0984133169571722e7 1.3240934980012182e7 0.0
1.3240934980012182e7 2.477221131358686e7 0.0
0.0 0.0 0.0

-7.420210709505398e6 1.8294947775025424e7 0.0
1.8294947775025424e7 1.915544532338798e7 0.0
0.0 0.0 0.0

3.410609278257819e6 1.724485216490941e6 0.0
1.724485216490941e6 -3.797313965874401e7 0.0
0.0 0.0 0.0

780842.3961661924 1.7453062533450447e7 0.0
1.7453062533450447e7 -1.4786196720983852e7 0.0
0.0 0.0 0.0

-183365.79876051264 3.567846827065435e7 0.0
3.567846827065435e7 -1.1549934105339297e6 0.0
0.0 0.0 0.0

1.0260726683604056e6 1.1384664853741204e7 0.0
1.1384664853741204e7 -1.4883464500119345e7 0.0
0.0 0.0 0.0

-3.198169988649018e6 2.1122752906501055e7 0.0
2.1122752906501055e7 -3.799602136771765e6 0.0
0.0 0.0 0.0

-427468.76987591013 8.47556674933839e6 0.0
8.47556674933839e6 9.699881979883571e7 0.0
0.0 0.0 0.0

-2.3571495773472823e6 8.186698319250694e6 0.0
8.186698319250694e6 -8.9833814994026e7 0.0
0.0 0.0 0.0

-5.792775281876467e6 1.662255105032667e7 0.0
1.662255105032667e7 -7.530519837736882e7 0.0
0.0 0.0 0.0

1.2490866454989016e6 1.574240521594728e7 0.0
1.574240521594728e7 -1.821851988566758e7 0.0
0.0 0.0 0.0

2.5036528964818865e6 6.946711995057592e6 0.0
6.946711995057592e6 -4.1030522846121535e7 0.0
0.0 0.0 0.0

-2.398152558139941e7 2.7860363751503754e7 0.0
2.7860363751503754e7 2.799584724871044e6 0.0
0.0 0.0 0.0

594033.3626080658 2.1275521012883563e7 0.0
2.1275521012883563e7 -1.164400123424016e7 0.0
0.0 0.0 0.0

-8.513717838392645e6 -3.2094553880894277e6 0.0
-3.2094553880894277e6 3.523000010375854e7 0.0
0.0 0.0 0.0

-7.80315924063469e6 1.1697419500349404e7 0.0
1.1697419500349404e7 1.4104200096745139e7 0.0
0.0 0.0 0.0

-2.578568936322999e6 2.542016368663805e7 0.0
2.542016368663805e7 4.3675032727161255e6 0.0
0.0 0.0 0.0

-4.001019537613157e6 2.180091081308558e7 0.0
2.180091081308558e7 1.1154487028720064e7 0.0
0.0 0.0 0.0

-8.609604428814488e6 1.4739487951190662e7 0.0
1.4739487951190662e7 1.5422936200464927e7 0.0
0.0 0.0 0.0

-8.245247479238748e6 7.384430142602395e6 0.0
7.384430142602395e6 1.4688759383567145e7 0.0
0.0 0.0 0.0

6.635483858203368e6 2.0106371722084973e7 0.0
2.0106371722084973e7 4.447084252488896e6 0.0
0.0 0.0 0.0

-535511.1602611502 2.3288398029391278e7 0.0
2.3288398029391278e7 -7.717043943631525e6 0.0
0.0 0.0 0.0

-2.88318239309599e6 6.431252809920552e6 0.0
6.431252809920552e6 -57575.11730470788 0.0
0.0 0.0 0.0

-223549.89710954437 2.6673531457074955e7 0.0
2.6673531457074955e7 -2.5201667777983584e6 0.0
0.0 0.0 0.0

-1.0179072283494037e7 1.6143918137344176e7 0.0
1.6143918137344176e7 2.3422732909539e7 0.0
0.0 0.0 0.0

-4.510173908746616e6 1.6768303586990554e7 0.0
1.6768303586990554e7 1.2408099060276853e7 0.0
0.0 0.0 0.0

-8.398070805744305e6 -3.042180496174072e6 0.0
-3.042180496174072e6 3.638471498247653e7 0.0
0.0 0.0 0.0

3.504613360601114e6 1.8001622266223452e6 0.0
1.8001622266223452e6 -3.574733222348778e7 0.0
0.0 0.0 0.0

2.3040681773233674e6 7.217450132215022e6 0.0
7.217450132215022e6 -4.377245743908897e7 0.0
0.0 0.0 0.0

-1.199040943387363e7 1.2180452056636238e7 0.0
1.2180452056636238e7 2.327261552327796e7 0.0
0.0 0.0 0.0

-275532.46427383274 5.018863552492013e6 0.0
5.018863552492013e6 -7.755388810435086e7 0.0
0.0 0.0 0.0

-6.572018213396221e6 -701867.3912708751 0.0
-701867.3912708751 5.820235419666192e7 0.0
0.0 0.0 0.0

1.8610080496797403e6 1.0377915615131238e7 0.0
1.0377915615131238e7 -1.955947866594769e7 0.0
0.0 0.0 0.0

2.974347356620674e6 8.98784244836277e6 0.0
8.98784244836277e6 -2.168311529561801e7 0.0
0.0 0.0 0.0

4.945596957886636e6 3.275155776453134e7 0.0
3.275155776453134e7 -2.784939533663197e6 0.0
0.0 0.0 0.0

-6.706203739363599e6 2.94009440101894e7 0.0
2.94009440101894e7 5.803629167427637e6 0.0
0.0 0.0 0.0

-2.9651374802718693e6 2.262731751050876e7 0.0
2.262731751050876e7 8.604904968374569e6 0.0
0.0 0.0 0.0

-8518.228673612932 2.5553282104008827e7 0.0
2.5553282104008827e7 -4.240859073007921e6 0.0
0.0 0.0 0.0

-1.1327228586541486e6 3.349889220028173e7 0.0
3.349889220028173e7 1.2039800313307673e6 0.0
0.0 0.0 0.0

-3.062886919167244e6 2.401327463233618e7 0.0
2.401327463233618e7 8.168813165443701e6 0.0
0.0 0.0 0.0

242218.42616794584 1.9037872631983157e7 0.0
1.9037872631983157e7 1.151836217425399e7 0.0
0.0 0.0 0.0

1.3160994628794193e6 2.703807441157222e6 0.0
2.703807441157222e6 -6.484860464200069e7 0.0
0.0 0.0 0.0

3.2025878650351893e6 1.591391129956787e6 0.0
1.591391129956787e6 -4.261321916004118e7 0.0
0.0 0.0 0.0

2.233246299872402e6 1.8641043628179592e6 0.0
1.8641043628179592e6 -5.563686211525731e7 0.0
0.0 0.0 0.0

-2.618267613086467e6 2.5611660024767447e7 0.0
2.5611660024767447e7 1.2611943512208876e6 0.0
0.0 0.0 0.0

-6.71173543272381e6 1.0655965490300328e7 0.0
1.0655965490300328e7 7.54705031660871e6 0.0
0.0 0.0 0.0

-7.688050962868171e6 -2.130050807031953e6 0.0
-2.130050807031953e6 4.509540084717196e7 0.0
0.0 0.0 0.0

-1.1913255792628909e7 1.2492547922915537e7 0.0
1.2492547922915537e7 2.179245550979864e7 0.0
0.0 0.0 0.0

3.885628652550293e6 3.654886939328175e6 0.0
3.654886939328175e6 -2.2923063164921835e7 0.0
0.0 0.0 0.0

-1.4053906128276262e7 2.7353838594717965e7 0.0
2.7353838594717965e7 5.012891395620194e6 0.0
0.0 0.0 0.0

-6.663433177529103e6 1.748411458714243e7 0.0
1.748411458714243e7 -2.7017686535172954e7 0.0
0.0 0.0 0.0

-8.856415100465149e6 -4.082065044000705e6 0.0
-4.082065044000705e6 2.9103167479767907e7 0.0
0.0 0.0 0.0

-1.1836458598908683e7 4.085754105752295e6 0.0
4.085754105752295e6 2.0448624676265888e7 0.0
0.0 0.0 0.0

-1.1007215550022444e7 9.225238893299365e6 0.0
9.225238893299365e6 3.2105293611094333e7 0.0
0.0 0.0 0.0

-4.23254740107543e6 2.028985719746151e7 0.0
2.028985719746151e7 1.84838276785328e7 0.0
0.0 0.0 0.0

1.3474814684022907e6 1.2683420902778354e7 0.0
1.2683420902778354e7 -2.5933149823669508e7 0.0
0.0 0.0 0.0

2.007261705738537e6 2.2852355133180227e6 0.0
2.2852355133180227e6 -6.13384230349953e7 0.0
0.0 0.0 0.0

3.7083802508953977e6 1.9402794075906351e6 0.0
1.9402794075906351e6 -3.0506832161600687e7 0.0
0.0 0.0 0.0

1.2208179706116498e7 3.492274506802557e7 0.0
3.492274506802557e7 -6.910652090070021e6 0.0
0.0 0.0 0.0

-6.888648974932931e6 -930774.3436302969 0.0
-930774.3436302969 5.586087520679584e7 0.0
0.0 0.0 0.0

2.29289088769765e6 8.45268090258679e6 0.0
8.45268090258679e6 -3.7199677293878004e7 0.0
0.0 0.0 0.0

-5.346187561592795e6 2.1326178308981294e6 0.0
2.1326178308981294e6 7.454908729739061e7 0.0
0.0 0.0 0.0

1.0631008231600858e6 3.4667525836177664e6 0.0
3.4667525836177664e6 -6.993783464377767e7 0.0
0.0 0.0 0.0

-3.7503742830221932e6 2.532189311667559e7 0.0
2.532189311667559e7 8.258094790655144e6 0.0
0.0 0.0 0.0

-1.187168502762619e6 1.2530309853149194e7 0.0
1.2530309853149194e7 -6.966075594953721e6 0.0
0.0 0.0 0.0

-633193.207915476 1.8340996823349394e7 0.0
1.8340996823349394e7 -1.1908850805628633e7 0.0
0.0 0.0 0.0

333980.05722188577 1.704995722245543e7 0.0
1.704995722245543e7 -1.9601858145269025e7 0.0
0.0 0.0 0.0

-6.186482612699397e6 -352052.8654896347 0.0
-352052.8654896347 6.111134647858024e7 0.0
0.0 0.0 0.0

2.0093536956447512e6 2.0974395340647097e6 0.0
2.0974395340647097e6 -5.827244772151342e7 0.0
0.0 0.0 0.0

-9.308710090487694e6 1.6925941185930774e7 0.0
1.6925941185930774e7 2.4074573939361367e7 0.0
0.0 0.0 0.0

-1.0557108970208501e7 1.5562680297911968e7 0.0
1.5562680297911968e7 2.2900782973444577e7 0.0
0.0 0.0 0.0

-1.1454277475751724e7 1.0968003219293242e7 0.0
1.0968003219293242e7 2.8406732419596553e7 0.0
0.0 0.0 0.0

-6.524701912183603e6 1.5219594981042342e7 0.0
1.5219594981042342e7 1.6203723858556682e7 0.0
0.0 0.0 0.0

3.5227845826029936e6 1.8961656131346934e7 0.0
1.8961656131346934e7 3.519619755835646e7 0.0
0.0 0.0 0.0

365881.59764401335 2.383114168278249e7 0.0
2.383114168278249e7 -6.8606982207179805e6 0.0
0.0 0.0 0.0

-2.4051266309131114e6 2.7206932585381486e7 0.0
2.7206932585381486e7 678511.762268635 0.0
0.0 0.0 0.0

103013.93378854846 2.51632663820047e7 0.0
2.51632663820047e7 -5.7736147304622475e6 0.0
0.0 0.0 0.0

2.5720630960299484e6 1.0401213818859946e7 0.0
1.0401213818859946e7 -1.950849468828309e7 0.0
0.0 0.0 0.0

-3.918327102446712e6 2.795000600895763e7 0.0
2.795000600895763e7 5.405385326158435e6 0.0
0.0 0.0 0.0

-1.8344413230699832e6 2.017967633106805e7 0.0
2.017967633106805e7 -5.383260773255486e6 0.0
0.0 0.0 0.0

1.5803989196676845e6 1.4662088811834978e7 0.0
1.4662088811834978e7 -2.050752338448944e7 0.0
0.0 0.0 0.0

-9.433703924920097e6 1.5121096180253817e7 0.0
1.5121096180253817e7 2.9482715788234778e7 0.0
0.0 0.0 0.0

-1.166891941477983e7 1.296246414363129e7 0.0
1.296246414363129e7 2.4014601476049934e7 0.0
0.0 0.0 0.0

2.230468562677998e6 9.504986990826331e6 0.0
9.504986990826331e6 -2.249566062391467e7 0.0
0.0 0.0 0.0

-8.224016592112865e6 -2.7075794065083787e6 0.0
-2.7075794065083787e6 3.997415014295863e7 0.0
0.0 0.0 0.0

3.312298424462199e6 1.7231043340978005e6 0.0
1.7231043340978005e6 -3.9092400840925545e7 0.0
0.0 0.0 0.0

-617476.428074332 1.9065859739489805e7 0.0
1.9065859739489805e7 2.214080271753944e7 0.0
0.0 0.0 0.0

-7.008315963066008e6 -1.152862171541883e6 0.0
-1.152862171541883e6 5.365584669381936e7 0.0
0.0 0.0 0.0

2.4521501730873846e6 1.7613568557013692e6 0.0
1.7613568557013692e6 -5.148117697823568e7 0.0
0.0 0.0 0.0

3.213994121463325e6 1.7576463090207924e6 0.0
1.7576463090207924e6 -4.019737051631126e7 0.0
0.0 0.0 0.0

-8.083933029375926e6 -2.5312665564633277e6 0.0
-2.5312665564633277e6 4.1172662138356276e7 0.0
0.0 0.0 0.0

-4.110326872983625e6 1.6871829417371355e7 0.0
1.6871829417371355e7 3.7149034068581395e7 0.0
0.0 0.0 0.0

2.6808404671818595e6 1.684892264318514e6 0.0
1.684892264318514e6 -4.982518826210216e7 0.0
0.0 0.0 0.0

-7.145188995780129e6 -1.4520095058822029e6 0.0
-1.4520095058822029e6 5.155992168199682e7 0.0
0.0 0.0 0.0

-4.027044306397843e6 1.99830177561804e7 0.0
1.99830177561804e7 2.082547408100272e7 0.0
0.0 0.0 0.0

-9.054445828786153e6 -356902.26393874345 0.0
-356902.26393874345 3.633001535560295e7 0.0
0.0 0.0 0.0

-8.022736977493841e6 -2.3709629826277364e6 0.0
-2.3709629826277364e6 4.2528458296182305e7 0.0
0.0 0.0 0.0

3.346248438215282e6 1.7126775913987893e6 0.0
1.7126775913987893e6 -4.147275470189525e7 0.0
0.0 0.0 0.0

2.7677649826891553e6 1.7110532491941766e6 0.0
1.7110532491941766e6 -4.821642058750972e7 0.0
0.0 0.0 0.0

-7.339109158487786e6 -1.7077470631568262e6 0.0
-1.7077470631568262e6 4.974233415084426e7 0.0
0.0 0.0 0.0

-2.686765319403426e8 6.000265168243501e7 0.0
6.000265168243501e7 -3.1372026595108293e7 0.0
0.0 0.0 0.0

2.4692841275362253e8 4.939569656670938e7 0.0
4.939569656670938e7 2.2912058604910225e7 0.0
0.0 0.0 0.0

-8.705513196134228e6 1.5261638648086725e7 0.0
1.5261638648086725e7 1.6562048555146404e7 0.0
0.0 0.0 0.0

2.7190440957040675e6 1.6276557168683282e6 0.0
1.6276557168683282e6 -4.6650774612333424e7 0.0
0.0 0.0 0.0

-7.594907451997627e6 -1.8355943434418275e6 0.0
-1.8355943434418275e6 4.824292240554573e7 0.0
0.0 0.0 0.0

240487.93318156293 1.8343136847540926e7 0.0
1.8343136847540926e7 -1.480899552916911e6 0.0
0.0 0.0 0.0

-1.1346330174345357e7 1.4040168865391107e7 0.0
1.4040168865391107e7 2.316894648369539e7 0.0
0.0 0.0 0.0

-2.3884037612136686e6 2.5874508418396574e7 0.0
2.5874508418396574e7 3.508366953929956e6 0.0
0.0 0.0 0.0

137116.1853051493 1.960237599821037e7 0.0
1.960237599821037e7 2.2919667320810493e7 0.0
0.0 0.0 0.0

-7.68478443703641e6 -1.92994862826956e6 0.0
-1.92994862826956e6 4.6689974438238375e7 0.0
0.0 0.0 0.0

2.951702536898723e6 1.5218932464909174e6 0.0
1.5218932464909174e6 -4.5367945886209145e7 0.0
0.0 0.0 0.0

-574716.4541347532 2.3951787357843872e7 0.0
2.3951787357843872e7 -6.747360716220876e6 0.0
0.0 0.0 0.0

-7.861480584218478e6 1.7275365673925266e7 0.0
1.7275365673925266e7 -5.4633644123588264e7 0.0
0.0 0.0 0.0

-1.2123361195902233e6 2.6756297445258703e7 0.0
2.6756297445258703e7 -2.3030651592164664e6 0.0
0.0 0.0 0.0

1.1338145400786325e6 1.6311271963042453e7 0.0
1.6311271963042453e7 -1.7059406102163944e7 0.0
0.0 0.0 0.0

535826.2620727047 1.5262144827120842e7 0.0
1.5262144827120842e7 -2.3677441465427987e7 0.0
0.0 0.0 0.0

-283928.9021566226 1.9081804207439277e7 0.0
1.9081804207439277e7 6.624535131184996e6 0.0
0.0 0.0 0.0

1.5952249166644854e6 2.384383066054878e7 0.0
2.384383066054878e7 -8.14890546550515e6 0.0
0.0 0.0 0.0

694536.4151752582 2.1848649253309295e7 0.0
2.1848649253309295e7 -1.0394423604172572e7 0.0
0.0 0.0 0.0

-5.430650374158453e6 1.6119710661910873e7 0.0
1.6119710661910873e7 -4.2168720659589924e7 0.0
0.0 0.0 0.0

-1.725485365974363e6 2.691385254363178e7 0.0
2.691385254363178e7 1.1285065760087445e6 0.0
0.0 0.0 0.0

-3.4647071171736736e6 2.2220289607976634e7 0.0
2.2220289607976634e7 9.326692018154126e6 0.0
0.0 0.0 0.0

-7.011072305250229e6 2.33917576994109e7 0.0
2.33917576994109e7 -1.0788603126029702e7 0.0
0.0 0.0 0.0

238208.34924864117 1.5706640642210167e7 0.0
1.5706640642210167e7 -2.368033235912834e7 0.0
0.0 0.0 0.0

-1.1646868665378734e7 1.2810358855026474e7 0.0
1.2810358855026474e7 2.022189953329014e7 0.0
0.0 0.0 0.0

2.285108209125168e6 1.8065774553054374e7 0.0
1.8065774553054374e7 1.156480757537542e7 0.0
0.0 0.0 0.0

-1.0761946000483826e7 1.43512256479523e7 0.0
1.43512256479523e7 2.01042512855194e7 0.0
0.0 0.0 0.0

-1.9578600292959712e6 1.8633641987677764e7 0.0
1.8633641987677764e7 -2.391925995990896e6 0.0
0.0 0.0 0.0

-1.9513320164221185e6 2.663983720286477e7 0.0
2.663983720286477e7 1.981212706879164e6 0.0
0.0 0.0 0.0

-1.9243819598717634e6 1.5951456203535995e7 0.0
1.5951456203535995e7 -2.9466367042077385e7 0.0
0.0 0.0 0.0

-3.07345367459237e6 2.006002081602128e7 0.0
2.006002081602128e7 2.032453773575366e7 0.0
0.0 0.0 0.0

-1.3049662415508972e6 3.434535602983088e7 0.0
3.434535602983088e7 1.616352359321763e6 0.0
0.0 0.0 0.0

-2.7593911568635246e6 1.9025286889708273e7 0.0
1.9025286889708273e7 -3.0397975312431892e6 0.0
0.0 0.0 0.0

-805026.048151916 2.5144235745799933e7 0.0
2.5144235745799933e7 -4.874886784878542e6 0.0
0.0 0.0 0.0

1.5409179034277495e7 2.293945593643964e7 0.0
2.293945593643964e7 1.1437631519072117e7 0.0
0.0 0.0 0.0

-2.2061765751269674e6 2.628317811042979e7 0.0
2.628317811042979e7 2.7025294527023146e6 0.0
0.0 0.0 0.0

-8.846320243319504e6 1.5870645985103443e7 0.0
1.5870645985103443e7 505394.23148854636 0.0
0.0 0.0 0.0

-1.6383904474863855e6 2.865538546012605e7 0.0
2.865538546012605e7 1.262897213629661e6 0.0
0.0 0.0 0.0

3.9323672434852114e6 2.2018891022621854e6 0.0
2.2018891022621854e6 -2.413747666102232e7 0.0
0.0 0.0 0.0

3.996596952325699e6 2.2722340628552465e6 0.0
2.2722340628552465e6 -2.323791383529368e7 0.0
0.0 0.0 0.0

-621217.7970426057 2.4574605718767308e7 0.0
2.4574605718767308e7 -5.639411651592469e6 0.0
0.0 0.0 0.0

988532.9467002209 1.9129111080421776e7 0.0
1.9129111080421776e7 2.9510371491648328e7 0.0
0.0 0.0 0.0

-1.1352072231489832e6 2.949931843937303e7 0.0
2.949931843937303e7 762567.4471481558 0.0
0.0 0.0 0.0

-1.1658348421717983e7 1.1311573959299117e7 0.0
1.1311573959299117e7 2.6606928883981057e7 0.0
0.0 0.0 0.0

-1.086293939538696e6 3.2110623746171158e7 0.0
3.2110623746171158e7 1.049113812745679e6 0.0
0.0 0.0 0.0

-3.033090859952269e6 2.087013138046876e7 0.0
2.087013138046876e7 1.2426828021484569e7 0.0
0.0 0.0 0.0

19299.929627818754 1.7481045252502967e7 0.0
1.7481045252502967e7 4.778348952432628e6 0.0
0.0 0.0 0.0

1.780140859209707e6 1.2429991388385246e7 0.0
1.2429991388385246e7 -2.7221172688308455e7 0.0
0.0 0.0 0.0

-3.2198171395839043e6 2.5764654654977497e7 0.0
2.5764654654977497e7 3.8125111126881125e6 0.0
0.0 0.0 0.0

-9.147585013169322e6 -2.925579681112716e6 0.0
-2.925579681112716e6 2.6213273988042895e7 0.0
0.0 0.0 0.0

-4.253623690495063e6 1.602848845895777e7 0.0
1.602848845895777e7 3.914391394465422e7 0.0
0.0 0.0 0.0

-4.816381336904427e6 1.5702259514348721e7 0.0
1.5702259514348721e7 -4.7522021761115305e7 0.0
0.0 0.0 0.0

-1.0561572965879915e7 1.2242225942642715e7 0.0
1.2242225942642715e7 3.003858920846613e7 0.0
0.0 0.0 0.0

5.678912483656697e6 2.4564425190391697e7 0.0
2.4564425190391697e7 -5.853224431930076e6 0.0
0.0 0.0 0.0

1.879628328357731e6 1.2979870270349342e7 0.0
1.2979870270349342e7 -2.4188143704721242e7 0.0
0.0 0.0 0.0

-2.9952533378339e6 1.8670491874016955e7 0.0
1.8670491874016955e7 -2.036796877659607e6 0.0
0.0 0.0 0.0

-1.0094338739455654e6 2.6272754099197607e7 0.0
2.6272754099197607e7 -3.125061873557697e6 0.0
0.0 0.0 0.0

-691490.1378354614 1.776639480476083e7 0.0
1.776639480476083e7 -5.401773706934117e6 0.0
0.0 0.0 0.0

-1.1233844912444979e7 1.2430639233333573e7 0.0
1.2430639233333573e7 2.4139157536818538e7 0.0
0.0 0.0 0.0

-1.0013970995553987e7 1.4262282089947617e7 0.0
1.4262282089947617e7 2.9137980691037815e7 0.0
0.0 0.0 0.0

-891092.7581002243 2.5719082236949258e7 0.0
2.5719082236949258e7 -4.0051644536879337e6 0.0
0.0 0.0 0.0

-7.896359974881201e6 1.4479753067355936e7 0.0
1.4479753067355936e7 1.7947554770320415e7 0.0
0.0 0.0 0.0

3.1687526764155608e6 4.423189877299574e6 0.0
4.423189877299574e6 -3.852515099683068e7 0.0
0.0 0.0 0.0

-6.466975475750429e6 1.7111908790558174e7 0.0
1.7111908790558174e7 1.4195062475986127e7 0.0
0.0 0.0 0.0

-1.5358105573080657e6 1.768550245714649e7 0.0
1.768550245714649e7 -1.1070854277367905e7 0.0
0.0 0.0 0.0

471521.05568578094 1.8590188664937466e7 0.0
1.8590188664937466e7 1.3920372862557962e6 0.0
0.0 0.0 0.0

-3.3651551862416207e6 2.0223563802469857e7 0.0
2.0223563802469857e7 -1.21935084947337e7 0.0
0.0 0.0 0.0

-1.8058608425589171e6 1.8446930202486705e7 0.0
1.8446930202486705e7 -7.441855564582147e6 0.0
0.0 0.0 0.0

515937.46996475384 1.5740535296519982e7 0.0
1.5740535296519982e7 -2.2278993371980697e7 0.0
0.0 0.0 0.0

2.4287083053129483e6 8.257649312688048e6 0.0
8.257649312688048e6 -2.8265015643176254e7 0.0
0.0 0.0 0.0

-1.1624214962746198e6 1.7711116282031678e7 0.0
1.7711116282031678e7 -8.251287759348176e6 0.0
0.0 0.0 0.0

1.8076326395481722e6 1.0857342692279402e7 0.0
1.0857342692279402e7 -2.0233630018784683e7 0.0
0.0 0.0 0.0

3.7956271430516513e6 3.9303897543056314e6 0.0
3.9303897543056314e6 -1.8716047310923055e7 0.0
0.0 0.0 0.0

-2.867430543398895e6 2.6599632593127467e7 0.0
2.6599632593127467e7 2.181229835721802e6 0.0
0.0 0.0 0.0

-1.0686929541722157e6 1.2996538416389357e7 0.0
1.2996538416389357e7 -8.294584947223213e6 0.0
0.0 0.0 0.0

-3.8356492345756833e6 2.0336539929829817e7 0.0
2.0336539929829817e7 1.795317498030249e7 0.0
0.0 0.0 0.0

-6.734436138029461e6 -6.167931145481798e6 0.0
-6.167931145481798e6 1.5971918336700566e7 0.0
0.0 0.0 0.0

3.7055618293559905e6 2.0056310034847654e7 0.0
2.0056310034847654e7 2.0394927348413551e6 0.0
0.0 0.0 0.0

-4.585243538271612e6 2.0574788024221428e7 0.0
2.0574788024221428e7 -1.3202739356022157e7 0.0
0.0 0.0 0.0

2.4098550816985806e6 8.760772015243685e6 0.0
8.760772015243685e6 -2.35924575721821e7 0.0
0.0 0.0 0.0

-1.0209183567133872e8 1.7057733613334686e7 0.0
1.7057733613334686e7 4.869364293263279e6 0.0
0.0 0.0 0.0

-5.46774381416042e6 1.9450100370968398e7 0.0
1.9450100370968398e7 2.1511137118198592e7 0.0
0.0 0.0 0.0

715321.3292747494 1.8857020848660067e7 0.0
1.8857020848660067e7 -1.461248132064975e7 0.0
0.0 0.0 0.0

-1.3541998565434117e6 1.6893633274811525e7 0.0
1.6893633274811525e7 -9.058298572491994e6 0.0
0.0 0.0 0.0

1.347485146270318e6 1.4108692983112322e7 0.0
1.4108692983112322e7 -2.474741168577215e7 0.0
0.0 0.0 0.0

1.0791259266254422e6 1.8653855462492127e7 0.0
1.8653855462492127e7 1.170817303408467e7 0.0
0.0 0.0 0.0

1.0578942388296425e6 1.2821328772801735e7 0.0
1.2821328772801735e7 -3.0788240406290174e7 0.0
0.0 0.0 0.0

1.209819149477568e6 1.898703916388827e7 0.0
1.898703916388827e7 1.3606377272424024e7 0.0
0.0 0.0 0.0

296574.37451751344 1.7079323399864152e7 0.0
1.7079323399864152e7 -1.627523578779237e7 0.0
0.0 0.0 0.0

3.0871508791022263e6 8.518965382491387e6 0.0
8.518965382491387e6 -2.5043495873576958e7 0.0
0.0 0.0 0.0

2.7008024871323276e6 2.5367547384219645e6 0.0
2.5367547384219645e6 -4.437653316194819e7 0.0
0.0 0.0 0.0

3.71841167033524e6 2.6202250319456276e7 0.0
2.6202250319456276e7 -6.01451303307347e6 0.0
0.0 0.0 0.0

1.5202621135028638e6 1.2570147903921023e7 0.0
1.2570147903921023e7 -2.9007271531600017e7 0.0
0.0 0.0 0.0

-4.0415840877133e6 2.726241644291446e7 0.0
2.726241644291446e7 6.089101577302782e6 0.0
0.0 0.0 0.0

-7.680378471486434e6 2.201801520705662e7 0.0
2.201801520705662e7 1.7582477186867767e6 0.0
0.0 0.0 0.0

2.4482385889723916e6 8.036975362545932e6 0.0
8.036975362545932e6 -1.1861371760122867e7 0.0
0.0 0.0 0.0

-1.7001779389221915e6 3.5243824239651665e7 0.0
3.5243824239651665e7 1.937235710168311e6 0.0
0.0 0.0 0.0

2.8402449076022888e6 9.533881871738832e6 0.0
9.533881871738832e6 -2.232286309207952e7 0.0
0.0 0.0 0.0

-93440.98590626754 1.7869025889906622e7 0.0
1.7869025889906622e7 3.988524975880384e7 0.0
0.0 0.0 0.0

-747441.9568634898 1.924962039357655e7 0.0
1.924962039357655e7 1.8090468776791792e6 0.0
0.0 0.0 0.0

-7.000598618082346e6 2.840978601955667e7 0.0
2.840978601955667e7 6.376169897794648e6 0.0
0.0 0.0 0.0

-1.0287824828579344e7 1.3665307191441398e7 0.0
1.3665307191441398e7 2.146389157580696e7 0.0
0.0 0.0 0.0

1.087158465916981e6 1.3778717755010689e7 0.0
1.3778717755010689e7 -2.4825410026545793e7 0.0
0.0 0.0 0.0

-2.76660620987815e6 1.1307988194530675e7 0.0
1.1307988194530675e7 -2.0727989830410318e6 0.0
0.0 0.0 0.0

-1.0284077298919323e6 1.902440867142746e7 0.0
1.902440867142746e7 -6.52866262511528e6 0.0
0.0 0.0 0.0

1.2484880350846251e7 2.0804587044289183e7 0.0
2.0804587044289183e7 2.8745943140531094e6 0.0
0.0 0.0 0.0

668965.6968243327 1.8819998039088104e7 0.0
1.8819998039088104e7 -1.6034721940952238e7 0.0
0.0 0.0 0.0

783822.1945452704 9.200361086362006e6 0.0
9.200361086362006e6 -6.263570507163565e6 0.0
0.0 0.0 0.0

761439.1564199319 1.4772761143459992e7 0.0
1.4772761143459992e7 -2.3606561474747468e7 0.0
0.0 0.0 0.0

-9.120050947454927e6 -2.0952334923099233e6 0.0
-2.0952334923099233e6 3.1907794049052104e7 0.0
0.0 0.0 0.0

-3.931401193487458e6 2.1109013633007307e7 0.0
2.1109013633007307e7 1.5852630403000243e7 0.0
0.0 0.0 0.0

-1.0982320480167603e7 1.4653874065521905e7 0.0
1.4653874065521905e7 2.3840922175012298e7 0.0
0.0 0.0 0.0

-1.6072770390051503e7 2.555717666767615e7 0.0
2.555717666767615e7 -6.141041074741297e6 0.0
0.0 0.0 0.0

-4.975020622082089e6 1.6441934004465083e7 0.0
1.6441934004465083e7 -4.037447038350059e7 0.0
0.0 0.0 0.0

-3.2119371629953026e6 2.4686743466752097e7 0.0
2.4686743466752097e7 7.93245725089629e6 0.0
0.0 0.0 0.0

-4.489974336346831e6 2.5741958356404714e7 0.0
2.5741958356404714e7 7.624367231823174e6 0.0
0.0 0.0 0.0

1.5357077484313291e6 2.203098088145199e7 0.0
2.203098088145199e7 -1.00288300531705e7 0.0
0.0 0.0 0.0

-3.100274049981946e6 1.4965316039243717e7 0.0
1.4965316039243717e7 -4.1817390048918925e7 0.0
0.0 0.0 0.0

-3.3053759567034375e6 1.991840046584309e7 0.0
1.991840046584309e7 1.8468274271139223e7 0.0
0.0 0.0 0.0

-9.032274136824312e6 5.520444577387468e6 0.0
5.520444577387468e6 4.259820261472785e7 0.0
0.0 0.0 0.0

2.3790973945168285e6 2.9073273113151137e6 0.0
2.9073273113151137e6 -7.283789707875276e6 0.0
0.0 0.0 0.0

-1.195756281608536e6 1.7179197566324424e7 0.0
1.7179197566324424e7 -2.1724058510270167e7 0.0
0.0 0.0 0.0

1.4247349299124395e6 2.3080933691186305e7 0.0
2.3080933691186305e7 -8.9947647798738e6 0.0
0.0 0.0 0.0

-1.9775870343437067e6 1.958871623330624e7 0.0
1.958871623330624e7 -2.137475706336414e6 0.0
0.0 0.0 0.0

-586198.107349724 1.5679358397116218e7 0.0
1.5679358397116218e7 -1.148622201309268e7 0.0
0.0 0.0 0.0

-8.008835045186017e6 1.732018148365208e7 0.0
1.732018148365208e7 -3.248373207196239e7 0.0
0.0 0.0 0.0

-1.0914332081240745e7 1.3222274242620032e7 0.0
1.3222274242620032e7 2.7774095621200696e7 0.0
0.0 0.0 0.0

-97774.48048715762 2.9281738511092015e7 0.0
2.9281738511092015e7 -647300.7430323805 0.0
0.0 0.0 0.0

-2.3045460844910312e7 2.5885360859763876e7 0.0
2.5885360859763876e7 -1.3957389464850575e6 0.0
0.0 0.0 0.0

4.0666578920950172e6 2.060817206613526e7 0.0
2.060817206613526e7 2.293307260535435e6 0.0
0.0 0.0 0.0

1.8309545797380647e6 7.87202188939399e6 0.0
7.87202188939399e6 -1.3840390866510352e7 0.0
0.0 0.0 0.0

-2.1838855211811457e6 1.9214523699847013e7 0.0
1.9214523699847013e7 -1.1638510284732298e6 0.0
0.0 0.0 0.0

-1.023353211808398e7 1.0544411288653726e7 0.0
1.0544411288653726e7 3.36742657284116e7 0.0
0.0 0.0 0.0

-5.234393408809931e6 2.9012014214862462e7 0.0
2.9012014214862462e7 5.340962341455001e6 0.0
0.0 0.0 0.0

-3.9354045648639835e6 1.9965670395340197e7 0.0
1.9965670395340197e7 1.92166340726642e7 0.0
0.0 0.0 0.0

-2.0523076004358055e6 2.743635038191306e7 0.0
2.743635038191306e7 -21008.140084362705 0.0
0.0 0.0 0.0

484811.9690568829 1.6529040830730526e7 0.0
1.6529040830730526e7 -1.7398651425353013e7 0.0
0.0 0.0 0.0

-9.821989790032694e6 1.2433651956545902e7 0.0
1.2433651956545902e7 3.304679094167341e7 0.0
0.0 0.0 0.0

101159.53348587081 1.7386271577085916e7 0.0
1.7386271577085916e7 -1.9484389140732735e7 0.0
0.0 0.0 0.0

-6.301808069206473e6 2.153566715644595e7 0.0
2.153566715644595e7 -3.976790957344903e6 0.0
0.0 0.0 0.0

-121192.32000504264 2.9787950515936393e7 0.0
2.9787950515936393e7 -743360.3774424191 0.0
0.0 0.0 0.0

3.295684764887155e6 4.9713720520299245e6 0.0
4.9713720520299245e6 -1.98373929659047e7 0.0
0.0 0.0 0.0

1.7460932122146236e6 2.153573870377926e7 0.0
2.153573870377926e7 -8.928730100051409e6 0.0
0.0 0.0 0.0

-2.978911711587509e6 2.459356865089464e7 0.0
2.459356865089464e7 7.125407042141994e6 0.0
0.0 0.0 0.0

-1.099157577369719e7 1.2765909017597625e7 0.0
1.2765909017597625e7 2.2480783270278186e7 0.0
0.0 0.0 0.0

-5.346236856768237e6 2.271318747743221e7 0.0
2.271318747743221e7 -9.611981243768226e6 0.0
0.0 0.0 0.0

-1.0108770924636815e7 1.5181904504281098e7 0.0
1.5181904504281098e7 2.7020611441671234e7 0.0
0.0 0.0 0.0

-2.496194101301881e6 6.239201672024697e6 0.0
6.239201672024697e6 5.88455245610851e6 0.0
0.0 0.0 0.0

-2.8818038847624934e6 2.3904224820066214e7 0.0
2.3904224820066214e7 7.274506575440472e6 0.0
0.0 0.0 0.0

-1.1925350792510653e7 1.1746616367794922e7 0.0
1.1746616367794922e7 2.4887473431139737e7 0.0
0.0 0.0 0.0

-4.526680470675742e6 2.006926718645468e7 0.0
2.006926718645468e7 1.2362872056462752e7 0.0
0.0 0.0 0.0

3.942474346592579e6 1.862406302749048e7 0.0
1.862406302749048e7 3.0388421404189184e7 0.0
0.0 0.0 0.0

-2.080551187846791e6 1.4859506084955089e7 0.0
1.4859506084955089e7 -3.682448991851961e7 0.0
0.0 0.0 0.0

-6.243387617103654e6 -6.375627642362732e6 0.0
-6.375627642362732e6 1.4579684802092731e7 0.0
0.0 0.0 0.0

7.758486728652022e6 2.6118525674021993e7 0.0
2.6118525674021993e7 -5.238141664884631e6 0.0
0.0 0.0 0.0

-1.0843196892666185e7 1.1257475227019556e7 0.0
1.1257475227019556e7 2.9483995634434603e7 0.0
0.0 0.0 0.0

415692.41313207615 1.3533784769444808e7 0.0
1.3533784769444808e7 -1.416168367706468e7 0.0
0.0 0.0 0.0

-2.8159600952323163e6 2.000642571788205e7 0.0
2.000642571788205e7 1.6039385829000559e7 0.0
0.0 0.0 0.0

-941915.5857194688 1.8097351242904857e7 0.0
1.8097351242904857e7 -6.891860868559872e6 0.0
0.0 0.0 0.0

-4.951859850971245e6 2.066735448589949e7 0.0
2.066735448589949e7 1.741605819541533e7 0.0
0.0 0.0 0.0

15527.411203992553 1.133729010855899e7 0.0
1.133729010855899e7 -7.807009452446776e6 0.0
0.0 0.0 0.0

-6.100876434382591e6 2.3645407186125785e7 0.0
2.3645407186125785e7 6.89457004389891e6 0.0
0.0 0.0 0.0

-4.501198371843567e6 2.0270357945426952e7 0.0
2.0270357945426952e7 1.3250983676850649e7 0.0
0.0 0.0 0.0

1.3336720662970878e6 2.13226221903042e7 0.0
2.13226221903042e7 -1.029057917794317e7 0.0
0.0 0.0 0.0

-3.404977235804361e6 2.481146741535133e7 0.0
2.481146741535133e7 5.677922307708368e6 0.0
0.0 0.0 0.0

-1.0479690904084377e6 3.011416250688951e7 0.0
3.011416250688951e7 884422.2548320093 0.0
0.0 0.0 0.0

-1.610982997165084e6 1.4936585937600037e7 0.0
1.4936585937600037e7 -3.2031444414113987e7 0.0
0.0 0.0 0.0

1.1423676902826705e6 2.738458950993388e6 0.0
2.738458950993388e6 -2.1466034494390497e6 0.0
0.0 0.0 0.0

-7.731182804562911e6 862862.0582000426 0.0
862862.0582000426 9.284491292581145e6 0.0
0.0 0.0 0.0

2.074733221507933e6 4.088876468294858e6 0.0
4.088876468294858e6 -5.512123831051877e7 0.0
0.0 0.0 0.0

-237749.96997234365 2.297741224788128e7 0.0
2.297741224788128e7 -6.785723053512782e6 0.0
0.0 0.0 0.0

-4.48772654139432e6 1.9901773094622694e7 0.0
1.9901773094622694e7 1.9785355287521742e7 0.0
0.0 0.0 0.0

-1.1653554835439855e7 1.3277933145668749e7 0.0
1.3277933145668749e7 2.2488922948051766e7 0.0
0.0 0.0 0.0

-2.234964171807054e6 3.625087064451077e7 0.0
3.625087064451077e7 2.202390667871484e6 0.0
0.0 0.0 0.0

-1.1342804609715937e7 9.473934300227689e6 0.0
9.473934300227689e6 2.977523112840624e7 0.0
0.0 0.0 0.0

3.754188238041842e7 6.3243734480044976e7 0.0
6.3243734480044976e7 -5.854009087698678e6 0.0
0.0 0.0 0.0

172884.05898961192 2.0734383875247244e7 0.0
2.0734383875247244e7 -1.2099739499848342e7 0.0
0.0 0.0 0.0

1.40454371447548e6 1.5189630650604976e7 0.0
1.5189630650604976e7 -1.9334933597569063e7 0.0
0.0 0.0 0.0

-3.816413578114466e6 2.069895322848848e7 0.0
2.069895322848848e7 1.6519340563072298e7 0.0
0.0 0.0 0.0

-1.0651609240231393e7 1.1834072512264986e7 0.0
1.1834072512264986e7 3.106265443295131e7 0.0
0.0 0.0 0.0

392341.9243683601 2.2430246859243147e7 0.0
2.2430246859243147e7 -8.92124031386597e6 0.0
0.0 0.0 0.0

699856.5514507702 1.8910423614607897e7 0.0
1.8910423614607897e7 4.1821781978889713e6 0.0
0.0 0.0 0.0

3.204999397607494e6 2.655409811148336e6 0.0
2.655409811148336e6 -3.510290087261224e7 0.0
0.0 0.0 0.0

-8.876957574744754e6 8.37213599273665e6 0.0
8.37213599273665e6 1.5878029730461948e7 0.0
0.0 0.0 0.0

-3.638447933845804e6 3.9067290682819426e7 0.0
3.9067290682819426e7 3.363695395124873e6 0.0
0.0 0.0 0.0

-5.176635120000547e6 1.978457553416652e7 0.0
1.978457553416652e7 2.133263552115175e7 0.0
0.0 0.0 0.0

-1.7391674913015668e6 1.7677278948537525e7 0.0
1.7677278948537525e7 -1.803944183762296e7 0.0
0.0 0.0 0.0

6.7179461708804555e6 2.0479737387920186e7 0.0
2.0479737387920186e7 7.037363408766005e6 0.0
0.0 0.0 0.0

-1.0076883981666297e7 3.7044981086007804e6 0.0
3.7044981086007804e6 1.5628208644648777e7 0.0
0.0 0.0 0.0

-5.744358297035152e6 1.1670562684182316e7 0.0
1.1670562684182316e7 5.931393989537882e6 0.0
0.0 0.0 0.0

-1.8512473461344298e6 1.7607211470505472e7 0.0
1.7607211470505472e7 -1.3842180194869e7 0.0
0.0 0.0 0.0

169474.50800392963 1.6671921299170252e7 0.0
1.6671921299170252e7 -1.1363459311281785e7 0.0
0.0 0.0 0.0

-6.594453345803273e6 1.8810471616339177e7 0.0
1.8810471616339177e7 1.7705784395268552e7 0.0
0.0 0.0 0.0

-1.538795113366425e6 1.6906797031336356e7 0.0
1.6906797031336356e7 -2.326134240390593e7 0.0
0.0 0.0 0.0

1.7087274179575704e6 1.2996577851117712e7 0.0
1.2996577851117712e7 -2.5832535937565632e7 0.0
0.0 0.0 0.0

-3.473430153469847e6 2.47260281097576e7 0.0
2.47260281097576e7 8.591254888343941e6 0.0
0.0 0.0 0.0

722592.0384121733 1.7069614153596632e7 0.0
1.7069614153596632e7 -1.9669599134418838e7 0.0
0.0 0.0 0.0

-1.0733009764899194e7 1.3935444693815866e7 0.0
1.3935444693815866e7 2.535548066941792e7 0.0
0.0 0.0 0.0

3.4836639967286894e6 5.304090054953924e6 0.0
5.304090054953924e6 -1.4350845127890069e7 0.0
0.0 0.0 0.0

-3.1111375006466776e7 3.154100823386369e7 0.0
3.154100823386369e7 -1.0895720864215689e7 0.0
0.0 0.0 0.0

1.46890187731202e6 7.335105817154591e6 0.0
7.335105817154591e6 -1.1029760031664137e7 0.0
0.0 0.0 0.0

3.739769954457001e6 2.7799228143381947e6 0.0
2.7799228143381947e6 -1.4109015169451792e7 0.0
0.0 0.0 0.0

-4.802607593290882e6 2.5621956974905547e7 0.0
2.5621956974905547e7 8.110058855032968e6 0.0
0.0 0.0 0.0

1.9970093409527072e6 1.7764917299936768e7 0.0
1.7764917299936768e7 6.656698339499089e6 0.0
0.0 0.0 0.0

4.335284253719082e6 2.10656249910537e7 0.0
2.10656249910537e7 -2.2024432540805503e6 0.0
0.0 0.0 0.0

-5.495182637810895e6 1.8207537709866934e7 0.0
1.8207537709866934e7 2.7187997975226e7 0.0
0.0 0.0 0.0

-2.65041665858588e6 1.8531673756988417e7 0.0
1.8531673756988417e7 2.9351837388981782e7 0.0
0.0 0.0 0.0

1.0611098569712989e7 1.8025591756318398e7 0.0
1.8025591756318398e7 5.1883254190105155e7 0.0
0.0 0.0 0.0

198837.78812365467 1.8119520219249155e7 0.0
1.8119520219249155e7 -3.7294221918621967e6 0.0
0.0 0.0 0.0

-4.20748905589342e6 2.0609924419445198e7 0.0
2.0609924419445198e7 1.730498332112433e7 0.0
0.0 0.0 0.0

-5.538254766803414e6 1.7802630532890312e7 0.0
1.7802630532890312e7 1.2439311033769332e7 0.0
0.0 0.0 0.0

-2.12053152506566e6 1.7543812075945307e7 0.0
1.7543812075945307e7 -1.6610918135238893e7 0.0
0.0 0.0 0.0

-3.641075258965043e6 2.4999985313105587e7 0.0
2.4999985313105587e7 6.468096472892557e6 0.0
0.0 0.0 0.0

-1.1083328040569859e7 1.1956694399151092e7 0.0
1.1956694399151092e7 2.8978028414643835e7 0.0
0.0 0.0 0.0

1.1898803750778861e7 2.463203500687346e7 0.0
2.463203500687346e7 -3.9280451880919943e6 0.0
0.0 0.0 0.0

517686.25971120223 2.1202289473848514e7 0.0
2.1202289473848514e7 -1.1014543530695932e7 0.0
0.0 0.0 0.0

2.736947779817652e6 6.9710756788880825e6 0.0
6.9710756788880825e6 -2.340725092076022e7 0.0
0.0 0.0 0.0

4.0481782878629793e6 2.2864340330650657e7 0.0
2.2864340330650657e7 -6.834160002847305e6 0.0
0.0 0.0 0.0

-968270.2483218757 2.631205998591316e7 0.0
2.631205998591316e7 -1.261029653466407e6 0.0
0.0 0.0 0.0

-6.63236543955349e6 1.8147537200863462e7 0.0
1.8147537200863462e7 -2.2107890809995193e7 0.0
0.0 0.0 0.0

8.448930160083262e6 1.9927245111777667e7 0.0
1.9927245111777667e7 2.8163109481746417e7 0.0
0.0 0.0 0.0

-8.627698646034632e6 -455215.68711683806 0.0
-455215.68711683806 4.143064723979763e7 0.0
0.0 0.0 0.0

1.2894804218649622e6 2.0517213698615056e7 0.0
2.0517213698615056e7 6.576995171435381e6 0.0
0.0 0.0 0.0

-8.974855362169152e6 -1.7181961338624016e6 0.0
-1.7181961338624016e6 3.395513699436222e7 0.0
0.0 0.0 0.0

204196.54164602957 2.679832534188473e7 0.0
2.679832534188473e7 -3.083440615321637e6 0.0
0.0 0.0 0.0

3.451874978068268e6 2.5257817848895796e7 0.0
2.5257817848895796e7 -6.538052980246689e6 0.0
0.0 0.0 0.0

-2.9570589669346577e6 3.7478532761395335e7 0.0
3.7478532761395335e7 2.3682282363008717e6 0.0
0.0 0.0 0.0

8.231286768313589e6 1.893850184020592e7 0.0
1.893850184020592e7 8.19296421880447e6 0.0
0.0 0.0 0.0

-1.0594398063818293e7 1.090075399261152e7 0.0
1.090075399261152e7 3.1497781432793446e7 0.0
0.0 0.0 0.0

-15154.244239458581 2.7327205366428524e7 0.0
2.7327205366428524e7 -2.190145864637318e6 0.0
0.0 0.0 0.0

-4.198102221913933e6 2.09694257004013e7 0.0
2.09694257004013e7 1.1776662977566868e7 0.0
0.0 0.0 0.0

-3.3888488406743305e6 2.359520834679099e7 0.0
2.359520834679099e7 6.796878446706992e6 0.0
0.0 0.0 0.0

1.923153843325816e6 8.871990234269287e6 0.0
8.871990234269287e6 -3.985257936308471e7 0.0
0.0 0.0 0.0

-3.762441789150876e6 2.4630071107840613e7 0.0
2.4630071107840613e7 9.317147225642186e6 0.0
0.0 0.0 0.0

1.4636836683616934e7 1.6148017635582013e7 0.0
1.6148017635582013e7 4.123461901658322e6 0.0
0.0 0.0 0.0

1.7791137799286097e6 1.3565982759879088e7 0.0
1.3565982759879088e7 -2.293223926136555e7 0.0
0.0 0.0 0.0

-6.9837477175877355e6 2.6795140832956536e6 0.0
2.6795140832956536e6 5.859135006170122e7 0.0
0.0 0.0 0.0

-1.265347670947254e6 2.834884835907705e7 0.0
2.834884835907705e7 600074.829199268 0.0
0.0 0.0 0.0

2.71050019165857e6 2.0781628310579244e7 0.0
2.0781628310579244e7 6.239977859906503e6 0.0
0.0 0.0 0.0

-8.580158698981239e7 7.765425288403533e7 0.0
7.765425288403533e7 -1.1996159291390954e7 0.0
0.0 0.0 0.0

3.3950990420226427e6 4.113302691528926e6 0.0
4.113302691528926e6 -1.9018080027261883e7 0.0
0.0 0.0 0.0

-2.1634232720265696e6 2.0151211758436408e7 0.0
2.0151211758436408e7 -944376.3765509662 0.0
0.0 0.0 0.0

-1.6217568295537207e7 2.6701824859939266e7 0.0
2.6701824859939266e7 3.35216003358447e6 0.0
0.0 0.0 0.0

-328894.79352002405 1.9472298169201788e7 0.0
1.9472298169201788e7 -1.4145723086438265e7 0.0
0.0 0.0 0.0

287418.92839766666 2.0653900066693135e7 0.0
2.0653900066693135e7 -1.2549138571217878e7 0.0
0.0 0.0 0.0

9.995798790312523e6 2.160916948223516e7 0.0
2.160916948223516e7 512965.84018850746 0.0
0.0 0.0 0.0

-3.0310011442917697e6 3.215963384219743e7 0.0
3.215963384219743e7 2.890081124137273e6 0.0
0.0 0.0 0.0

-3.5352407513524955e6 2.06083120952032e7 0.0
2.06083120952032e7 -1.1727411325095255e7 0.0
0.0 0.0 0.0

2.842861948559964e6 5.060929161694273e6 0.0
5.060929161694273e6 -4.2306658646552265e7 0.0
0.0 0.0 0.0

-2.8968335397264596e7 2.886964162380938e7 0.0
2.886964162380938e7 -7.119908095794269e6 0.0
0.0 0.0 0.0

-3.550340261620735e6 2.0362191052691825e7 0.0
2.0362191052691825e7 1.2825151753208416e7 0.0
0.0 0.0 0.0

3.1337673876640075e6 2.4387901571430404e7 0.0
2.4387901571430404e7 -7.086723495512259e6 0.0
0.0 0.0 0.0

-727838.7446986958 1.7961658253700044e7 0.0
1.7961658253700044e7 3.742272289162733e7 0.0
0.0 0.0 0.0

1.3113395360642005e7 2.3234861026974794e7 0.0
2.3234861026974794e7 -2.928299877804648e6 0.0
0.0 0.0 0.0

-4.0551639210328674e6 2.301319399816103e7 0.0
2.301319399816103e7 1.203371022771902e7 0.0
0.0 0.0 0.0

-471480.2162484047 1.7378341779397037e7 0.0
1.7378341779397037e7 -1.2516953227156015e7 0.0
0.0 0.0 0.0

6.320225591423307e6 1.1766954522908164e7 0.0
1.1766954522908164e7 4.1626594228801597e6 0.0
0.0 0.0 0.0

2.406656324279659e6 2.155134206515034e7 0.0
2.155134206515034e7 -7.487985917881113e6 0.0
0.0 0.0 0.0

-5.527408098601513e6 1.915936248321668e7 0.0
1.915936248321668e7 2.366917499717658e7 0.0
0.0 0.0 0.0

-5.940133174324993e6 6.155976475176567e6 0.0
6.155976475176567e6 6.139031128497664e7 0.0
0.0 0.0 0.0

-6.345262261498906e6 820811.5699903651 0.0
820811.5699903651 6.446043571949298e7 0.0
0.0 0.0 0.0

-697573.6613087174 1.9226462456016682e7 0.0
1.9226462456016682e7 -1.1186976552208591e7 0.0
0.0 0.0 0.0

534943.7025624141 2.03077103785785e7 0.0
2.03077103785785e7 -1.2075062982919464e7 0.0
0.0 0.0 0.0

431819.1770909643 2.061133551373929e7 0.0
2.061133551373929e7 -1.2634439812097726e7 0.0
0.0 0.0 0.0

-1.2068993549401315e7 2.3434175084107764e7 0.0
2.3434175084107764e7 -3.406412579989903e6 0.0
0.0 0.0 0.0

1.819206858340518e7 2.120849644619831e7 0.0
2.120849644619831e7 9.772662411793496e6 0.0
0.0 0.0 0.0

-5.781191816877777e6 1.984751469316928e7 0.0
1.984751469316928e7 2.0300124979943022e7 0.0
0.0 0.0 0.0

631298.4540270865 2.0542248573154178e7 0.0
2.0542248573154178e7 -1.256582906606862e7 0.0
0.0 0.0 0.0

-775304.0743915099 1.6597361170064347e7 0.0
1.6597361170064347e7 -1.1120735510617381e7 0.0
0.0 0.0 0.0

-9.454864928273056e6 -3.146773056909697e6 0.0
-3.146773056909697e6 2.277592459411146e7 0.0
0.0 0.0 0.0

5060.677213238552 1.3786783368327877e7 0.0
1.3786783368327877e7 -3.10769049914165e7 0.0
0.0 0.0 0.0

-1.0131917568455113e7 681731.8738603661 0.0
681731.8738603661 3.24183199703117e7 0.0
0.0 0.0 0.0

-8.788640747832537e6 -4.670789890323977e6 0.0
-4.670789890323977e6 2.557027139653934e7 0.0
0.0 0.0 0.0

-8.733915267956825e6 -4.993020459695514e6 0.0
-4.993020459695514e6 2.479297045581588e7 0.0
0.0 0.0 0.0

-4.90448644543005e6 1.1504409462277707e7 0.0
1.1504409462277707e7 8.84194442021264e6 0.0
0.0 0.0 0.0

663496.5801400188 1.5959889245381074e7 0.0
1.5959889245381074e7 -1.8559603243385598e7 0.0
0.0 0.0 0.0

559423.6974902768 1.3633748164028434e7 0.0
1.3633748164028434e7 -3.083480535105127e7 0.0
0.0 0.0 0.0

-1.0941129190394136e6 1.9466452188313354e7 0.0
1.9466452188313354e7 -4.890599371789658e6 0.0
0.0 0.0 0.0

2.179726607718611e6 2.169585997815819e7 0.0
2.169585997815819e7 -8.816300392839342e6 0.0
0.0 0.0 0.0

4.735543845098517e6 2.0923316953859106e7 0.0
2.0923316953859106e7 259501.59688359872 0.0
0.0 0.0 0.0

-634353.0688835252 2.487966285435349e7 0.0
2.487966285435349e7 -3.854501924187769e6 0.0
0.0 0.0 0.0

5.283728751747133e7 2.5023602047678955e7 0.0
2.5023602047678955e7 7.776769060382407e6 0.0
0.0 0.0 0.0

7.107968509428388e6 1.5521964240325015e7 0.0
1.5521964240325015e7 9.30471855183315e6 0.0
0.0 0.0 0.0

3.7103001721300585e6 2.1305236110663813e7 0.0
2.1305236110663813e7 -4.215608818690808e6 0.0
0.0 0.0 0.0

4.211732681832023e6 2.544433915579396e7 0.0
2.544433915579396e7 -6.246005574240387e6 0.0
0.0 0.0 0.0

-539662.1345421956 2.8166727910517927e7 0.0
2.8166727910517927e7 -728960.9945408751 0.0
0.0 0.0 0.0

549552.482681578 1.787573426829048e7 0.0
1.787573426829048e7 -1.8454495275620576e7 0.0
0.0 0.0 0.0

-1.7648782205381155e7 2.5907828247755796e7 0.0
2.5907828247755796e7 713271.776421993 0.0
0.0 0.0 0.0

-5.569522186282251e6 2.6131609231569454e7 0.0
2.6131609231569454e7 7.658512881766228e6 0.0
0.0 0.0 0.0

3.945634638934057e6 2.260158999829651e6 0.0
2.260158999829651e6 -2.145839481060127e7 0.0
0.0 0.0 0.0

-1.3813401965139876e6 2.61133967445617e7 0.0
2.61133967445617e7 -2.490960587636949e6 0.0
0.0 0.0 0.0

-5.653742428741018e6 4.055830057119517e7 0.0
4.055830057119517e7 3.608027628308161e6 0.0
0.0 0.0 0.0

-2.1943405806564717e6 1.5196469816214861e7 0.0
1.5196469816214861e7 -6.765841680545286e6 0.0
0.0 0.0 0.0

1.642461915946505e6 1.3563732377028903e7 0.0
1.3563732377028903e7 -2.448700671321492e7 0.0
0.0 0.0 0.0

1.0036720808895659e6 1.326845712691869e7 0.0
1.326845712691869e7 -2.9273953835928205e7 0.0
0.0 0.0 0.0

-212829.06169110537 1.4531916109343484e7 0.0
1.4531916109343484e7 -3.0781046169052858e7 0.0
0.0 0.0 0.0

1.0565091807325369e7 3.56198402601863e7 0.0
3.56198402601863e7 -4.431995028787322e6 0.0
0.0 0.0 0.0

711351.5363043533 2.0372350307283454e7 0.0
2.0372350307283454e7 -1.2433755601372747e7 0.0
0.0 0.0 0.0

5.273853979634507e6 1.917819139566111e7 0.0
1.917819139566111e7 3.1187929708833363e7 0.0
0.0 0.0 0.0

-2.2638504982039914e7 2.074272266015722e7 0.0
2.074272266015722e7 5.400664415791926e6 0.0
0.0 0.0 0.0

-6.60883328749817e7 3.3197667424519796e7 0.0
3.3197667424519796e7 -5.271428163922396e6 0.0
0.0 0.0 0.0

1.9507025314816125e6 6.3539025236771945e6 0.0
6.3539025236771945e6 -5.3502601581206664e7 0.0
0.0 0.0 0.0

2.872977661091273e6 2.1524282149252307e7 0.0
2.1524282149252307e7 -5.992193542753935e6 0.0
0.0 0.0 0.0

3.6457060752280597e6 2.3668660309177987e7 0.0
2.3668660309177987e7 -7.04583113827849e6 0.0
0.0 0.0 0.0

3.880074000795709e6 2.3526253753289157e6 0.0
2.3526253753289157e6 -2.0278007773614537e7 0.0
0.0 0.0 0.0

-1.6021627687198637e7 2.4437327571674395e7 0.0
2.4437327571674395e7 -5.399527267219644e6 0.0
0.0 0.0 0.0

-1.405583687503321e6 1.9152863753384765e7 0.0
1.9152863753384765e7 2.0959053532848183e7 0.0
0.0 0.0 0.0

7.332793308916427e6 1.8567651711076137e7 0.0
1.8567651711076137e7 1.297333133553687e7 0.0
0.0 0.0 0.0

-7.864299091321096e6 -5.448979257250386e6 0.0
-5.448979257250386e6 2.0932422591472432e7 0.0
0.0 0.0 0.0

668699.0792683084 1.6138111620868156e7 0.0
1.6138111620868156e7 -2.2270255167490218e7 0.0
0.0 0.0 0.0

2.0421004216549518e6 1.020715537603141e7 0.0
1.020715537603141e7 -2.1389403150630187e7 0.0
0.0 0.0 0.0

638092.1950933607 8.747596540302986e6 0.0
8.747596540302986e6 -5.171121590448575e6 0.0
0.0 0.0 0.0

-8.726462659443108e6 -5.299187101760643e6 0.0
-5.299187101760643e6 1.7859148472571854e7 0.0
0.0 0.0 0.0

5.101835677934319e6 1.8705212758944012e7 0.0
1.8705212758944012e7 7.727101920788941e7 0.0
0.0 0.0 0.0

-9.391350713812323e6 4.599928942367636e6 0.0
4.599928942367636e6 4.151397957222224e7 0.0
0.0 0.0 0.0

2.507834148962834e6 2.9111436836092137e7 0.0
2.9111436836092137e7 -3.2414982046653135e6 0.0
0.0 0.0 0.0

-2.337011399691942e6 1.9767083944419786e7 0.0
1.9767083944419786e7 43202.16128072748 0.0
0.0 0.0 0.0

-2.105591299427561e6 1.7286040927036703e7 0.0
1.7286040927036703e7 -1.2284435120469071e7 0.0
0.0 0.0 0.0

1.9013495881155836e6 2.3443199194330495e7 0.0
2.3443199194330495e7 -8.392424128966251e6 0.0
0.0 0.0 0.0

-3.848537383618239e6 2.5117867873082675e7 0.0
2.5117867873082675e7 7.24070416344136e6 0.0
0.0 0.0 0.0

6.139154083756571e6 4.1414039881816365e7 0.0
4.1414039881816365e7 -1.2188166999818436e6 0.0
0.0 0.0 0.0

2.999087355602243e6 4.351057740928686e6 0.0
4.351057740928686e6 -1.1196623103105614e7 0.0
0.0 0.0 0.0

-9.571473024884256e6 -3.162063693474436e6 0.0
-3.162063693474436e6 2.2904158179344717e7 0.0
0.0 0.0 0.0

-159432.00620357506 1.8489855463033214e7 0.0
1.8489855463033214e7 2.3002287213212852e6 0.0
0.0 0.0 0.0

-9.034075550655652e6 2.684797329885969e7 0.0
2.684797329885969e7 6.336702906511536e6 0.0
0.0 0.0 0.0

-2.138792381233762e6 1.9080655435406514e7 0.0
1.9080655435406514e7 2.369617711830022e7 0.0
0.0 0.0 0.0

-1.0987293102371896e7 1.292175703702462e7 0.0
1.292175703702462e7 2.6410810639574315e7 0.0
0.0 0.0 0.0

1.3180391086866278e6 1.4653419295379588e7 0.0
1.4653419295379588e7 -2.3432253390285764e7 0.0
0.0 0.0 0.0

-1.6383093198821646e8 2.6722708807199754e7 0.0
2.6722708807199754e7 -1.0824861189312354e7 0.0
0.0 0.0 0.0

-1.1167044433043601e7 1.1633273271180065e7 0.0
1.1633273271180065e7 2.7653348182718523e7 0.0
0.0 0.0 0.0

-7.598085963987498e6 2.677375956251368e7 0.0
2.677375956251368e7 6.782493100690716e6 0.0
0.0 0.0 0.0

513011.5635817619 1.7451664382626496e7 0.0
1.7451664382626496e7 -1.9612794265463468e7 0.0
0.0 0.0 0.0

-1.2554206986144036e6 1.523885476096348e7 0.0
1.523885476096348e7 -3.012499473261225e7 0.0
0.0 0.0 0.0

4.594360518148773e6 3.919751350983337e7 0.0
3.919751350983337e7 -830928.6302563676 0.0
0.0 0.0 0.0

-1.6232662263168944e6 1.6043906444240853e7 0.0
1.6043906444240853e7 -2.7471620347739745e7 0.0
0.0 0.0 0.0

731132.2620406998 2.0172134503332075e7 0.0
2.0172134503332075e7 -1.203145772643332e7 0.0
0.0 0.0 0.0

661548.1740110113 1.8881488188323606e7 0.0
1.8881488188323606e7 4.51555968874562e6 0.0
0.0 0.0 0.0

1.3715214613221758e6 3.2520473096088838e7 0.0
3.2520473096088838e7 -504226.86911868956 0.0
0.0 0.0 0.0

-1.0724232710105147e7 2.6725512304284077e7 0.0
2.6725512304284077e7 5.624056970263392e6 0.0
0.0 0.0 0.0

999424.1681762272 1.567577455212748e7 0.0
1.567577455212748e7 -2.2200355507447608e7 0.0
0.0 0.0 0.0

484251.90772615746 2.0025253740815822e7 0.0
2.0025253740815822e7 -1.3044049722235905e7 0.0
0.0 0.0 0.0

-2.789178295149138e6 2.5257668751281865e7 0.0
2.5257668751281865e7 2.098986920511594e6 0.0
0.0 0.0 0.0

-6.438220275151668e6 2.6498368205748275e7 0.0
2.6498368205748275e7 7.219686641924977e6 0.0
0.0 0.0 0.0

-8.681647125234071e6 -3.4552490073248735e6 0.0
-3.4552490073248735e6 3.3126819131555133e7 0.0
0.0 0.0 0.0

-6.081795169453514e6 1.850348994682534e7 0.0
1.850348994682534e7 1.9506287477233723e7 0.0
0.0 0.0 0.0

-1.9185441439818097e6 1.6648993674779044e7 0.0
1.6648993674779044e7 -2.4897249447345193e7 0.0
0.0 0.0 0.0

1.809944809012053e7 2.035903317021875e7 0.0
2.035903317021875e7 2.6054634059744217e6 0.0
0.0 0.0 0.0

231605.25752551388 1.6480822122601923e7 0.0
1.6480822122601923e7 -2.228798344087327e7 0.0
0.0 0.0 0.0

-440712.7108906655 1.9154216379204202e7 0.0
1.9154216379204202e7 -2.957077909292138e6 0.0
0.0 0.0 0.0

-1.0419718262039926e7 9.409595092749203e6 0.0
9.409595092749203e6 3.3133102126549955e7 0.0
0.0 0.0 0.0

-6.548938290863602e6 2.1472972033873208e7 0.0
2.1472972033873208e7 -1.1854220263738927e7 0.0
0.0 0.0 0.0

-1.3206456189156692e6 1.7293491411524616e7 0.0
1.7293491411524616e7 -6.563530361599953e6 0.0
0.0 0.0 0.0

-84099.71046252456 1.9819000830460012e7 0.0
1.9819000830460012e7 -1.2158925272337083e7 0.0
0.0 0.0 0.0

-1.2826072141231064e7 4.462128216240165e7 0.0
4.462128216240165e7 5.606432016309839e6 0.0
0.0 0.0 0.0

-4.9780698675707445e7 1.5571484549967404e7 0.0
1.5571484549967404e7 5.713587480923943e6 0.0
0.0 0.0 0.0

2.4430018952394985e6 2.9942668223615546e7 0.0
2.9942668223615546e7 -3.695771074270432e6 0.0
0.0 0.0 0.0

-8.297991348457275e6 4.243103499849511e7 0.0
4.243103499849511e7 4.672733971404079e6 0.0
0.0 0.0 0.0

2.396991204080267e7 5.395511033876206e7 0.0
5.395511033876206e7 -3.306388128724006e6 0.0
0.0 0.0 0.0

-454535.73437710106 1.485223051229551e7 0.0
1.485223051229551e7 -2.879196546604596e7 0.0
0.0 0.0 0.0

-8.360419521451629e6 1.7106423348189335e7 0.0
1.7106423348189335e7 -3.1493557793233767e7 0.0
0.0 0.0 0.0

-4.234928437738402e6 2.4387177600577854e7 0.0
2.4387177600577854e7 9.556181257199671e6 0.0
0.0 0.0 0.0

-1.1363893443466296e7 1.2327234688605366e7 0.0
1.2327234688605366e7 2.7206500516647495e7 0.0
0.0 0.0 0.0

-1.1040444153991126e7 2.364101618472743e7 0.0
2.364101618472743e7 2.8285264979986586e6 0.0
0.0 0.0 0.0

674510.658636665 1.906095481783431e7 0.0
1.906095481783431e7 7.941196719201397e6 0.0
0.0 0.0 0.0

-274403.3486966174 1.8120205041413676e7 0.0
1.8120205041413676e7 -9.846741236716557e6 0.0
0.0 0.0 0.0

7.917614221049483e6 4.411211465607216e7 0.0
4.411211465607216e7 -1.9147222674293458e6 0.0
0.0 0.0 0.0

1.7266890899752853e6 2.2663865651888e7 0.0
2.2663865651888e7 -9.110931605801197e6 0.0
0.0 0.0 0.0

2.5689549417859996e6 1.9859054507663313e7 0.0
1.9859054507663313e7 -3.792929901743689e6 0.0
0.0 0.0 0.0

3.3910290739176534e6 1.700899337590522e6 0.0
1.700899337590522e6 -3.685688154727185e7 0.0
0.0 0.0 0.0

-4.13641810280769e6 2.51280161345649e7 0.0
2.51280161345649e7 7.945238828306492e6 0.0
0.0 0.0 0.0

-2.9551203584144823e6 1.8984044204487894e7 0.0
1.8984044204487894e7 4.87082752475661e6 0.0
0.0 0.0 0.0

1.551760671744463e6 1.2476334444271736e7 0.0
1.2476334444271736e7 -1.4505629342546893e7 0.0
0.0 0.0 0.0

-1.088515726791229e6 1.5370808948649745e7 0.0
1.5370808948649745e7 -3.0347759765283283e7 0.0
0.0 0.0 0.0

-3.3705767186785797e6 2.0670220726390034e7 0.0
2.0670220726390034e7 1.7809490802933253e7 0.0
0.0 0.0 0.0

-3.361934761087479e6 1.877028651940284e7 0.0
1.877028651940284e7 2.6294889394802112e7 0.0
0.0 0.0 0.0

-961994.2139902745 1.740326429908549e7 0.0
1.740326429908549e7 -4.2019192319161035e6 0.0
0.0 0.0 0.0

4.625004861725231e6 2.4618415976623327e7 0.0
2.4618415976623327e7 -6.326779067654982e6 0.0
0.0 0.0 0.0

-3.5829200430248333e6 2.4124281772521682e7 0.0
2.4124281772521682e7 9.590223650211433e6 0.0
0.0 0.0 0.0

-7.511521590191957e6 2.7218410483045853e6 0.0
2.7218410483045853e6 5.230000202073673e7 0.0
0.0 0.0 0.0

-4.221603048657832e6 1.2475702507951956e7 0.0
1.2475702507951956e7 7.162526397925362e6 0.0
0.0 0.0 0.0

-54660.411040458595 1.8441265886845842e7 0.0
1.8441265886845842e7 -5.683419292329968e6 0.0
0.0 0.0 0.0

-5.340583586532516e6 2.5365786749315217e7 0.0
2.5365786749315217e7 8.48829477478403e6 0.0
0.0 0.0 0.0

-3.847920109531901e6 2.0805073664863545e7 0.0
2.0805073664863545e7 1.451324712630882e7 0.0
0.0 0.0 0.0

2.106137626532997e6 1.2628950909736073e7 0.0
1.2628950909736073e7 -2.025220984277604e7 0.0
0.0 0.0 0.0

-1.6997188841109653e6 2.750442859335636e7 0.0
2.750442859335636e7 1.1506733712706447e6 0.0
0.0 0.0 0.0

2.021377156751459e6 3.406283541199015e7 0.0
3.406283541199015e7 -591677.9741854839 0.0
0.0 0.0 0.0

-2.6334942245834162e6 2.2108767163827505e7 0.0
2.2108767163827505e7 5.356210654603033e6 0.0
0.0 0.0 0.0

1.5115567481986098e6 1.4646762679988844e7 0.0
1.4646762679988844e7 -2.189535360188194e7 0.0
0.0 0.0 0.0

-1.2876976489669932e6 2.782346899492356e7 0.0
2.782346899492356e7 -1.2682734380989303e6 0.0
0.0 0.0 0.0

2.303053443327784e6 2.4180386682482757e7 0.0
2.4180386682482757e7 -7.618767785646958e6 0.0
0.0 0.0 0.0

126647.40484481491 1.9109379547099203e7 0.0
1.9109379547099203e7 2.81051768758161e7 0.0
0.0 0.0 0.0

-2.7989008780149953e6 2.1493832481805276e7 0.0
2.1493832481805276e7 6.542456811773969e6 0.0
0.0 0.0 0.0

-4.451502486071633e6 2.701127267007548e7 0.0
2.701127267007548e7 5.708095610219997e6 0.0
0.0 0.0 0.0

-8.791220370558323e6 218136.53292546995 0.0
218136.53292546995 4.109043044456465e7 0.0
0.0 0.0 0.0

1.6261747603804818e6 3.321992439087961e7 0.0
3.321992439087961e7 -497597.92431993794 0.0
0.0 0.0 0.0

3.4432513259806987e6 1.76116965799338e6 0.0
1.76116965799338e6 -3.584801133201327e7 0.0
0.0 0.0 0.0

-550176.5320726166 2.577223320797913e7 0.0
2.577223320797913e7 -4.588379563127671e6 0.0
0.0 0.0 0.0

-8.753681874892313e6 -1.7683062210824273e6 0.0
-1.7683062210824273e6 3.624640003619728e7 0.0
0.0 0.0 0.0

-1.4022543887011043e6 1.6742082205366306e7 0.0
1.6742082205366306e7 -4.619037589258843e6 0.0
0.0 0.0 0.0

-1.0396248000692284e7 2.5369800219748348e7 0.0
2.5369800219748348e7 4.2276433234847225e6 0.0
0.0 0.0 0.0

-2.0345359969648484e6 2.0539958634160407e7 0.0
2.0539958634160407e7 -3.5457883808892835e6 0.0
0.0 0.0 0.0

-3.5851672930697077e6 2.0728310693652067e7 0.0
2.0728310693652067e7 -5.622350280025112e6 0.0
0.0 0.0 0.0

-1.5876537169923666e6 1.850165279869562e7 0.0
1.850165279869562e7 -1.7798558333777778e7 0.0
0.0 0.0 0.0

-1.0368158677282972e7 1.4056415453469507e7 0.0
1.4056415453469507e7 2.8237461453002308e7 0.0
0.0 0.0 0.0

1.2341275386365647e6 1.9575646772772215e7 0.0
1.9575646772772215e7 1.0264129951976364e7 0.0
0.0 0.0 0.0

3.0084065151750594e6 8.50578600114888e6 0.0
8.50578600114888e6 -2.6371228354536615e7 0.0
0.0 0.0 0.0

2.585865682521388e6 1.937416933032996e7 0.0
1.937416933032996e7 2.6570579500166006e7 0.0
0.0 0.0 0.0

-1.0696308020422867e7 1.8629874733902544e7 0.0
1.8629874733902544e7 -6.372721127775214e7 0.0
0.0 0.0 0.0

-3.97786025308411e6 1.9715621800233908e7 0.0
1.9715621800233908e7 1.4347955647608109e7 0.0
0.0 0.0 0.0

-1.9542388477114849e6 2.80278217137381e7 0.0
2.80278217137381e7 105255.68567925086 0.0
0.0 0.0 0.0

-3.0615671554314615e6 2.1514345194989834e7 0.0
2.1514345194989834e7 1.7877560471832629e6 0.0
0.0 0.0 0.0

718425.9921540772 2.1258276039260585e7 0.0
2.1258276039260585e7 -1.1287508583290095e7 0.0
0.0 0.0 0.0

2.1782994318414805e6 2.046785807891512e7 0.0
2.046785807891512e7 -7.288660224044695e6 0.0
0.0 0.0 0.0

-4.426724840828536e6 2.5078853226086296e7 0.0
2.5078853226086296e7 8.572081563317707e6 0.0
0.0 0.0 0.0

-4.077858959231658e6 2.0625941102367718e7 0.0
2.0625941102367718e7 1.839940796541641e7 0.0
0.0 0.0 0.0

-3.2915775330966264e6 1.8920962329848815e7 0.0
1.8920962329848815e7 2.650337242160966e7 0.0
0.0 0.0 0.0

-4.1293804826796316e6 1.7893333974780712e7 0.0
1.7893333974780712e7 -1.768835661918868e7 0.0
0.0 0.0 0.0

796679.9521293677 1.541843179608201e7 0.0
1.541843179608201e7 -1.969409466747059e7 0.0
0.0 0.0 0.0

-2.575563279760869e6 2.059570100826571e7 0.0
2.059570100826571e7 1.689042099606284e7 0.0
0.0 0.0 0.0

1.1439685942797698e6 1.0316034595965646e7 0.0
1.0316034595965646e7 -3.705320573546842e7 0.0
0.0 0.0 0.0

-2.7058746284506298e6 1.9522310896956764e7 0.0
1.9522310896956764e7 -1.1401157187807893e7 0.0
0.0 0.0 0.0

2.543402263929611e6 3.508116710778658e7 0.0
3.508116710778658e7 -533844.7691827804 0.0
0.0 0.0 0.0

1.9298919992417563e6 1.8632585796084445e7 0.0
1.8632585796084445e7 2.263408129556146e7 0.0
0.0 0.0 0.0

2.2162149687907334e7 2.4572245628862284e7 0.0
2.4572245628862284e7 7.38737984869554e7 0.0
0.0 0.0 0.0

-2.235250345845462e7 2.3189972580621447e7 0.0
2.3189972580621447e7 -7.450831335036056e7 0.0
0.0 0.0 0.0

-3.5713849311751947e6 1.898398832989221e7 0.0
1.898398832989221e7 2.814485609262797e6 0.0
0.0 0.0 0.0

-2.7412172284759954e7 3.596599694034356e7 0.0
3.596599694034356e7 7.555501246517759e6 0.0
0.0 0.0 0.0

-1.5419319641015683e6 2.404545777138308e7 0.0
2.404545777138308e7 -4.212156755370465e6 0.0
0.0 0.0 0.0

-2.100605919518958e6 2.073957827787656e7 0.0
2.073957827787656e7 1.4475890039744802e7 0.0
0.0 0.0 0.0

1.3373105704723643e6 1.8750472195968427e7 0.0
1.8750472195968427e7 2.5655575241443142e7 0.0
0.0 0.0 0.0

7.244980541929761e6 2.008495203047723e7 0.0
2.008495203047723e7 4.4921087500552915e7 0.0
0.0 0.0 0.0

6.884478347080818e6 2.110826611848382e7 0.0
2.110826611848382e7 9.293061848781152e6 0.0
0.0 0.0 0.0

6.769753823201359e6 1.790682507344195e7 0.0
1.790682507344195e7 2.8424349417142674e7 0.0
0.0 0.0 0.0

4.0785386067443234e6 2.447045641537117e7 0.0
2.447045641537117e7 -6.559313533251473e6 0.0
0.0 0.0 0.0

777045.9972211365 1.895570212844191e7 0.0
1.895570212844191e7 1.6056409442247063e7 0.0
0.0 0.0 0.0

-2.46074799617494e6 1.9850851934273604e7 0.0
1.9850851934273604e7 1.7543943956922412e7 0.0
0.0 0.0 0.0

3.610425966523462e6 3.122358053301705e7 0.0
3.122358053301705e7 -2.4443115362770995e6 0.0
0.0 0.0 0.0

3.0160550527040614e6 2.0650736170781907e7 0.0
2.0650736170781907e7 1.2960465294286069e7 0.0
0.0 0.0 0.0

3.8421725845909733e6 2.1081360346622984e6 0.0
2.1081360346622984e6 -2.7807005882815126e7 0.0
0.0 0.0 0.0

-9.488640529466838e6 1.620593954507379e7 0.0
1.620593954507379e7 2.0570978692189604e7 0.0
0.0 0.0 0.0

-8.585067803271487e6 -3.377185204828424e6 0.0
-3.377185204828424e6 3.402027827123522e7 0.0
0.0 0.0 0.0

-4.972698691209333e6 2.0119853233554255e7 0.0
2.0119853233554255e7 2.010909955719094e7 0.0
0.0 0.0 0.0

550163.2044761974 2.8576540793828495e7 0.0
2.8576540793828495e7 -1.9359329044753239e6 0.0
0.0 0.0 0.0

5.664974029167823e6 2.059302486703677e7 0.0
2.059302486703677e7 1.699779864504917e7 0.0
0.0 0.0 0.0

4.0539045773418113e6 1.784522195679473e7 0.0
1.784522195679473e7 2.1216066908853013e7 0.0
0.0 0.0 0.0

-3.574944874411101e6 2.664802862617926e7 0.0
2.664802862617926e7 6.288231630594802e6 0.0
0.0 0.0 0.0

3.5580377198074013e6 4.170399858740324e6 0.0
4.170399858740324e6 -1.5309788151593382e7 0.0
0.0 0.0 0.0

-685138.6559846275 2.6370500910112984e7 0.0
2.6370500910112984e7 -3.7217035900082653e6 0.0
0.0 0.0 0.0

2.63252260379015e6 1.072841991694915e7 0.0
1.072841991694915e7 -2.171140774504707e7 0.0
0.0 0.0 0.0

-7.640624820872489e6 2.57598613732483e7 0.0
2.57598613732483e7 7.044162200287361e6 0.0
0.0 0.0 0.0

4.824456252642434e6 2.6376290270263184e7 0.0
2.6376290270263184e7 -5.776531267703982e6 0.0
0.0 0.0 0.0

-9.769420546296565e6 2.234904884672384e7 0.0
2.234904884672384e7 665727.9977652361 0.0
0.0 0.0 0.0

2.5389971916834675e6 1.7938900219831965e6 0.0
1.7938900219831965e6 -5.350118179852693e7 0.0
0.0 0.0 0.0

5.087353935588085e6 2.1017871160634376e7 0.0
2.1017871160634376e7 2.8451864586801943e6 0.0
0.0 0.0 0.0

1.612658858522155e6 2.7257165515024778e7 0.0
2.7257165515024778e7 -4.1109004617284304e6 0.0
0.0 0.0 0.0

635052.4225699278 2.375473372517306e7 0.0
2.375473372517306e7 -7.467816259630079e6 0.0
0.0 0.0 0.0

-2.160242650149258e6 1.8526221229002506e7 0.0
1.8526221229002506e7 -1.2447898678804515e7 0.0
0.0 0.0 0.0

3.3560939324437976e6 4.381491498022386e6 0.0
4.381491498022386e6 -2.5814316519812226e7 0.0
0.0 0.0 0.0

-3.285726867711355e6 2.273573268685105e7 0.0
2.273573268685105e7 6.204794973806746e6 0.0
0.0 0.0 0.0

464007.0770299919 1.30533881027422e7 0.0
1.30533881027422e7 -3.1149091963896725e7 0.0
0.0 0.0 0.0

-8.494780062213173e6 -2.946718473709011e6 0.0
-2.946718473709011e6 3.7620453400951244e7 0.0
0.0 0.0 0.0

-5.2544296969569605e6 1.9014611883806467e7 0.0
1.9014611883806467e7 1.7896973468528714e7 0.0
0.0 0.0 0.0

-1.4447265698941477e7 2.5471662172382165e7 0.0
2.5471662172382165e7 3.3892240636811964e6 0.0
0.0 0.0 0.0

965037.05521328 5.7490578495689565e6 0.0
5.7490578495689565e6 -7.816619096020405e7 0.0
0.0 0.0 0.0

-4.713053952452047e6 1.6299324795528414e7 0.0
1.6299324795528414e7 3.638367541375867e7 0.0
0.0 0.0 0.0

-516662.1870972747 1.979456993377745e7 0.0
1.979456993377745e7 2.1883300504535772e7 0.0
0.0 0.0 0.0

-1.9220197954914737e6 1.8096836839263648e7 0.0
1.8096836839263648e7 3.256725031004373e7 0.0
0.0 0.0 0.0

-2.5068253999922117e6 2.0246394999020077e7 0.0
2.0246394999020077e7 1.1463011122210505e6 0.0
0.0 0.0 0.0

-5.1121265697866e6 1.9431754019455086e7 0.0
1.9431754019455086e7 1.3906663174988741e7 0.0
0.0 0.0 0.0

-1.8280571000886327e6 1.858378924818255e7 0.0
1.858378924818255e7 -9.692466270720668e6 0.0
0.0 0.0 0.0

936207.2400054932 1.4866490365358893e7 0.0
1.4866490365358893e7 -2.0789459654700648e7 0.0
0.0 0.0 0.0

949225.0891616214 9.821069120292258e6 0.0
9.821069120292258e6 -4.578230581901794e7 0.0
0.0 0.0 0.0

-8.569384404744543e6 -3.172738105762945e6 0.0
-3.172738105762945e6 3.513073941402975e7 0.0
0.0 0.0 0.0

-7.936158466312338e6 -2.2980266452004057e6 0.0
-2.2980266452004057e6 4.372494053622032e7 0.0
0.0 0.0 0.0

-8.895548002272263e6 2.399282951813326e7 0.0
2.399282951813326e7 1.9072160043100761e6 0.0
0.0 0.0 0.0

793421.1728052595 2.1241248143369067e7 0.0
2.1241248143369067e7 -1.1597286936537465e7 0.0
0.0 0.0 0.0

-569429.6020120345 1.806546062257941e7 0.0
1.806546062257941e7 3.7564157251622394e7 0.0
0.0 0.0 0.0

-1.4139574633636798e6 1.8627863017117146e7 0.0
1.8627863017117146e7 -6.841132895883108e6 0.0
0.0 0.0 0.0

4.66436550383356e6 2.357354904672911e7 0.0
2.357354904672911e7 -6.310164240361633e6 0.0
0.0 0.0 0.0

-3.476632619183659e6 2.4282892995139975e7 0.0
2.4282892995139975e7 6.645587062215344e6 0.0
0.0 0.0 0.0

-9.253528144728167e6 -3.3168364642472286e6 0.0
-3.3168364642472286e6 2.39748259354486e7 0.0
0.0 0.0 0.0

1.2817858032367788e7 4.8017991325912744e7 0.0
4.8017991325912744e7 -2.7606967522273893e6 0.0
0.0 0.0 0.0

610259.6307902946 1.937412241878922e7 0.0
1.937412241878922e7 -9.127661840613352e6 0.0
0.0 0.0 0.0

-6.123347869189754e6 1.6477690610416899e7 0.0
1.6477690610416899e7 -5.098800505356826e7 0.0
0.0 0.0 0.0

3.7900185165713336e6 2.8955265796727156e6 0.0
2.8955265796727156e6 -3.3165140202335116e7 0.0
0.0 0.0 0.0

-384539.05380433146 1.8622998320354458e7 0.0
1.8622998320354458e7 -5.937486387525534e6 0.0
0.0 0.0 0.0

-6.9788964143873295e6 1.8118764592975665e7 0.0
1.8118764592975665e7 2.0795747597491194e7 0.0
0.0 0.0 0.0

-2.4311172767567765e7 2.1378720554197755e7 0.0
2.1378720554197755e7 5.667815030241989e6 0.0
0.0 0.0 0.0

-5.160386162891616e6 2.154841218653194e7 0.0
2.154841218653194e7 -9.133437358928747e6 0.0
0.0 0.0 0.0

5.6300040127975205e6 1.742062350763077e7 0.0
1.742062350763077e7 2.4684155594317757e7 0.0
0.0 0.0 0.0

-2.846323683899589e6 1.8130704008652337e7 0.0
1.8130704008652337e7 -1.3582221506914109e7 0.0
0.0 0.0 0.0

-9.79505119557141e6 -1.0138642386702406e6 0.0
-1.0138642386702406e6 2.3731862590289675e7 0.0
0.0 0.0 0.0

-919434.2212634552 1.967587305232566e7 0.0
1.967587305232566e7 -1.0044036913717272e7 0.0
0.0 0.0 0.0

-455541.7606903075 1.923881280491013e7 0.0
1.923881280491013e7 3.9059480573818977e6 0.0
0.0 0.0 0.0

-1.1548493689049901e6 2.0280232239040155e7 0.0
2.0280232239040155e7 1.5329215850093251e7 0.0
0.0 0.0 0.0

309978.98936882056 1.7622464963549256e7 0.0
1.7622464963549256e7 -1.6856282776259832e7 0.0
0.0 0.0 0.0

-1.6581787619709065e6 1.9518742949347895e7 0.0
1.9518742949347895e7 2.432415560982913e7 0.0
0.0 0.0 0.0

-133326.29495322914 1.8088616144641496e7 0.0
1.8088616144641496e7 92188.90401972982 0.0
0.0 0.0 0.0

880751.9926775317 2.1198738953357905e7 0.0
2.1198738953357905e7 -1.1766264059153287e7 0.0
0.0 0.0 0.0

4.362716416614644e6 2.01307639690166e7 0.0
2.01307639690166e7 -1.6305455943725023e6 0.0
0.0 0.0 0.0

1.1897474102135021e6 1.2710062161744012e7 0.0
1.2710062161744012e7 -2.765908324533804e7 0.0
0.0 0.0 0.0

-5.341403328176967e6 2.0221303712724727e7 0.0
2.0221303712724727e7 1.8874285588970594e7 0.0
0.0 0.0 0.0

-398473.7626960096 1.6546209602309095e7 0.0
1.6546209602309095e7 -8.514217427403126e6 0.0
0.0 0.0 0.0

-4.7764182691585094e7 2.852826518355462e7 0.0
2.852826518355462e7 2.2319697798630055e6 0.0
0.0 0.0 0.0

3.380501867078658e6 1.861955573286454e7 0.0
1.861955573286454e7 4.75193138721307e7 0.0
0.0 0.0 0.0

3.3368494760011025e6 1.6820766561386138e6 0.0
1.6820766561386138e6 -3.7907666641170844e7 0.0
0.0 0.0 0.0

-8.059285431337481e6 -2.3434746499248696e6 0.0
-2.3434746499248696e6 4.2277375638439484e7 0.0
0.0 0.0 0.0

-3.8615609323361665e6 1.5288711513769997e7 0.0
1.5288711513769997e7 -4.443788642988535e7 0.0
0.0 0.0 0.0

-1.5874755229838425e6 1.6318259015617114e7 0.0
1.6318259015617114e7 -2.7886635691019975e7 0.0
0.0 0.0 0.0

-2.2658349225067683e6 2.0163309608554598e7 0.0
2.0163309608554598e7 -5.325475972395188e6 0.0
0.0 0.0 0.0

-1.675792169128563e7 2.712083792143925e7 0.0
2.712083792143925e7 -1.0735977277648842e7 0.0
0.0 0.0 0.0

-5.472736073062737e6 1.857628382932354e7 0.0
1.857628382932354e7 2.6093019127494745e7 0.0
0.0 0.0 0.0

892745.8411042797 2.108580913848621e7 0.0
2.108580913848621e7 -1.1784473837183101e7 0.0
0.0 0.0 0.0

-6.924619527443621e6 -922506.9184846411 0.0
-922506.9184846411 5.63021530385186e7 0.0
0.0 0.0 0.0

-8.543129572746148e6 1.7255037210383486e7 0.0
1.7255037210383486e7 2.326558532690377e7 0.0
0.0 0.0 0.0

1.474136397942353e6 3.862647302242807e6 0.0
3.862647302242807e6 -7.272668984499803e7 0.0
0.0 0.0 0.0

-1.969833243124522e6 2.8626229405304525e7 0.0
2.8626229405304525e7 162522.24482492718 0.0
0.0 0.0 0.0

1.9500575813931301e6 2.279482430465331e6 0.0
2.279482430465331e6 -6.288363805800571e7 0.0
0.0 0.0 0.0

-2.2555514525542483e7 4.597600229815971e7 0.0
4.597600229815971e7 7.163636650536736e6 0.0
0.0 0.0 0.0

-6.757631738655966e6 -618489.2890161271 0.0
-618489.2890161271 5.892266060873551e7 0.0
0.0 0.0 0.0

1.396215198257763e6 1.303954395824628e7 0.0
1.303954395824628e7 -2.7554671268248152e7 0.0
0.0 0.0 0.0

-1.1049944547233215e7 2.5103851407811917e7 0.0
2.5103851407811917e7 4.662517221644844e6 0.0
0.0 0.0 0.0

-4.61643136949641e7 2.9189586671096828e7 0.0
2.9189586671096828e7 -1.636240364100838e6 0.0
0.0 0.0 0.0

1.714523677010771e6 2.9863586693234355e6 0.0
2.9863586693234355e6 -6.753346717803858e7 0.0
0.0 0.0 0.0

-2.9550613557338743e6 2.342710948564652e7 0.0
2.342710948564652e7 2.7793665143577075e6 0.0
0.0 0.0 0.0

-3.5408950940327942e6 2.1548987871335052e7 0.0
2.1548987871335052e7 1.3671550584371636e7 0.0
0.0 0.0 0.0

1.5980976582612293e7 1.7030740496558245e7 0.0
1.7030740496558245e7 6.9444460318204705e6 0.0
0.0 0.0 0.0

-538627.2456469862 1.6075371808272948e7 0.0
1.6075371808272948e7 -2.4555089305018324e7 0.0
0.0 0.0 0.0

-2.1781403073154325e6 1.705302940218974e7 0.0
1.705302940218974e7 -2.548695926991552e7 0.0
0.0 0.0 0.0

-158845.4629136189 2.3287185007614635e7 0.0
2.3287185007614635e7 -8.223384319725522e6 0.0
0.0 0.0 0.0

-1.9932321051044092e6 2.9178602042308796e7 0.0
2.9178602042308796e7 260771.6329803638 0.0
0.0 0.0 0.0

-1.021955566644851e7 1.1938774373872917e7 0.0
1.1938774373872917e7 3.2035847095499814e7 0.0
0.0 0.0 0.0

2.3267586438755356e6 1.8546350580804264e6 0.0
1.8546350580804264e6 -5.671938679326006e7 0.0
0.0 0.0 0.0

-1.0929781587721534e7 3.2619446477149345e7 0.0
3.2619446477149345e7 4.6399705011566635e6 0.0
0.0 0.0 0.0

3.8142417872355524e6 5.443220792639654e6 0.0
5.443220792639654e6 -2.0729077006029673e7 0.0
0.0 0.0 0.0

-1.9929880553336781e6 1.8606104265016798e7 0.0
1.8606104265016798e7 -1.6581601198935512e7 0.0
0.0 0.0 0.0

2.172630209854685e6 2.15535834069979e6 0.0
2.15535834069979e6 -5.914768917533398e7 0.0
0.0 0.0 0.0

-2.3597553497573417e6 1.760773137174693e7 0.0
1.760773137174693e7 -2.2960341298943475e7 0.0
0.0 0.0 0.0

-1.0028452436952544e7 8.69467420159192e6 0.0
8.69467420159192e6 3.709469519186402e7 0.0
0.0 0.0 0.0

-3.6735770575903915e6 1.9556195960560178e6 0.0
1.9556195960560178e6 2.5013618600372327e6 0.0
0.0 0.0 0.0

-4.0397859508226723e6 1.7469658857366025e7 0.0
1.7469658857366025e7 4.206372496919315e6 0.0
0.0 0.0 0.0

3.0258989003432393e6 1.9330099673016597e7 0.0
1.9330099673016597e7 2.369346785837277e7 0.0
0.0 0.0 0.0

3.07031321210921e6 1.5258051463407085e6 0.0
1.5258051463407085e6 -4.1892801622203685e7 0.0
0.0 0.0 0.0

-4.1610247031634273e6 2.4339573863248143e7 0.0
2.4339573863248143e7 9.601671703531517e6 0.0
0.0 0.0 0.0

-9.143279752242161e6 -1.5722495052939944e6 0.0
-1.5722495052939944e6 3.370433478945686e7 0.0
0.0 0.0 0.0

-62685.02547983743 1.9352645837927725e7 0.0
1.9352645837927725e7 -29801.15695545591 0.0
0.0 0.0 0.0

1.13676395202294e6 1.3251528823764607e7 0.0
1.3251528823764607e7 -2.6231619368662316e7 0.0
0.0 0.0 0.0

-4.0646005196399176e6 2.0300689872263487e7 0.0
2.0300689872263487e7 1.9655096149423786e7 0.0
0.0 0.0 0.0

2.0883812611873262e6 1.8757288246962477e7 0.0
1.8757288246962477e7 3.246117945157854e7 0.0
0.0 0.0 0.0

-847152.8397079355 1.8589925252025716e7 0.0
1.8589925252025716e7 -4.19172140480293e6 0.0
0.0 0.0 0.0

350692.88800658565 2.3089030759110212e7 0.0
2.3089030759110212e7 -7.911005109760698e6 0.0
0.0 0.0 0.0

-3.347702276798769e6 2.5314423271020636e7 0.0
2.5314423271020636e7 4.722324077700255e6 0.0
0.0 0.0 0.0

-944103.2003735087 1.9302019477909558e7 0.0
1.9302019477909558e7 -6.607278095339967e6 0.0
0.0 0.0 0.0

1.926718734597898e7 5.785545011764056e6 0.0
5.785545011764056e6 -2.645899609399356e6 0.0
0.0 0.0 0.0

-7.183360831130054e6 -1.0505194117292082e6 0.0
-1.0505194117292082e6 5.377322377729662e7 0.0
0.0 0.0 0.0

7.243149436342662e6 2.171036004294203e7 0.0
2.171036004294203e7 1.1167121789715521e7 0.0
0.0 0.0 0.0

-7.82333234407877e6 -2.0602560294698363e6 0.0
-2.0602560294698363e6 4.532042361988976e7 0.0
0.0 0.0 0.0

-1.250520337311536e6 1.9620203184378218e7 0.0
1.9620203184378218e7 -906255.0182054441 0.0
0.0 0.0 0.0

-7.899681245081987e6 9.766640910798306e6 0.0
9.766640910798306e6 2.8463792604409136e7 0.0
0.0 0.0 0.0

-3.364163440568892e6 1.7395331376670472e7 0.0
1.7395331376670472e7 6.474302696658678e6 0.0
0.0 0.0 0.0

4151.7816723487995 1.2317904542787296e6 0.0
1.2317904542787296e6 181282.8007837506 0.0
0.0 0.0 0.0

102973.00540300446 1.8425792395567228e6 0.0
1.8425792395567228e6 301303.12118880503 0.0
0.0 0.0 0.0

715976.9134229627 2.0630167566320907e7 0.0
2.0630167566320907e7 -1.2721133578557711e7 0.0
0.0 0.0 0.0

-8.373234393027934e6 2.2307647045247823e7 0.0
2.2307647045247823e7 -3.901171320854991e6 0.0
0.0 0.0 0.0

968460.9646054753 2.098478037310628e7 0.0
2.098478037310628e7 -1.1538457280259138e7 0.0
0.0 0.0 0.0

-1.1127798185225036e7 1.0566899640118591e7 0.0
1.0566899640118591e7 3.0378942046362713e7 0.0
0.0 0.0 0.0

-2.519870717928488e6 1.8448508294613156e7 0.0
1.8448508294613156e7 -1.5188117928833973e7 0.0
0.0 0.0 0.0

951747.5842330419 1.2778791145429764e7 0.0
1.2778791145429764e7 -2.9330513880643085e7 0.0
0.0 0.0 0.0

-3.9364866415324504e6 2.3752531018185634e7 0.0
2.3752531018185634e7 1.0485524674904266e7 0.0
0.0 0.0 0.0

1.2715616732501118e6 1.323821577787889e7 0.0
1.323821577787889e7 -2.459980518504056e7 0.0
0.0 0.0 0.0

-9.970969094416872e7 3.4689401896424934e7 0.0
3.4689401896424934e7 -5.36992402368265e6 0.0
0.0 0.0 0.0

489805.82072493155 1.706639705443965e7 0.0
1.706639705443965e7 -1.7986714974817187e7 0.0
0.0 0.0 0.0

-3.048507433095608e6 3.38903078857417e7 0.0
3.38903078857417e7 913984.8313369674 0.0
0.0 0.0 0.0

293591.4224734786 1.868901055595239e7 0.0
1.868901055595239e7 5.467706140908442e6 0.0
0.0 0.0 0.0

-5.305453143930779e6 1.9460794975552924e7 0.0
1.9460794975552924e7 2.253766193516191e7 0.0
0.0 0.0 0.0

-4.453882003288902e6 2.127465257760541e7 0.0
2.127465257760541e7 -1.2343865511649344e7 0.0
0.0 0.0 0.0

1.303439307013176e7 3.724215222295496e7 0.0
3.724215222295496e7 -5.547671237801395e6 0.0
0.0 0.0 0.0

-8.256519238959562e6 -2.683696695961191e6 0.0
-2.683696695961191e6 3.9877186080980465e7 0.0
0.0 0.0 0.0

3.2394995900671985e6 1.6812220123669622e6 0.0
1.6812220123669622e6 -3.9012932350858174e7 0.0
0.0 0.0 0.0

-297259.5920484946 2.36499582853579e7 0.0
2.36499582853579e7 -5.810035138352974e6 0.0
0.0 0.0 0.0

-8.878674717766449e6 -4.254808072358502e6 0.0
-4.254808072358502e6 1.691116777413954e7 0.0
0.0 0.0 0.0

2.6855906847981233e6 1.6744010869267453e6 0.0
1.6744010869267453e6 -5.004192274497678e7 0.0
0.0 0.0 0.0

-7.31366761849327e6 -1.3739493353144454e6 0.0
-1.3739493353144454e6 5.1944052175950326e7 0.0
0.0 0.0 0.0

-8.81450329939451e6 -3.793601528660548e6 0.0
-3.793601528660548e6 3.0558278718659427e7 0.0
0.0 0.0 0.0

-1.5668821935529823e6 1.8235607180393692e7 0.0
1.8235607180393692e7 -5.027963327803797e6 0.0
0.0 0.0 0.0

-8.161196313216986e6 -2.4852192751332945e6 0.0
-2.4852192751332945e6 4.112152006421327e7 0.0
0.0 0.0 0.0

3.1564213762714826e6 1.7279023739143515e6 0.0
1.7279023739143515e6 -4.041448918688757e7 0.0
0.0 0.0 0.0

2.8082429323547557e6 1.7355237654262336e6 0.0
1.7355237654262336e6 -4.817512692823602e7 0.0
0.0 0.0 0.0

-7.42177710775236e6 -1.6679569689832914e6 0.0
-1.6679569689832914e6 5.018248869705752e7 0.0
0.0 0.0 0.0

-4.899927082250682e6 1.9832075791100767e7 0.0
1.9832075791100767e7 -1.3811053103293594e7 0.0
0.0 0.0 0.0

684390.1964888703 2.0041931510411046e7 0.0
2.0041931510411046e7 -1.3789755635631997e7 0.0
0.0 0.0 0.0

-2.820724349435605e6 2.5601493157568295e7 0.0
2.5601493157568295e7 5.176160957869707e6 0.0
0.0 0.0 0.0

2.8506182743484825e6 1.6577696690057397e6 0.0
1.6577696690057397e6 -4.687196193771472e7 0.0
0.0 0.0 0.0

-7.546534811871754e6 -1.8650914083042026e6 0.0
-1.8650914083042026e6 4.82570883899559e7 0.0
0.0 0.0 0.0

-1.0205518508997441e6 1.8707468617328186e7 0.0
1.8707468617328186e7 -3.983876070347095e6 0.0
0.0 0.0 0.0

1.5904553768365514e6 1.4114058014941508e7 0.0
1.4114058014941508e7 -2.3258118703316465e7 0.0
0.0 0.0 0.0

-656904.0302341398 2.5416488929020993e7 0.0
2.5416488929020993e7 -2.9695561031153146e6 0.0
0.0 0.0 0.0

-3.0313222339413944e6 2.0143795203272596e7 0.0
2.0143795203272596e7 -573791.9361520265 0.0
0.0 0.0 0.0

-2.989135495409509e6 1.8703975351425283e7 0.0
1.8703975351425283e7 2.7886847651732303e7 0.0
0.0 0.0 0.0

-7.691759095749471e6 -1.9250544377719753e6 0.0
-1.9250544377719753e6 4.666596920160198e7 0.0
0.0 0.0 0.0

2.96117593152583e6 1.5848097746968034e6 0.0
1.5848097746968034e6 -4.507330886911847e7 0.0
0.0 0.0 0.0

3.0898232782451105e6 2.796488720478918e7 0.0
2.796488720478918e7 -4.946284835190006e6 0.0
0.0 0.0 0.0

1.455541964019904e6 1.8448236956624694e7 0.0
1.8448236956624694e7 4.387555398767521e7 0.0
0.0 0.0 0.0

7.206678290704872e7 7.586806649692819e7 0.0
7.586806649692819e7 -1.4782648622558635e7 0.0
0.0 0.0 0.0

-266819.4075909122 1.1169081615849204e7 0.0
1.1169081615849204e7 -8.124384746966388e6 0.0
0.0 0.0 0.0

-2.0668524177702803e6 2.8307271816483434e7 0.0
2.8307271816483434e7 1.7359185801428682e6 0.0
0.0 0.0 0.0

-8.918602089498382e6 -130793.79572669478 0.0
-130793.79572669478 1.1973039456874182e7 0.0
0.0 0.0 0.0

-2.6572760064882054e6 2.6104915781951956e7 0.0
2.6104915781951956e7 4.342012871710255e6 0.0
0.0 0.0 0.0

3.4541969836746743e6 2.8066957558772857e6 0.0
2.8066957558772857e6 -1.2919933385722319e7 0.0
0.0 0.0 0.0

9.67006427783781e6 2.556246746641741e7 0.0
2.556246746641741e7 -4.74387778374313e6 0.0
0.0 0.0 0.0

2.201080694970895e6 2.417781849934375e7 0.0
2.417781849934375e7 -7.612796222704308e6 0.0
0.0 0.0 0.0

-7.675222932900723e6 1.6909529028587542e7 0.0
1.6909529028587542e7 1.696904248197033e7 0.0
0.0 0.0 0.0

-1.3336376524007833e6 2.0323450604814254e7 0.0
2.0323450604814254e7 -1.2333798163617572e6 0.0
0.0 0.0 0.0

-5.491516769325707e6 402682.96279213054 0.0
402682.96279213054 6.485807318058547e7 0.0
0.0 0.0 0.0

573918.6303437944 3.7626452799636465e6 0.0
3.7626452799636465e6 -1.3517209499044542e6 0.0
0.0 0.0 0.0

-5.017834799292375e6 -1.1182418781658062e6 0.0
-1.1182418781658062e6 2.0890800704182591e6 0.0
0.0 0.0 0.0

880932.3015071332 -1.7445304677484995e6 0.0
-1.7445304677484995e6 -2.260627086185876e6 0.0
0.0 0.0 0.0

2.8417565986595056e6 2.4450313936830804e7 0.0
2.4450313936830804e7 -7.181169816778452e6 0.0
0.0 0.0 0.0

-5.574417263280053e6 1.5806838537014274e7 0.0
1.5806838537014274e7 -5.002175105541853e7 0.0
0.0 0.0 0.0

3.636147737759198e6 1.8601437172779046e7 0.0
1.8601437172779046e7 2.8564966376951624e7 0.0
0.0 0.0 0.0

-2.9097211668574857e6 1.933304558394115e7 0.0
1.933304558394115e7 -1.1552282307386478e7 0.0
0.0 0.0 0.0

4.0801546550500784e6 2.2816767785133836e6 0.0
2.2816767785133836e6 -2.4125284521609332e7 0.0
0.0 0.0 0.0

-1.6698385277675672e6 1.7199027997280024e7 0.0
1.7199027997280024e7 -4.287927375143348e6 0.0
0.0 0.0 0.0

127428.70790467225 1.9868611274892975e7 0.0
1.9868611274892975e7 -1.3071841410404922e7 0.0
0.0 0.0 0.0

-3.170170258978242e6 1.521362853475157e7 0.0
1.521362853475157e7 -3.592473902089573e7 0.0
0.0 0.0 0.0

-75771.21328780707 2.6138088420596235e7 0.0
2.6138088420596235e7 -3.3631673947375882e6 0.0
0.0 0.0 0.0

-4.755604458725063e6 1.9645322781683084e7 0.0
1.9645322781683084e7 2.1161240236837726e7 0.0
0.0 0.0 0.0

-1.312812539757487e6 1.7710521370842706e7 0.0
1.7710521370842706e7 -3.402922208964329e6 0.0
0.0 0.0 0.0

139320.13611540128 1.9627792295772783e7 0.0
1.9627792295772783e7 2.8483854043470626e6 0.0
0.0 0.0 0.0

-5.330635134264722e6 1.6378123234854806e7 0.0
1.6378123234854806e7 -2.5017789581328746e7 0.0
0.0 0.0 0.0

-2.1891195085799243e7 2.778298038525585e7 0.0
2.778298038525585e7 -4.9137881318911845e6 0.0
0.0 0.0 0.0

1.1584932528885724e7 4.0451195829196446e7 0.0
4.0451195829196446e7 -4.279349990836246e6 0.0
0.0 0.0 0.0

-2.0999241889700755e6 338106.62680631026 0.0
338106.62680631026 3.940440201185152e6 0.0
0.0 0.0 0.0

-1.4578572879620786e6 -445499.3137893928 0.0
-445499.3137893928 3.566631311649654e6 0.0
0.0 0.0 0.0

-4.741510789971982e6 2.0440245162133157e7 0.0
2.0440245162133157e7 1.8874295104446385e7 0.0
0.0 0.0 0.0

-1.396767858758077e6 2.2785439377091926e7 0.0
2.2785439377091926e7 -6.110685999706969e6 0.0
0.0 0.0 0.0

-1.6366311685608e6 2.9237750330426596e7 0.0
2.9237750330426596e7 1.442362882805144e6 0.0
0.0 0.0 0.0

-2.4654300486406824e6 2.655350936745814e7 0.0
2.655350936745814e7 3.5607928891109657e6 0.0
0.0 0.0 0.0

1.1167299298245363e7 2.1095461824778225e7 0.0
2.1095461824778225e7 9.088830177144397e6 0.0
0.0 0.0 0.0

2.9089019447981673e6 2.0978210667443298e7 0.0
2.0978210667443298e7 -4.830440726091016e6 0.0
0.0 0.0 0.0

3.665308667527942e6 1.7946831285535052e7 0.0
1.7946831285535052e7 4.888323289177382e7 0.0
0.0 0.0 0.0

-4.3050633491363764e7 2.8349722081081122e7 0.0
2.8349722081081122e7 -1.2786997944955504e7 0.0
0.0 0.0 0.0

-1.1407349760062572e8 3.855424986600756e7 0.0
3.855424986600756e7 4.372876586103216e6 0.0
0.0 0.0 0.0

-7.478564721114765e6 1.6007343641709412e7 0.0
1.6007343641709412e7 1.4781601122240352e7 0.0
0.0 0.0 0.0

-3.094203905249414e6 2.10065883988435e7 0.0
2.10065883988435e7 1.5852835331531357e7 0.0
0.0 0.0 0.0

3.224920216326967e6 5.14871947918719e6 0.0
5.14871947918719e6 -2.240693292271527e7 0.0
0.0 0.0 0.0

-7.961529190260738e6 1.7235169471993122e7 0.0
1.7235169471993122e7 2.1346507964710243e7 0.0
0.0 0.0 0.0

-6.259166428987072e6 -6.385681790060617e6 0.0
-6.385681790060617e6 1.4553698301594002e7 0.0
0.0 0.0 0.0

8.73690877313809e6 2.2402888698235303e7 0.0
2.2402888698235303e7 1.1964487321524374e7 0.0
0.0 0.0 0.0

-2.1284333030976467e6 1.5500385989321923e7 0.0
1.5500385989321923e7 -3.457393752484047e7 0.0
0.0 0.0 0.0

3.7930321137740836e6 4.519552501780808e6 0.0
4.519552501780808e6 -2.807501287950512e7 0.0
0.0 0.0 0.0

5.16625994738148e6 2.023343424643953e7 0.0
2.023343424643953e7 6.024334251781882e6 0.0
0.0 0.0 0.0

-2.2444188307163417e6 4.347902743781452e6 0.0
4.347902743781452e6 8.38183543018771e7 0.0
0.0 0.0 0.0

-4.482298747629711e6 2.780174480116983e7 0.0
2.780174480116983e7 6.038349539536567e6 0.0
0.0 0.0 0.0

-1.6782468983001802e7 2.441994624563088e7 0.0
2.441994624563088e7 634860.3317729067 0.0
0.0 0.0 0.0

1.3101585358103742e6 2.304567003721413e7 0.0
2.304567003721413e7 -8.944979061689675e6 0.0
0.0 0.0 0.0

-8.857029840423338e6 -4.478137650117867e6 0.0
-4.478137650117867e6 2.7731671121939395e7 0.0
0.0 0.0 0.0

280731.44372774754 1.828205692661458e7 0.0
1.828205692661458e7 6.462178695444305e6 0.0
0.0 0.0 0.0

-8.401822502925918e6 -3.0417955915788296e6 0.0
-3.0417955915788296e6 3.646867727344289e7 0.0
0.0 0.0 0.0

5.186949029244921e6 2.118047857174762e7 0.0
2.118047857174762e7 5.890776880255093e6 0.0
0.0 0.0 0.0

-2.4134878959326055e6 2.2099676179332793e7 0.0
2.2099676179332793e7 1.1514496707792664e6 0.0
0.0 0.0 0.0

3.9162760691270996e6 3.0452427128326017e6 0.0
3.0452427128326017e6 -3.098665112708012e7 0.0
0.0 0.0 0.0

-4.857749724999218e6 2.0443853304285668e7 0.0
2.0443853304285668e7 -1.3131499213421883e7 0.0
0.0 0.0 0.0

4.0400317059504306e6 2.412983711150178e6 0.0
2.412983711150178e6 -2.1710896982913494e7 0.0
0.0 0.0 0.0

308141.5604775613 1.662512832935877e7 0.0
1.662512832935877e7 -2.0960149009962425e7 0.0
0.0 0.0 0.0

-5.640787013057518e6 3.343732659375305e7 0.0
3.343732659375305e7 2.8915470496718986e6 0.0
0.0 0.0 0.0

-303231.7955979765 1.609982193958643e7 0.0
1.609982193958643e7 -151951.8393648924 0.0
0.0 0.0 0.0

-94596.7527035852 2.259416036464922e7 0.0
2.259416036464922e7 -9.175053261743376e6 0.0
0.0 0.0 0.0

-4.149559428238624e6 3.1733965105484713e7 0.0
3.1733965105484713e7 2.229613337572282e6 0.0
0.0 0.0 0.0

-2.913220335630057e6 2.511051114248297e7 0.0
2.511051114248297e7 6.161380859706322e6 0.0
0.0 0.0 0.0

-3.0381358397736987e6 2.6197070500254244e7 0.0
2.6197070500254244e7 2.989325649847254e6 0.0
0.0 0.0 0.0

-514632.9401708882 3.1594473457564726e7 0.0
3.1594473457564726e7 -859927.7988641586 0.0
0.0 0.0 0.0

470056.74910822837 2.1819297193113513e7 0.0
2.1819297193113513e7 -9.972216150218371e6 0.0
0.0 0.0 0.0

-3.616219198634194e6 3.475434598964714e7 0.0
3.475434598964714e7 1.1701912823160728e6 0.0
0.0 0.0 0.0

-1.087224319978972e7 1.2359052300273268e7 0.0
1.2359052300273268e7 1.7252991490041927e7 0.0
0.0 0.0 0.0

984641.5430399086 1.3707644213190626e7 0.0
1.3707644213190626e7 -1.6584344412010591e7 0.0
0.0 0.0 0.0

-1.037706997124589e7 -1.5999736386446992e6 0.0
-1.5999736386446992e6 2.2496366294181243e7 0.0
0.0 0.0 0.0

-1.2194632877855137e7 2.6289930767266996e7 0.0
2.6289930767266996e7 4.670355504712881e6 0.0
0.0 0.0 0.0

-7.9996058604196645e6 442127.1380097259 0.0
442127.1380097259 4.808937846654865e7 0.0
0.0 0.0 0.0

2.819953954648779e6 2.9001348790769022e7 0.0
2.9001348790769022e7 -4.377474807764435e6 0.0
0.0 0.0 0.0

710187.0789724551 1.6600348781293305e7 0.0
1.6600348781293305e7 -2.0945743562408444e7 0.0
0.0 0.0 0.0

905619.9541118061 2.0282773635154106e7 0.0
2.0282773635154106e7 7.9546181051097475e6 0.0
0.0 0.0 0.0

-956463.1362483571 1.6271194918950899e7 0.0
1.6271194918950899e7 -1.029563441367493e7 0.0
0.0 0.0 0.0

614983.8458377179 1.4115071313737141e7 0.0
1.4115071313737141e7 -2.91016966778707e7 0.0
0.0 0.0 0.0

3.372826465937379e6 4.0519788261994217e6 0.0
4.0519788261994217e6 -1.5590622806603342e7 0.0
0.0 0.0 0.0

3.650578010110201e6 2.4597792375194237e7 0.0
2.4597792375194237e7 -6.756642295566043e6 0.0
0.0 0.0 0.0

-150142.2012616319 1.9750523804932658e7 0.0
1.9750523804932658e7 6.20142328043483e6 0.0
0.0 0.0 0.0

-2.910205212458651e6 1.9592146061487723e7 0.0
1.9592146061487723e7 -1.7947785566378846e6 0.0
0.0 0.0 0.0

2.443152314561721e6 1.6993457840427966e6 0.0
1.6993457840427966e6 -5.427276052551847e7 0.0
0.0 0.0 0.0

-1.1063563030579416e7 4.278614475513395e6 0.0
4.278614475513395e6 2.3134282377324224e7 0.0
0.0 0.0 0.0

2.018998721696794e6 4.086598734704694e6 0.0
4.086598734704694e6 -5.412102037247623e7 0.0
0.0 0.0 0.0

-8.383998353332249e6 -5.797852689486954e6 0.0
-5.797852689486954e6 2.019894680205842e7 0.0
0.0 0.0 0.0

-2.7680593499132055e6 2.1967929674593057e7 0.0
2.1967929674593057e7 -284515.1113126327 0.0
0.0 0.0 0.0

-506849.7257891919 1.9802692904028878e7 0.0
1.9802692904028878e7 3.627836610039483e6 0.0
0.0 0.0 0.0

421230.2790218536 1.9923341821013324e7 0.0
1.9923341821013324e7 5.636223903815571e6 0.0
0.0 0.0 0.0

-6.816548199642394e6 1.5700809337528454e7 0.0
1.5700809337528454e7 1.72767008047812e7 0.0
0.0 0.0 0.0

-8.761648585314905e6 -3.4910063273323188e6 0.0
-3.4910063273323188e6 3.1252502460161243e7 0.0
0.0 0.0 0.0

4.659973900922488e6 2.63695158927044e7 0.0
2.63695158927044e7 -5.752317752613084e6 0.0
0.0 0.0 0.0

5.220469170372276e6 2.085140272816972e7 0.0
2.085140272816972e7 1.5122057348667054e7 0.0
0.0 0.0 0.0

2.4394262251280136e6 8.647729269245533e6 0.0
8.647729269245533e6 -2.5074788206252977e7 0.0
0.0 0.0 0.0

-8.986796201550446e6 -1.8461456378455923e6 0.0
-1.8461456378455923e6 3.3414093638262965e7 0.0
0.0 0.0 0.0

3.2210257932935134e6 2.083111760372887e7 0.0
2.083111760372887e7 1.1789794669843847e7 0.0
0.0 0.0 0.0

-3.620915323874226e6 1.6600140463287262e7 0.0
1.6600140463287262e7 3.98707152307937e7 0.0
0.0 0.0 0.0

5.935362852888314e6 2.1810026832004678e7 0.0
2.1810026832004678e7 1.1683711892838988e7 0.0
0.0 0.0 0.0

-4.597992011144374e6 1.5284960378024843e7 0.0
1.5284960378024843e7 -4.693102543080693e7 0.0
0.0 0.0 0.0

-3.8148662772564422e6 1.9396653025866337e7 0.0
1.9396653025866337e7 2.435004393543693e7 0.0
0.0 0.0 0.0

686462.1710666558 1.868654721886757e7 0.0
1.868654721886757e7 1.873046440293966e7 0.0
0.0 0.0 0.0

1.380604139458537e6 2.1433235306135207e7 0.0
2.1433235306135207e7 -1.1016113756929554e7 0.0
0.0 0.0 0.0

-2.7707807137780106e6 2.0864188421432763e7 0.0
2.0864188421432763e7 -5.654520786362077e6 0.0
0.0 0.0 0.0

1.5296931992381457e6 8.326961852487621e6 0.0
8.326961852487621e6 -3.9904443923443e7 0.0
0.0 0.0 0.0

1.6295412862134203e6 7.512380906090306e6 0.0
7.512380906090306e6 -4.194600457411744e7 0.0
0.0 0.0 0.0

-64034.64109672699 1.5933247983222524e7 0.0
1.5933247983222524e7 -9.765771373287119e6 0.0
0.0 0.0 0.0

-7.758842039481895e6 1.7127586094847128e7 0.0
1.7127586094847128e7 2.8175214180234607e7 0.0
0.0 0.0 0.0

384637.3366024606 2.002641917185619e7 0.0
2.002641917185619e7 -1.3709299962712813e7 0.0
0.0 0.0 0.0

-6.043443861105472e6 3.306614432391346e6 0.0
3.306614432391346e6 6.1872334022612855e7 0.0
0.0 0.0 0.0

-2.0548217688342035e6 1.507647441616398e7 0.0
1.507647441616398e7 -3.841226145551804e7 0.0
0.0 0.0 0.0

564300.9869652055 1.517312366966998e7 0.0
1.517312366966998e7 5.352552529691066e7 0.0
0.0 0.0 0.0

2.572142133124318e6 1.7959780090112314e6 0.0
1.7959780090112314e6 -5.206538713547082e7 0.0
0.0 0.0 0.0

608273.5956388982 2.2845601837331943e7 0.0
2.2845601837331943e7 -9.00754140100627e6 0.0
0.0 0.0 0.0

4.769396759077613e6 2.1542269344664123e7 0.0
2.1542269344664123e7 1.2339807812049814e7 0.0
0.0 0.0 0.0

-6.0976388699892135e6 1.6647721262323096e7 0.0
1.6647721262323096e7 -4.292765127739688e7 0.0
0.0 0.0 0.0

9.924724457151307e6 1.0991313091955831e7 0.0
1.0991313091955831e7 1.2905171689433965e6 0.0
0.0 0.0 0.0

-1.8686698469370313e6 2.005272482371192e7 0.0
2.005272482371192e7 -7.082064061788227e6 0.0
0.0 0.0 0.0

3.910614584489815e6 2.1127846773354866e7 0.0
2.1127846773354866e7 1.2889350624156278e7 0.0
0.0 0.0 0.0

-3.370045807192138e6 2.1924407315690212e7 0.0
2.1924407315690212e7 1.0850118103699151e7 0.0
0.0 0.0 0.0

-3.5054238678241884e6 2.092082251875062e7 0.0
2.092082251875062e7 1.63062274588238e7 0.0
0.0 0.0 0.0

703688.3184070792 1.2484124615401303e7 0.0
1.2484124615401303e7 -1.460705190784325e7 0.0
0.0 0.0 0.0

-9.830675723687906e6 1.6088364667648481e7 0.0
1.6088364667648481e7 2.6065930911637407e7 0.0
0.0 0.0 0.0

-3.694640571595261e6 1.484711281802346e7 0.0
1.484711281802346e7 -4.378513535581869e7 0.0
0.0 0.0 0.0

-2.318766242477138e6 1.9902695719932444e7 0.0
1.9902695719932444e7 -1.0691048710623365e7 0.0
0.0 0.0 0.0

-6.451532726303661e6 2.2859576364790834e7 0.0
2.2859576364790834e7 6.198895930678312e6 0.0
0.0 0.0 0.0

504123.11517018406 1.1129943882418485e7 0.0
1.1129943882418485e7 -8.527924690739851e6 0.0
0.0 0.0 0.0

-4.975116177337747e6 5.912231420920899e6 0.0
5.912231420920899e6 8.100092789915428e7 0.0
0.0 0.0 0.0

-6.870547399526533e6 1.6433987574206823e7 0.0
1.6433987574206823e7 -5.3544301412671916e7 0.0
0.0 0.0 0.0

-3.0142071555150617e6 1.8613491876285285e7 0.0
1.8613491876285285e7 2.7773710750389572e7 0.0
0.0 0.0 0.0

-1.9547840242952402e6 2.97706202103936e7 0.0
2.97706202103936e7 344643.1956746082 0.0
0.0 0.0 0.0

1.725521758123784e7 2.1293154338622298e7 0.0
2.1293154338622298e7 7.148414540001508e6 0.0
0.0 0.0 0.0

-1.1591014814570118e6 1.825533602516737e7 0.0
1.825533602516737e7 3.524859494873355e7 0.0
0.0 0.0 0.0

-4.573472931881237e6 2.0155989708603866e7 0.0
2.0155989708603866e7 1.881572316106459e7 0.0
0.0 0.0 0.0

596474.5108118728 1.4712675568093244e7 0.0
1.4712675568093244e7 -1.61874908018333e7 0.0
0.0 0.0 0.0

-2.853931659285616e6 1.9051855072145797e7 0.0
1.9051855072145797e7 -1.23459772808576e7 0.0
0.0 0.0 0.0

-5.7712662685148325e6 1.8505908771945838e7 0.0
1.8505908771945838e7 1.4567958975242838e7 0.0
0.0 0.0 0.0

-6.060542173841452e6 1.723105763843612e7 0.0
1.723105763843612e7 1.7412795512989786e7 0.0
0.0 0.0 0.0

3.421943710061427e6 3.095537866916371e6 0.0
3.095537866916371e6 -2.88257142634179e7 0.0
0.0 0.0 0.0

-4.042910938959772e6 2.4441568169442095e7 0.0
2.4441568169442095e7 9.758119689156367e6 0.0
0.0 0.0 0.0

-1.546215490880142e6 1.6410846344757846e7 0.0
1.6410846344757846e7 -2.7772677217649184e6 0.0
0.0 0.0 0.0

4.272241671955657e6 3.430616722071161e6 0.0
3.430616722071161e6 -2.0799193893281844e7 0.0
0.0 0.0 0.0

1.515348946794394e6 2.8048293204526965e7 0.0
2.8048293204526965e7 -4.422957220553078e6 0.0
0.0 0.0 0.0

5.71426630404221e6 2.164021072998603e7 0.0
2.164021072998603e7 1.3451698265260113e7 0.0
0.0 0.0 0.0

-7.04998246430625e6 1.6455952077656584e6 0.0
1.6455952077656584e6 5.425594711593085e7 0.0
0.0 0.0 0.0

8.02610970880306e6 2.2859558242911905e7 0.0
2.2859558242911905e7 1.1011836683938418e7 0.0
0.0 0.0 0.0

5.333272892679196e6 2.1588181806774966e7 0.0
2.1588181806774966e7 8.576225938679263e6 0.0
0.0 0.0 0.0

-86287.48361066729 1.905572428104479e7 0.0
1.905572428104479e7 -1.346665642137475e7 0.0
0.0 0.0 0.0

3.0785330396710206e6 3.067770055380866e6 0.0
3.067770055380866e6 -3.80259191831445e7 0.0
0.0 0.0 0.0

2.6498846237884136e6 1.748713505695319e7 0.0
1.748713505695319e7 1.2244483582425307e7 0.0
0.0 0.0 0.0

310554.59677395923 1.9480191848874163e7 0.0
1.9480191848874163e7 -1.225132407903744e7 0.0
0.0 0.0 0.0

1.0996956419037227e6 1.9964330009033814e7 0.0
1.9964330009033814e7 9.250672726445317e6 0.0
0.0 0.0 0.0

-1.0926215682235425e7 6.154251870789117e6 0.0
6.154251870789117e6 1.825354612099789e7 0.0
0.0 0.0 0.0

-7.268055061951362e6 -5.99562457045701e6 0.0
-5.99562457045701e6 1.890312488236908e7 0.0
0.0 0.0 0.0

-5.074738405420211e6 2.2161171099190746e7 0.0
2.2161171099190746e7 4.0516205920640742e6 0.0
0.0 0.0 0.0

978314.3026722139 1.4667460990118066e7 0.0
1.4667460990118066e7 -2.4958358031652495e7 0.0
0.0 0.0 0.0

-3.276882844188939e6 1.8134271216281097e7 0.0
1.8134271216281097e7 -1.6408211538925575e7 0.0
0.0 0.0 0.0

-5.329684532441571e6 2.352040229297794e6 0.0
2.352040229297794e6 7.852265319553e7 0.0
0.0 0.0 0.0

-4.572960294244661e6 3.5707940701305784e7 0.0
3.5707940701305784e7 1.3539897729237955e6 0.0
0.0 0.0 0.0

846164.5215025654 5.7908217195568895e6 0.0
5.7908217195568895e6 -3.100991159085252e6 0.0
0.0 0.0 0.0

-1.2066513651714593e6 1.998902348425631e7 0.0
1.998902348425631e7 1.2532548282664216e6 0.0
0.0 0.0 0.0

2.6401044087514305e6 2.0808261650953136e7 0.0
2.0808261650953136e7 1.16255080869326e7 0.0
0.0 0.0 0.0

-8.134392395861799e6 1.7484176196025353e7 0.0
1.7484176196025353e7 2.5441963344110746e7 0.0
0.0 0.0 0.0

-1.3684972232539382e7 2.580215328723512e7 0.0
2.580215328723512e7 2.889883573615373e6 0.0
0.0 0.0 0.0

3.8619516306514433e6 2.163528684533209e7 0.0
2.163528684533209e7 9.619453903745465e6 0.0
0.0 0.0 0.0

1.946550114638594e6 2.1382638684264723e7 0.0
2.1382638684264723e7 1.0900247374092475e7 0.0
0.0 0.0 0.0

500316.8865636736 1.8546369785927333e7 0.0
1.8546369785927333e7 -1.72460008316666e7 0.0
0.0 0.0 0.0

2.3025450900967866e6 5.418339255584985e6 0.0
5.418339255584985e6 -1.215684542320672e7 0.0
0.0 0.0 0.0

-711786.0028134445 1.9089875031324152e7 0.0
1.9089875031324152e7 -1.5300812707281515e7 0.0
0.0 0.0 0.0

56459.24372856831 2.1301453172471583e7 0.0
2.1301453172471583e7 -1.1136753960118122e7 0.0
0.0 0.0 0.0

-2.66161201146888e6 2.426634790064654e7 0.0
2.426634790064654e7 5.402491106337849e6 0.0
0.0 0.0 0.0

1.644141923950519e6 2.234930889296576e7 0.0
2.234930889296576e7 -9.289431997180134e6 0.0
0.0 0.0 0.0

1.0584147438643556e6 2.156858772607159e7 0.0
2.156858772607159e7 -1.0159490022531085e7 0.0
0.0 0.0 0.0

3.442412133384142e6 4.062228401664491e6 0.0
4.062228401664491e6 -3.421443684967302e7 0.0
0.0 0.0 0.0

2.69209736488604e6 2.0817926629652113e7 0.0
2.0817926629652113e7 6.921125504327113e6 0.0
0.0 0.0 0.0

-38444.75795152644 2.1919114778087594e7 0.0
2.1919114778087594e7 -1.0102147724749923e7 0.0
0.0 0.0 0.0

-1.1221575834868275e7 1.418238850704905e7 0.0
1.418238850704905e7 2.1709860760579057e7 0.0
0.0 0.0 0.0

-8.503663242915565e7 3.1596453516097993e7 0.0
3.1596453516097993e7 -7.464886108004637e6 0.0
0.0 0.0 0.0

2.921873663229884e7 2.9347438851425365e7 0.0
2.9347438851425365e7 9.739598640039313e7 0.0
0.0 0.0 0.0

-2.8355526524384055e7 2.7255417591484275e7 0.0
2.7255417591484275e7 -9.451861001286161e7 0.0
0.0 0.0 0.0

-4.941550408563257e6 1.9360591494648717e7 0.0
1.9360591494648717e7 2.245203185381557e7 0.0
0.0 0.0 0.0

1.0711331329559926e6 1.4336598080723444e7 0.0
1.4336598080723444e7 -2.1961802902956337e7 0.0
0.0 0.0 0.0

-3.56161349543594e6 2.0057678431758095e7 0.0
2.0057678431758095e7 -1.2590127376625726e7 0.0
0.0 0.0 0.0

2.1901713322723983e6 3.599306090845795e7 0.0
3.599306090845795e7 -2.519559959265095e6 0.0
0.0 0.0 0.0

-1.632856782619128e6 1.737001911533481e7 0.0
1.737001911533481e7 -2.0686899176949013e7 0.0
0.0 0.0 0.0

-4.357250442018075e6 2.109746895156705e7 0.0
2.109746895156705e7 -7.521828593986535e6 0.0
0.0 0.0 0.0

-9.947136150931656e6 1.612813611725222e7 0.0
1.612813611725222e7 2.2378944998853646e7 0.0
0.0 0.0 0.0

-1.2186642646403294e6 2.4848505232969567e7 0.0
2.4848505232969567e7 -1.7423553122061244e6 0.0
0.0 0.0 0.0

-2.3975359410420777e6 1.6197861889415886e7 0.0
1.6197861889415886e7 -3.1861951249008097e7 0.0
0.0 0.0 0.0

-1.7194653052838477e6 1.998902508482688e7 0.0
1.998902508482688e7 -6.920097029518421e6 0.0
0.0 0.0 0.0

-4.0647840200840263e6 2.196715319886279e7 0.0
2.196715319886279e7 1.1959394997685233e7 0.0
0.0 0.0 0.0

1.6673545353464492e7 2.16195490225763e7 0.0
2.16195490225763e7 -319385.13781408407 0.0
0.0 0.0 0.0

783992.8799214263 1.9311304948799055e7 0.0
1.9311304948799055e7 6.857083373123427e6 0.0
0.0 0.0 0.0

-5.025060099962454e6 1.9726154198717054e7 0.0
1.9726154198717054e7 2.013291702416246e7 0.0
0.0 0.0 0.0

-2.0269769949927244e7 2.45230433630323e7 0.0
2.45230433630323e7 -1.7508525014796397e6 0.0
0.0 0.0 0.0

469425.830909305 1.9616859363292344e7 0.0
1.9616859363292344e7 6.8773137869211845e6 0.0
0.0 0.0 0.0

2.1511756605019667e6 2.853433307214525e7 0.0
2.853433307214525e7 -4.259270145277608e6 0.0
0.0 0.0 0.0

8.364982970614035e6 2.5999022902463153e7 0.0
2.5999022902463153e7 -5.419536106151555e6 0.0
0.0 0.0 0.0

1.578348530310954e6 1.3710215507424382e7 0.0
1.3710215507424382e7 -1.683801138545584e7 0.0
0.0 0.0 0.0

-5.137839310219482e6 1.8329844082762707e7 0.0
1.8329844082762707e7 2.7378997943770662e7 0.0
0.0 0.0 0.0

-199543.3762572445 1.8139183566167224e7 0.0
1.8139183566167224e7 -1.7772552858521022e7 0.0
0.0 0.0 0.0

-3.1131187436768487e6 1.7953532465217523e7 0.0
1.7953532465217523e7 4.987542599624214e6 0.0
0.0 0.0 0.0

-6.600081493266479e6 1.8343486703687493e7 0.0
1.8343486703687493e7 1.7134286014971953e7 0.0
0.0 0.0 0.0

2.0509859692631052e6 7.443137778301794e6 0.0
7.443137778301794e6 -9.105015609694226e6 0.0
0.0 0.0 0.0

879049.3316279687 1.8662153428802732e7 0.0
1.8662153428802732e7 9.672726595616236e6 0.0
0.0 0.0 0.0

4.465907971586903e6 2.5393404913764734e7 0.0
2.5393404913764734e7 -6.180294029433965e6 0.0
0.0 0.0 0.0

-689097.3171125576 1.1188126908489909e7 0.0
1.1188126908489909e7 -6.071547521603981e7 0.0
0.0 0.0 0.0

-1.1499714420683727e7 1.3532241731096271e7 0.0
1.3532241731096271e7 2.0994336833537396e7 0.0
0.0 0.0 0.0

1.8604058414315037e7 3.847117230329622e7 0.0
3.847117230329622e7 -6.58363985721575e6 0.0
0.0 0.0 0.0

2.4718951952974442e6 7.709665148007393e6 0.0
7.709665148007393e6 -3.904632123128998e7 0.0
0.0 0.0 0.0

458355.080981035 1.8522588209191807e7 0.0
1.8522588209191807e7 7.689448813103101e6 0.0
0.0 0.0 0.0

1.998255504879558e6 2.339883383315983e7 0.0
2.339883383315983e7 -8.322790207039538e6 0.0
0.0 0.0 0.0

1.302191491191721e7 2.3201822949271988e7 0.0
2.3201822949271988e7 1.3757461005304053e8 0.0
0.0 0.0 0.0

-1.3873270322365649e7 2.2371380182979237e7 0.0
2.2371380182979237e7 -1.2812711926046047e8 0.0
0.0 0.0 0.0

2.6574892512312982e7 1.976766783925044e7 0.0
1.976766783925044e7 5.514354532640858e6 0.0
0.0 0.0 0.0

9.936033484438991e6 2.537222311200837e7 0.0
2.537222311200837e7 -5.090444039768873e6 0.0
0.0 0.0 0.0

545367.2591418577 1.0574501973187216e7 0.0
1.0574501973187216e7 -7.575069383264751e6 0.0
0.0 0.0 0.0

1.891579819536099e7 3.448778210255644e7 0.0
3.448778210255644e7 -6.772140877756394e6 0.0
0.0 0.0 0.0

-1.884393403672156e6 2.0104718312816232e7 0.0
2.0104718312816232e7 1.9498189149059936e7 0.0
0.0 0.0 0.0

1.366645628278546e7 2.133565368594558e7 0.0
2.133565368594558e7 -127432.90648487769 0.0
0.0 0.0 0.0

-3.546457030528993e6 2.3693514725144763e7 0.0
2.3693514725144763e7 7.680020164534418e6 0.0
0.0 0.0 0.0

-5.623993111284635e6 1.6413091333977085e7 0.0
1.6413091333977085e7 1.5462499968586225e7 0.0
0.0 0.0 0.0

53407.60343304556 3.904844328561347e6 0.0
3.904844328561347e6 -3.4372199692199444e6 0.0
0.0 0.0 0.0

6.282073854879735e6 2.1348432589080784e7 0.0
2.1348432589080784e7 1.4263083262389723e7 0.0
0.0 0.0 0.0

-293479.8227614572 2.4685035689335287e7 0.0
2.4685035689335287e7 -5.915266264260178e6 0.0
0.0 0.0 0.0

-5.020232517172432e6 1.9182162494824287e7 0.0
1.9182162494824287e7 2.3779092285201117e7 0.0
0.0 0.0 0.0

-5.285742940278266e6 2.4778508020733792e7 0.0
2.4778508020733792e7 9.204608609240945e6 0.0
0.0 0.0 0.0

-2.9330376120188376e6 2.330223237076247e7 0.0
2.330223237076247e7 8.39630734698566e6 0.0
0.0 0.0 0.0

-2.1026423914269195e6 1.7642298825881884e7 0.0
1.7642298825881884e7 -6.179485462363237e6 0.0
0.0 0.0 0.0

-2.6734677366237827e6 1.8451345622064877e7 0.0
1.8451345622064877e7 2.925250863698554e7 0.0
0.0 0.0 0.0

-3.2884145823443546e6 2.4095423143216398e7 0.0
2.4095423143216398e7 8.959112297251875e6 0.0
0.0 0.0 0.0

-4.683954984969693e6 1.2999590889280796e7 0.0
1.2999590889280796e7 8.75388709848865e6 0.0
0.0 0.0 0.0

-3.83854944427524e7 3.141643929862204e7 0.0
3.141643929862204e7 -3.527012096258469e6 0.0
0.0 0.0 0.0

-7.078108566199511e6 4.4321367131357305e6 0.0
4.4321367131357305e6 5.416662892759492e7 0.0
0.0 0.0 0.0

-7.124944067133479e6 2.5150956238027286e7 0.0
2.5150956238027286e7 7.700282608747238e6 0.0
0.0 0.0 0.0

-7.260537938427002e6 2.9945726859977894e7 0.0
2.9945726859977894e7 5.735105559947547e6 0.0
0.0 0.0 0.0

-798989.9180573616 1.565207552436789e7 0.0
1.565207552436789e7 -2.8569480170721333e7 0.0
0.0 0.0 0.0

-2.342905686320198e6 3.2880463543473456e7 0.0
3.2880463543473456e7 1.654046544086475e6 0.0
0.0 0.0 0.0

-6.013833416278068e6 3.68704301262043e7 0.0
3.68704301262043e7 1.416485830618693e6 0.0
0.0 0.0 0.0

-7.508204262952928e6 3.7979824693060316e7 0.0
3.7979824693060316e7 1.845529683961268e6 0.0
0.0 0.0 0.0

-864902.3532983308 2.690394425125504e7 0.0
2.690394425125504e7 -2.8548272724794894e6 0.0
0.0 0.0 0.0

-1.0144499899636189e7 1.3179666094505321e7 0.0
1.3179666094505321e7 3.0558438838434428e7 0.0
0.0 0.0 0.0

3.659536993674999e6 1.8674774675147254e6 0.0
1.8674774675147254e6 -3.1940931255850773e7 0.0
0.0 0.0 0.0

-3.5830228388791997e6 1.9179637125883877e7 0.0
1.9179637125883877e7 2.5374004391432986e7 0.0
0.0 0.0 0.0

1.8242529696311546e6 2.9376942858629607e7 0.0
2.9376942858629607e7 -3.6593701307169604e6 0.0
0.0 0.0 0.0

297925.1756076971 1.6148758307402063e7 0.0
1.6148758307402063e7 -2.2267616306977436e7 0.0
0.0 0.0 0.0

-8.332385175379708e6 -728603.536294779 0.0
-728603.536294779 4.232813204858577e7 0.0
0.0 0.0 0.0

287544.04944329814 1.9574327281525496e7 0.0
1.9574327281525496e7 1.4590204145002293e6 0.0
0.0 0.0 0.0

582773.2510869359 1.995394515718773e7 0.0
1.995394515718773e7 -1.1268295355112594e7 0.0
0.0 0.0 0.0

-393825.0031471811 1.8624266603915095e7 0.0
1.8624266603915095e7 -1.462398954080518e7 0.0
0.0 0.0 0.0

-3.4988238315328523e6 1.6459995145495526e7 0.0
1.6459995145495526e7 -1.4299766235731931e7 0.0
0.0 0.0 0.0

-9.169755303132858e6 -3.9712126493897326e6 0.0
-3.9712126493897326e6 1.820759900042563e7 0.0
0.0 0.0 0.0

-385089.0161883746 1.7881549818167362e7 0.0
1.7881549818167362e7 -2.5194039962832737e6 0.0
0.0 0.0 0.0

2.597545736739554e6 1.9826502154173058e7 0.0
1.9826502154173058e7 6.190626716299958e6 0.0
0.0 0.0 0.0

1.8385797208186556e7 2.0157728478886735e7 0.0
2.0157728478886735e7 6.323531071829676e6 0.0
0.0 0.0 0.0

-8.499096845618036e6 3.9959984726346605e7 0.0
3.9959984726346605e7 2.5923768245428167e6 0.0
0.0 0.0 0.0

-5.889939319238266e6 1.680969636145605e7 0.0
1.680969636145605e7 1.6553561050708931e7 0.0
0.0 0.0 0.0

-9.713138963036459e6 1.811138582090774e7 0.0
1.811138582090774e7 -5.998521530454941e7 0.0
0.0 0.0 0.0

3.055505851790186e6 6.935957371523584e6 0.0
6.935957371523584e6 -3.2732160373683777e7 0.0
0.0 0.0 0.0

-8.892106576357633e6 -4.289813340241313e6 0.0
-4.289813340241313e6 2.8017392295344092e7 0.0
0.0 0.0 0.0

-1.9942848282120064e7 2.787435518210086e7 0.0
2.787435518210086e7 -7.875715608211173e6 0.0
0.0 0.0 0.0

-1.995445205954181e7 2.505674742347887e7 0.0
2.505674742347887e7 -4.0329119880351378e6 0.0
0.0 0.0 0.0

-2.0199728723713346e6 1.817650290039791e7 0.0
1.817650290039791e7 -7.95579921716896e6 0.0
0.0 0.0 0.0

-67253.12910848157 2.890055817030909e7 0.0
2.890055817030909e7 -2.508405909290779e6 0.0
0.0 0.0 0.0

691723.7772352248 6.544104482058409e6 0.0
6.544104482058409e6 -5.76803333166502e7 0.0
0.0 0.0 0.0

8.036462883007746e6 2.2518233881462757e7 0.0
2.2518233881462757e7 -3.571535218297678e6 0.0
0.0 0.0 0.0

5.41062828305989e6 2.2107047831956636e7 0.0
2.2107047831956636e7 1.0680938500431687e7 0.0
0.0 0.0 0.0

1.6767290381702324e6 1.413301530030957e7 0.0
1.413301530030957e7 -2.168942303777094e7 0.0
0.0 0.0 0.0

-2.0484457945145618e6 2.3269440230685413e7 0.0
2.3269440230685413e7 637810.9107274119 0.0
0.0 0.0 0.0

1.5627437150541572e6 1.3213807292152232e7 0.0
1.3213807292152232e7 -1.5981879558758762e7 0.0
0.0 0.0 0.0

1.1213347469932744e6 1.3822523501980953e7 0.0
1.3822523501980953e7 -2.3336559850326292e7 0.0
0.0 0.0 0.0

-2.4212699435966224e6 1.7262269627176847e7 0.0
1.7262269627176847e7 -1.5029135808267744e7 0.0
0.0 0.0 0.0

-7.575303826117291e6 2.897668275370894e7 0.0
2.897668275370894e7 5.6186811006563995e6 0.0
0.0 0.0 0.0

-1.5275093384817213e7 2.159009030274026e7 0.0
2.159009030274026e7 -6.961919439280553e7 0.0
0.0 0.0 0.0

1.547139257907653e7 3.384427081645455e7 0.0
3.384427081645455e7 -5.536659432713385e6 0.0
0.0 0.0 0.0

5.666470572024154e6 2.537952520214785e7 0.0
2.537952520214785e7 -5.76300408054815e6 0.0
0.0 0.0 0.0

-2.4434243768553957e6 3.0637031209785715e7 0.0
3.0637031209785715e7 2.3264418537346534e6 0.0
0.0 0.0 0.0

-3.8689716592190317e6 2.3527131260048717e7 0.0
2.3527131260048717e7 1.0452815414336503e7 0.0
0.0 0.0 0.0

798322.7994758822 5.415978075355149e6 0.0
5.415978075355149e6 -6.0309634666369274e7 0.0
0.0 0.0 0.0

-3.96417090592385e6 2.1691344707314473e7 0.0
2.1691344707314473e7 1.4767913304532103e7 0.0
0.0 0.0 0.0

1.7942340566854905e6 5.246742045921554e6 0.0
5.246742045921554e6 -4.862845094711181e7 0.0
0.0 0.0 0.0

-522639.8436840698 2.070031274328156e7 0.0
2.070031274328156e7 -8.503121372710839e6 0.0
0.0 0.0 0.0

-512982.65496926894 1.990575819801944e7 0.0
1.990575819801944e7 -8.867996677332422e6 0.0
0.0 0.0 0.0

-970665.0138679654 1.740196152773988e7 0.0
1.740196152773988e7 -3.6367516941477023e6 0.0
0.0 0.0 0.0

-3.330831692513706e6 2.023835921051578e7 0.0
2.023835921051578e7 1.7144460649199903e7 0.0
0.0 0.0 0.0

-1.7241755931977336e6 2.5859413521212067e7 0.0
2.5859413521212067e7 -1.9293950744967046e6 0.0
0.0 0.0 0.0

-4.468326013695352e6 2.0399768613113463e7 0.0
2.0399768613113463e7 1.4029593217172153e7 0.0
0.0 0.0 0.0

-8.59835243166215e6 -3.630690686487363e6 0.0
-3.630690686487363e6 3.2041741684426077e7 0.0
0.0 0.0 0.0

2.464063397806879e6 6.605498927154071e6 0.0
6.605498927154071e6 -3.458599813768852e7 0.0
0.0 0.0 0.0

2.368176625488339e6 8.911954504100293e6 0.0
8.911954504100293e6 -2.7040052412210792e7 0.0
0.0 0.0 0.0

1.223320100796307e6 3.1665770928666823e7 0.0
3.1665770928666823e7 -1.656737995826026e6 0.0
0.0 0.0 0.0

-2.6941513207238424e6 2.0046892856229816e7 0.0
2.0046892856229816e7 -1.0607779839075288e7 0.0
0.0 0.0 0.0

-24474.94900232181 1.4899935908658005e7 0.0
1.4899935908658005e7 -2.8861791621346228e7 0.0
0.0 0.0 0.0

2.725704857467186e6 1.9498200331356343e7 0.0
1.9498200331356343e7 1.546477201994544e7 0.0
0.0 0.0 0.0

-1.0270900051142393e7 1.734995875079547e6 0.0
1.734995875079547e6 2.1973845185671158e7 0.0
0.0 0.0 0.0

6.136243548503893e6 2.2685524267254926e7 0.0
2.2685524267254926e7 1.18682865634739e7 0.0
0.0 0.0 0.0

-1.406887459751015e7 3.2008873042264253e7 0.0
3.2008873042264253e7 6.521746675251653e6 0.0
0.0 0.0 0.0

3.842362881472905e6 2.042241837061764e7 0.0
2.042241837061764e7 6.780794484023861e6 0.0
0.0 0.0 0.0

2.286458754055515e6 1.798015471107485e7 0.0
1.798015471107485e7 1.4290389151884988e7 0.0
0.0 0.0 0.0

-5.249539237972427e6 2.8275028475616775e7 0.0
2.8275028475616775e7 5.797010078357075e6 0.0
0.0 0.0 0.0

-3.947154040616925e6 2.092042737346847e7 0.0
2.092042737346847e7 1.7000334503975503e7 0.0
0.0 0.0 0.0

-1.493589574613599e6 1.7766787746061746e7 0.0
1.7766787746061746e7 3.462705737171734e7 0.0
0.0 0.0 0.0

-1.903956804544653e7 2.568635797728409e7 0.0
2.568635797728409e7 -2.1732624714012477e6 0.0
0.0 0.0 0.0

-1.2849367502405003e7 2.42832375744004e7 0.0
2.42832375744004e7 2.4811385041457247e6 0.0
0.0 0.0 0.0

-1.176842860505791e7 1.6694366196226478e7 0.0
1.6694366196226478e7 2.0434561819713656e6 0.0
0.0 0.0 0.0

-7.679233180853733e7 3.441317079671541e7 0.0
3.441317079671541e7 -2.0063998435526416e6 0.0
0.0 0.0 0.0

1.1029398443551064e7 2.0300251382216197e7 0.0
2.0300251382216197e7 6.405749928854117e6 0.0
0.0 0.0 0.0

-1.8688367757280301e6 1.5917971599663079e7 0.0
1.5917971599663079e7 -2.942299570059482e7 0.0
0.0 0.0 0.0

-3.546586888081312e6 2.3007785046099544e7 0.0
2.3007785046099544e7 7.974250846723832e6 0.0
0.0 0.0 0.0

310552.1087773163 1.9459914656621926e7 0.0
1.9459914656621926e7 -1.4859428194361784e7 0.0
0.0 0.0 0.0

4.129661855964957e7 1.6078504500891482e7 0.0
1.6078504500891482e7 2.0979655781640243e6 0.0
0.0 0.0 0.0

-5.975786806948827e6 -1.7276688765967167e6 0.0
-1.7276688765967167e6 1.0577728060411807e7 0.0
0.0 0.0 0.0

3.62544230428367e6 2.706871905937162e6 0.0
2.706871905937162e6 -1.4314562785150755e7 0.0
0.0 0.0 0.0

-19102.769558648113 2.0086376904047456e7 0.0
2.0086376904047456e7 -1.2751666044197494e7 0.0
0.0 0.0 0.0

-673728.8742540628 1.8818457156887773e7 0.0
1.8818457156887773e7 -1.0538071981556644e6 0.0
0.0 0.0 0.0

-8.991847514434315e6 4.582634220534166e6 0.0
4.582634220534166e6 4.1980638143180735e7 0.0
0.0 0.0 0.0

6.935851533040508e6 2.6343889879337337e7 0.0
2.6343889879337337e7 -5.56813274084712e6 0.0
0.0 0.0 0.0

-1.2973957576057686e7 4.138167631434552e7 0.0
4.138167631434552e7 3.007480515919692e6 0.0
0.0 0.0 0.0

1.0361807135261182e7 2.105992856786078e7 0.0
2.105992856786078e7 5.622486803760424e6 0.0
0.0 0.0 0.0

-8.574258974512447e6 -4.814632145218937e6 0.0
-4.814632145218937e6 2.6014758158948805e7 0.0
0.0 0.0 0.0

-2.2197569413947117e7 2.626964082091584e7 0.0
2.626964082091584e7 -1.1125410231128568e6 0.0
0.0 0.0 0.0

912076.7204432914 1.84129868800764e7 0.0
1.84129868800764e7 6.3321204728009645e6 0.0
0.0 0.0 0.0

-1.816651320447539e7 4.339473153740665e7 0.0
4.339473153740665e7 3.746392648345855e6 0.0
0.0 0.0 0.0

-7.674880207056245e6 1.7746560015311208e7 0.0
1.7746560015311208e7 2.2221992189338744e7 0.0
0.0 0.0 0.0

1.9139123537980542e6 1.9801316118584845e7 0.0
1.9801316118584845e7 -1.8094936542181391e6 0.0
0.0 0.0 0.0

-6.236787461790804e6 1.72841637063193e7 0.0
1.72841637063193e7 -2.374751979005264e7 0.0
0.0 0.0 0.0

-2.5207575233520507e6 1.8214175965332963e7 0.0
1.8214175965332963e7 -1.0758264123522425e7 0.0
0.0 0.0 0.0

7.091224149132736e6 2.2139183994769286e7 0.0
2.2139183994769286e7 -4.055104732897841e6 0.0
0.0 0.0 0.0

3.253881012027817e7 4.217150214798882e7 0.0
4.217150214798882e7 -1.1982538569166176e7 0.0
0.0 0.0 0.0

-9.377066091107912e6 -3.1751430294662346e6 0.0
-3.1751430294662346e6 2.0025040962564327e7 0.0
0.0 0.0 0.0

1.8187455927918784e6 3.4569924172110416e7 0.0
3.4569924172110416e7 -2.6648097065900406e6 0.0
0.0 0.0 0.0

3.2489224951494345e6 2.9652296992111128e7 0.0
2.9652296992111128e7 -3.2428041671375786e6 0.0
0.0 0.0 0.0

-9.669501596007546e6 -278296.4499272968 0.0
-278296.4499272968 3.399396969662885e7 0.0
0.0 0.0 0.0

3.6110549080332257e6 1.8945419212717602e6 0.0
1.8945419212717602e6 -3.230928982121278e7 0.0
0.0 0.0 0.0

-4.0880644491848457e6 2.591908675349813e7 0.0
2.591908675349813e7 7.910816278240601e6 0.0
0.0 0.0 0.0

4.864016323539867e6 2.2388140890012134e7 0.0
2.2388140890012134e7 1.24771765676857e7 0.0
0.0 0.0 0.0

-4.905912389104981e6 5.507401360937889e6 0.0
5.507401360937889e6 7.197260961722923e6 0.0
0.0 0.0 0.0

-9.210055941685366e6 1.61076606557032e7 0.0
1.61076606557032e7 2.2330484164948907e7 0.0
0.0 0.0 0.0

3.8685182097381954e6 2.1974934479200926e7 0.0
2.1974934479200926e7 1.3042498677136177e7 0.0
0.0 0.0 0.0

-629530.3178941817 1.698179316662057e7 0.0
1.698179316662057e7 -1.184598189088618e7 0.0
0.0 0.0 0.0

-3.0221680839669406e6 1.6942843691143807e7 0.0
1.6942843691143807e7 -1.624872522403792e7 0.0
0.0 0.0 0.0

1.0350147034166825e6 2.7469290775035508e7 0.0
2.7469290775035508e7 -4.4409240098848725e6 0.0
0.0 0.0 0.0

-7.020414779226209e6 -2.5631580599105437e6 0.0
-2.5631580599105437e6 1.3323589116050119e7 0.0
0.0 0.0 0.0

-2.748708527571597e6 1.945566603163498e7 0.0
1.945566603163498e7 3.626815099496161e6 0.0
0.0 0.0 0.0

-7.547283028498435e6 1.756123001401432e7 0.0
1.756123001401432e7 2.674515876947681e7 0.0
0.0 0.0 0.0

937796.638150583 1.414808872473244e7 0.0
1.414808872473244e7 -1.3276961581194406e7 0.0
0.0 0.0 0.0

906985.6384191294 2.2676706809274487e7 0.0
2.2676706809274487e7 -9.711387171791557e6 0.0
0.0 0.0 0.0

2.890571170669419e6 3.7686398032577835e7 0.0
3.7686398032577835e7 -774585.6671170263 0.0
0.0 0.0 0.0

-607317.6837321576 1.4517370392594015e7 0.0
1.4517370392594015e7 -3.0766810003495265e7 0.0
0.0 0.0 0.0

-4.259690488019568e7 4.440764570837917e7 0.0
4.440764570837917e7 5.99837014355463e6 0.0
0.0 0.0 0.0

931927.7498694812 2.225451356673788e6 0.0
2.225451356673788e6 -2.0513940707153287e6 0.0
0.0 0.0 0.0

650885.3059442913 2.413992984087438e6 0.0
2.413992984087438e6 -2.972975472572957e6 0.0
0.0 0.0 0.0

4.385278718587702e6 1.929217458796956e7 0.0
1.929217458796956e7 2.495113775690336e7 0.0
0.0 0.0 0.0

4.42851294684086e6 2.0971967989595894e7 0.0
2.0971967989595894e7 1.5253603778715957e7 0.0
0.0 0.0 0.0

-71014.49105056934 1.9596827193764e7 0.0
1.9596827193764e7 8.720593607527647e6 0.0
0.0 0.0 0.0

-1.0162912837558433e7 1.431524679789921e7 0.0
1.431524679789921e7 2.217419201426711e7 0.0
0.0 0.0 0.0

5.766229415567525e6 5.506671800827881e6 0.0
5.506671800827881e6 -1.397060598560316e6 0.0
0.0 0.0 0.0

-2.5002266802896108e6 2.1300333376754757e7 0.0
2.1300333376754757e7 9.965546493045697e6 0.0
0.0 0.0 0.0

-506986.00295703416 2.8744223791620802e7 0.0
2.8744223791620802e7 -689787.2186976358 0.0
0.0 0.0 0.0

-1.5058981526197772e6 1.5356061362929652e7 0.0
1.5356061362929652e7 -3.247358970561514e7 0.0
0.0 0.0 0.0

9.493674692443818e6 2.2399628739747e7 0.0
2.2399628739747e7 1.0894718906727185e7 0.0
0.0 0.0 0.0

1.4734788563156957e7 2.151018810398577e7 0.0
2.151018810398577e7 9.22195645889692e6 0.0
0.0 0.0 0.0

-2.5236573787027616e7 4.517617367383346e7 0.0
4.517617367383346e7 5.929050197223138e6 0.0
0.0 0.0 0.0

1.378083459224353e6 1.9679591198471107e7 0.0
1.9679591198471107e7 9.196934639971409e6 0.0
0.0 0.0 0.0

-9.88212343539338e6 8.699000316013608e6 0.0
8.699000316013608e6 1.2427272898665749e7 0.0
0.0 0.0 0.0

-1.1599121670340734e7 1.2587967463715244e7 0.0
1.2587967463715244e7 2.5583877688265204e7 0.0
0.0 0.0 0.0

-856834.9976986176 2.8042702839527518e7 0.0
2.8042702839527518e7 -1.6931925262677202e6 0.0
0.0 0.0 0.0

6.256458048104964e6 2.0558388328383986e7 0.0
2.0558388328383986e7 1.4740139582938422e7 0.0
0.0 0.0 0.0

-7.478345043248486e6 4.23732958625881e6 0.0
4.23732958625881e6 5.980355247478821e7 0.0
0.0 0.0 0.0

-243577.71897643246 1.926874391151489e7 0.0
1.926874391151489e7 1.5885748342754256e7 0.0
0.0 0.0 0.0

-9.65154763788526e6 1.75384594151011e7 0.0
1.75384594151011e7 -3.519172747376067e7 0.0
0.0 0.0 0.0

4.321768440720479e6 2.1834020837288212e7 0.0
2.1834020837288212e7 1.3646680989130482e7 0.0
0.0 0.0 0.0

-5.168890700242665e6 1.8752414656039022e7 0.0
1.8752414656039022e7 2.481320608773002e7 0.0
0.0 0.0 0.0

-430483.2820895044 1.6030689310990442e7 0.0
1.6030689310990442e7 -1.2242647818015723e7 0.0
0.0 0.0 0.0

4.6329597688707e6 1.8715882699884683e7 0.0
1.8715882699884683e7 7.232644329800755e7 0.0
0.0 0.0 0.0

7.076108608286733e6 2.5132020055994216e7 0.0
2.5132020055994216e7 -5.295990062431875e6 0.0
0.0 0.0 0.0

203685.049897396 1.7794663131189577e7 0.0
1.7794663131189577e7 -1.8228837297391407e7 0.0
0.0 0.0 0.0

-418075.3267543614 1.3191885575257627e7 0.0
1.3191885575257627e7 -6.046025860174934e6 0.0
0.0 0.0 0.0

3.153916800425606e6 3.104688855499319e6 0.0
3.104688855499319e6 -4.036800593401063e7 0.0
0.0 0.0 0.0

2.7393921882601487e6 3.603869635321146e7 0.0
3.603869635321146e7 -474624.2270351462 0.0
0.0 0.0 0.0

-1.115133024109313e7 1.3403727766583348e7 0.0
1.3403727766583348e7 2.625233389777746e7 0.0
0.0 0.0 0.0

3.035496047319866e6 1.7912956869102452e7 0.0
1.7912956869102452e7 1.873540336178082e7 0.0
0.0 0.0 0.0

-9.285949270432465e6 2.5742695983762145e7 0.0
2.5742695983762145e7 5.659813688324786e6 0.0
0.0 0.0 0.0

-2.664177539800016e6 2.1348181708634876e7 0.0
2.1348181708634876e7 1.810126249412774e6 0.0
0.0 0.0 0.0

-9.49037915678237e6 1.6715350618841464e7 0.0
1.6715350618841464e7 2.252755778359905e7 0.0
0.0 0.0 0.0

1.9408196447955286e6 1.0698541829908755e7 0.0
1.0698541829908755e7 -2.2062523361310266e7 0.0
0.0 0.0 0.0

-1.2139778467544917e7 3.902003338042655e7 0.0
3.902003338042655e7 5.991572642019054e6 0.0
0.0 0.0 0.0

2.2114021712383967e7 1.2366077150407355e7 0.0
1.2366077150407355e7 519086.63499755505 0.0
0.0 0.0 0.0

-1.0502142554710835e7 -1.1323248967953406e6 0.0
-1.1323248967953406e6 1.8507089418112706e7 0.0
0.0 0.0 0.0

-6.440189071099659e6 2.937620771906927e7 0.0
2.937620771906927e7 5.310763240392767e6 0.0
0.0 0.0 0.0

-2.6750515061351612e7 2.198305804759757e7 0.0
2.198305804759757e7 5.249977668385712e6 0.0
0.0 0.0 0.0

-3.575555293915542e6 2.1198769334024288e7 0.0
2.1198769334024288e7 -1.0229898157453077e7 0.0
0.0 0.0 0.0

-5.17078490206139e7 3.2683149680883836e7 0.0
3.2683149680883836e7 -1.3974730402884409e6 0.0
0.0 0.0 0.0

-3.944195976869904e6 2.1481632800041035e7 0.0
2.1481632800041035e7 -5.911925356551223e6 0.0
0.0 0.0 0.0

-5.342140589987944e6 1.858229611672385e7 0.0
1.858229611672385e7 1.7413904551622503e7 0.0
0.0 0.0 0.0

-1.0873516515105579e7 1.3433385360721692e7 0.0
1.3433385360721692e7 2.3170801526550233e7 0.0
0.0 0.0 0.0

-7.606954204262131e6 1.6435079103780156e7 0.0
1.6435079103780156e7 1.5943775110791052e7 0.0
0.0 0.0 0.0

-4.481401202150689e6 2.34898890042617e7 0.0
2.34898890042617e7 1.1313170034613464e7 0.0
0.0 0.0 0.0

-8.712845821528988e6 1.1422545444527399e6 0.0
1.1422545444527399e6 4.2099103427340254e7 0.0
0.0 0.0 0.0

-401379.04033331614 1.7775524757666502e7 0.0
1.7775524757666502e7 -1.1170705786169446e6 0.0
0.0 0.0 0.0

1.5679664999847794e6 1.2020456292047221e7 0.0
1.2020456292047221e7 -1.3833875576302618e7 0.0
0.0 0.0 0.0

879591.4658516655 1.6211515680437671e7 0.0
1.6211515680437671e7 -1.8949454967171613e7 0.0
0.0 0.0 0.0

-8.919781178986685e6 -3.0016170092335744e6 0.0
-3.0016170092335744e6 2.8600526250548027e7 0.0
0.0 0.0 0.0

-1.1410634672653286e6 1.8178119845074758e7 0.0
1.8178119845074758e7 582060.9746287639 0.0
0.0 0.0 0.0

-7.795822780458365e6 2.5929667232068997e7 0.0
2.5929667232068997e7 6.654974085777954e6 0.0
0.0 0.0 0.0

1.467269884323961e6 1.9407946173859745e7 0.0
1.9407946173859745e7 2.53755032635332e7 0.0
0.0 0.0 0.0

170443.81993245333 1.9423783114415243e7 0.0
1.9423783114415243e7 -1.3204076461858533e7 0.0
0.0 0.0 0.0

308957.2603194581 1.87089886289553e7 0.0
1.87089886289553e7 4.520492003763641e6 0.0
0.0 0.0 0.0

1.4545715968418252e6 3.3524520984182663e7 0.0
3.3524520984182663e7 -2.3124775557681653e6 0.0
0.0 0.0 0.0

1.183958105898723e6 2.042995101897193e7 0.0
2.042995101897193e7 -1.0687106591710314e7 0.0
0.0 0.0 0.0

9.342872310274196e7 3.366327241791503e7 0.0
3.366327241791503e7 2.376258737619221e6 0.0
0.0 0.0 0.0

3.7637596490880223e6 2.0269425367300052e7 0.0
2.0269425367300052e7 -3.494525601606208e6 0.0
0.0 0.0 0.0

-1.9595477274279455e6 1.782818074932742e7 0.0
1.782818074932742e7 -2.14046496652736e7 0.0
0.0 0.0 0.0

1.968671072790728e6 2.2189367107328225e7 0.0
2.2189367107328225e7 -9.038251891431712e6 0.0
0.0 0.0 0.0

-2.6509262973718595e7 2.827386547403672e7 0.0
2.827386547403672e7 -2.664465991024783e6 0.0
0.0 0.0 0.0

-5.637379603693107e6 2.4975852006782297e7 0.0
2.4975852006782297e7 8.15164887675866e6 0.0
0.0 0.0 0.0

1.5065913626500824e7 2.1393310729464952e7 0.0
2.1393310729464952e7 4.386031833628437e6 0.0
0.0 0.0 0.0

-2.7224465406076107e6 1.4889903882241024e7 0.0
1.4889903882241024e7 -3.916116231632846e7 0.0
0.0 0.0 0.0

5.142474024819349e6 1.840914865952694e7 0.0
1.840914865952694e7 3.184150056741671e7 0.0
0.0 0.0 0.0

3.75943561317626e6 5.276678343464438e6 0.0
5.276678343464438e6 -2.5230169689309593e7 0.0
0.0 0.0 0.0

2.141830680881752e6 2.302435181516557e7 0.0
2.302435181516557e7 -8.547213427999483e6 0.0
0.0 0.0 0.0

2.103429053030988e6 4.36060322757579e6 0.0
4.36060322757579e6 -4.725188124171016e7 0.0
0.0 0.0 0.0

723557.2614242691 2.2428444646363884e7 0.0
2.2428444646363884e7 -9.992624920926457e6 0.0
0.0 0.0 0.0

5.7462567826584345e6 2.645065737585872e7 0.0
2.645065737585872e7 -5.657334862965652e6 0.0
0.0 0.0 0.0

-2.4037182351512127e6 2.1129625949492898e7 0.0
2.1129625949492898e7 1.2772782771836063e6 0.0
0.0 0.0 0.0

-1.2873907307094386e7 3.161932359159775e7 0.0
3.161932359159775e7 5.249070920052405e6 0.0
0.0 0.0 0.0

-5.470373504836068e6 1.887346321424345e7 0.0
1.887346321424345e7 2.4923096531213686e7 0.0
0.0 0.0 0.0

1.1504874756573376e6 1.8552219016759038e7 0.0
1.8552219016759038e7 9.755189889045795e6 0.0
0.0 0.0 0.0

-3.666048780715599e7 3.5035509840408705e7 0.0
3.5035509840408705e7 7.402935637257446e6 0.0
0.0 0.0 0.0

1.450017307796069e7 2.17555899726541e7 0.0
2.17555899726541e7 1.0424054637214236e7 0.0
0.0 0.0 0.0

-6.141290658737179e6 1.2228680378825473e7 0.0
1.2228680378825473e7 7.598723448661832e6 0.0
0.0 0.0 0.0

-5.365535913204186e6 2.879708259230927e7 0.0
2.879708259230927e7 5.046289090498973e6 0.0
0.0 0.0 0.0

-4.648802399773536e6 2.1939100351464115e7 0.0
2.1939100351464115e7 -7.875804869124331e6 0.0
0.0 0.0 0.0

1.0335319568511322e6 1.4579090321293453e7 0.0
1.4579090321293453e7 -1.4067468253688658e7 0.0
0.0 0.0 0.0

3.5593797103433833e6 1.744866251891036e6 0.0
1.744866251891036e6 -3.400323618289107e7 0.0
0.0 0.0 0.0

-1.7281916358077596e6 1.7272610884908237e7 0.0
1.7272610884908237e7 -9.40560716436177e6 0.0
0.0 0.0 0.0

4.541551196907061e7 6.388278812874096e6 0.0
6.388278812874096e6 -1.4764612152891234e6 0.0
0.0 0.0 0.0

-5.175971678873148e6 1.8522449726289444e7 0.0
1.8522449726289444e7 2.6040585359506395e7 0.0
0.0 0.0 0.0

-7.18199927079353e6 2.8264292631254762e7 0.0
2.8264292631254762e7 6.083162489264261e6 0.0
0.0 0.0 0.0

-8.379507214983707e6 -2.608256306057138e6 0.0
-2.608256306057138e6 3.815280513010069e7 0.0
0.0 0.0 0.0

-2.4012052095857705e6 3.31988681204531e7 0.0
3.31988681204531e7 714149.3864979276 0.0
0.0 0.0 0.0

-2.0318068749600768e7 2.5055610223341864e7 0.0
2.5055610223341864e7 -1.0017793164037643e6 0.0
0.0 0.0 0.0

235853.00870327 1.83044968042691e7 0.0
1.83044968042691e7 -1.709275595114509e7 0.0
0.0 0.0 0.0

4.149123818613506e6 1.9012660174076606e7 0.0
1.9012660174076606e7 2.2306657177259058e7 0.0
0.0 0.0 0.0

-16182.735729906475 1.9312709800805323e7 0.0
1.9312709800805323e7 4.438273020445488e6 0.0
0.0 0.0 0.0

-3.0698118578874306e6 2.202805592577742e7 0.0
2.202805592577742e7 8.706535157969791e6 0.0
0.0 0.0 0.0

504364.6365025928 1.39542854519654e7 0.0
1.39542854519654e7 -1.4932301680091538e7 0.0
0.0 0.0 0.0

2.668321253398329e6 1.0221223467268355e7 0.0
1.0221223467268355e7 -2.1250215397143763e7 0.0
0.0 0.0 0.0

-694723.6762977843 9.366696862940451e6 0.0
9.366696862940451e6 -6.1117541547477925e6 0.0
0.0 0.0 0.0

-4.837868402147519e6 2.8254716840177353e7 0.0
2.8254716840177353e7 4.956763729794392e6 0.0
0.0 0.0 0.0

-884822.6737441961 1.7481918877048716e7 0.0
1.7481918877048716e7 -1.0683271242896788e7 0.0
0.0 0.0 0.0

1.813252790631567e7 1.2187769353109123e7 0.0
1.2187769353109123e7 253977.53987294994 0.0
0.0 0.0 0.0

3.5220231499040816e6 1.853783708830982e6 0.0
1.853783708830982e6 -3.43815704846735e7 0.0
0.0 0.0 0.0

2.768781523833898e6 1.8338893460620612e7 0.0
1.8338893460620612e7 2.339469577544491e7 0.0
0.0 0.0 0.0

193309.17332903203 9.10625034295888e6 0.0
9.10625034295888e6 -8.22950287377579e6 0.0
0.0 0.0 0.0

2.122503368828237e6 2.777327687527434e7 0.0
2.777327687527434e7 -3.9699198634333266e6 0.0
0.0 0.0 0.0

13455.817725378554 1.947164631347987e7 0.0
1.947164631347987e7 1.1226252457139455e7 0.0
0.0 0.0 0.0

-9.983090915542409e6 7.597142736375816e6 0.0
7.597142736375816e6 3.7659552724843696e7 0.0
0.0 0.0 0.0

-7.08218107744181e6 737506.1023631296 0.0
737506.1023631296 1.1689480165997293e7 0.0
0.0 0.0 0.0

6.179658543704495e6 2.636548585996926e7 0.0
2.636548585996926e7 -5.551117677938826e6 0.0
0.0 0.0 0.0

-5.129324371521611e7 1.5898088278339533e7 0.0
1.5898088278339533e7 7.573414181972727e6 0.0
0.0 0.0 0.0

114699.64318166953 1.6926923308843616e7 0.0
1.6926923308843616e7 -2.0840738296102636e7 0.0
0.0 0.0 0.0

4.0989530557172196e6 1.3060738462985473e7 0.0
1.3060738462985473e7 3.51386692697248e6 0.0
0.0 0.0 0.0

-5.2856740056794705e6 1.8233182269795388e7 0.0
1.8233182269795388e7 1.6769232525042798e7 0.0
0.0 0.0 0.0

-5.5024401054435566e7 1.5259674410734028e7 0.0
1.5259674410734028e7 6.357370093981661e6 0.0
0.0 0.0 0.0

-2.0118492854052754e6 1.718432177345937e7 0.0
1.718432177345937e7 -2.2316950912021555e7 0.0
0.0 0.0 0.0

883632.5531306425 2.170336860193195e7 0.0
2.170336860193195e7 -1.0797582911164917e7 0.0
0.0 0.0 0.0

1.4016636868416953e6 5.438994789349156e6 0.0
5.438994789349156e6 -4.511098666386537e6 0.0
0.0 0.0 0.0

-1.0087172544431554e7 2.3706710306247786e7 0.0
2.3706710306247786e7 -7.555615567600033e6 0.0
0.0 0.0 0.0

6.161753406579174e6 3.045804966486807e7 0.0
3.045804966486807e7 -4.704300802270802e6 0.0
0.0 0.0 0.0

-1.9768379019464985e6 3.0410927054250084e7 0.0
3.0410927054250084e7 433744.65265311196 0.0
0.0 0.0 0.0

-3.3622803588872906e6 2.1718002474761747e7 0.0
2.1718002474761747e7 4.812114619047966e6 0.0
0.0 0.0 0.0

-9.27122528210068e6 1.5841137378321804e7 0.0
1.5841137378321804e7 2.788639992551946e7 0.0
0.0 0.0 0.0

-3.851296044911013e6 2.183203711682958e7 0.0
2.183203711682958e7 1.4600054752747495e7 0.0
0.0 0.0 0.0

-2.2509395622596974e6 3.235392162199325e7 0.0
3.235392162199325e7 638920.2792148761 0.0
0.0 0.0 0.0

1.0456468314085947e6 1.186033201091531e7 0.0
1.186033201091531e7 -1.5613703082988273e7 0.0
0.0 0.0 0.0

-2.2917691923786467e6 3.173058505192155e7 0.0
3.173058505192155e7 505230.449932444 0.0
0.0 0.0 0.0

4.915960619931552e6 2.113659912384071e7 0.0
2.113659912384071e7 1.3808096092240328e7 0.0
0.0 0.0 0.0

-1.0782275871957155e7 1.356192273382452e7 0.0
1.356192273382452e7 2.6953091488140997e7 0.0
0.0 0.0 0.0

3.029471100013584e6 3.180390142356652e6 0.0
3.180390142356652e6 -3.564227256215234e7 0.0
0.0 0.0 0.0

-9.203522957496595e6 2.555244385424529e7 0.0
2.555244385424529e7 6.036020763407385e6 0.0
0.0 0.0 0.0

-1.120346448767827e6 2.5124322234027155e7 0.0
2.5124322234027155e7 -4.202979089803877e6 0.0
0.0 0.0 0.0

111957.59947789973 2.4969047620140955e7 0.0
2.4969047620140955e7 -5.051127287342166e6 0.0
0.0 0.0 0.0

-7.236905882336439e7 4.428875480340804e7 0.0
4.428875480340804e7 -2.5984876408686914e7 0.0
0.0 0.0 0.0

568904.3096399084 1.897878202473429e7 0.0
1.897878202473429e7 -1.5993412385394488e7 0.0
0.0 0.0 0.0

-651525.7751594237 2.7586737374151036e7 0.0
2.7586737374151036e7 -903015.4218586691 0.0
0.0 0.0 0.0

-5.749015736421002e6 1.9260130569020983e7 0.0
1.9260130569020983e7 1.6232037564263228e7 0.0
0.0 0.0 0.0

-2.9788068730982915e7 2.3512999823333003e7 0.0
2.3512999823333003e7 5.7961299358162135e6 0.0
0.0 0.0 0.0

899329.8196545327 1.8630657533007592e7 0.0
1.8630657533007592e7 459838.5146094406 0.0
0.0 0.0 0.0

2.6865966921325703e6 1.952304476843719e7 0.0
1.952304476843719e7 1.5469548554044105e7 0.0
0.0 0.0 0.0

2.9961225997835156e6 1.4858868801232816e6 0.0
1.4858868801232816e6 -4.334818410358229e7 0.0
0.0 0.0 0.0

-1.854120550411873e7 3.6823518786160864e7 0.0
3.6823518786160864e7 7.8434337798686e6 0.0
0.0 0.0 0.0

-8.464059549488507e6 -1.0230797016764514e6 0.0
-1.0230797016764514e6 3.9110776322343856e7 0.0
0.0 0.0 0.0

-8.37828063317601e6 425461.0097362063 0.0
425461.0097362063 4.561212076473865e7 0.0
0.0 0.0 0.0

-5.882149898284318e6 -622615.8676248624 0.0
-622615.8676248624 1.0878310525505334e7 0.0
0.0 0.0 0.0

-9.650243465323629e6 1.408289326116502e7 0.0
1.408289326116502e7 3.084790581453353e7 0.0
0.0 0.0 0.0

2.418446522746007e6 1.7424628813613284e7 0.0
1.7424628813613284e7 1.110270869896557e7 0.0
0.0 0.0 0.0

-25599.86668375507 1.6166881392981853e7 0.0
1.6166881392981853e7 -2.38535411376374e7 0.0
0.0 0.0 0.0

-3.790458239678741e7 4.601294698813607e7 0.0
4.601294698813607e7 8.496362113521233e6 0.0
0.0 0.0 0.0

-1.0341113183406964e7 1.4214298847846149e7 0.0
1.4214298847846149e7 2.744875046723153e7 0.0
0.0 0.0 0.0

-2.9306756665737163e6 1.4495792621102052e7 0.0
1.4495792621102052e7 -4.1033110349562146e7 0.0
0.0 0.0 0.0

-1.9571843025979087e7 2.472449546175793e7 0.0
2.472449546175793e7 -734026.5267611332 0.0
0.0 0.0 0.0

-7.893040663577136e6 70542.00306514358 0.0
70542.00306514358 4.678869993446825e7 0.0
0.0 0.0 0.0

174442.4569247989 1.793066783937635e7 0.0
1.793066783937635e7 -1.5470245480440283e7 0.0
0.0 0.0 0.0

-7.514721259381253e6 1.7306560203503948e7 0.0
1.7306560203503948e7 -4.59937790801034e7 0.0
0.0 0.0 0.0

-2.9039700566238826e6 2.06022841238639e7 0.0
2.06022841238639e7 -7.187377579624437e6 0.0
0.0 0.0 0.0

-1.7362980293161735e7 2.304881844559612e7 0.0
2.304881844559612e7 -100980.5799281802 0.0
0.0 0.0 0.0

4.56763409564637e7 2.595870540250464e7 0.0
2.595870540250464e7 9.568625147617076e6 0.0
0.0 0.0 0.0

-1.450872000419159e6 1.5418506049688019e7 0.0
1.5418506049688019e7 -3.4096026413212465e6 0.0
0.0 0.0 0.0

1.0797885936147152e6 1.6654072730063586e7 0.0
1.6654072730063586e7 -1.747160239365332e7 0.0
0.0 0.0 0.0

-2.6011709100486734e6 1.6910674633052744e7 0.0
1.6910674633052744e7 -1.3632713790800955e7 0.0
0.0 0.0 0.0

3.0727971131095774e6 1.627087042906308e6 0.0
1.627087042906308e6 -4.3731098217144854e7 0.0
0.0 0.0 0.0

686708.5052956911 2.6808109239947975e7 0.0
2.6808109239947975e7 -3.648407399869742e6 0.0
0.0 0.0 0.0

-3.01637362765278e6 1.671716507702651e7 0.0
1.671716507702651e7 -2.4364185794030022e7 0.0
0.0 0.0 0.0

934655.9537758059 2.0741207999803845e7 0.0
2.0741207999803845e7 -1.1177253619733525e7 0.0
0.0 0.0 0.0

-430404.8217758513 1.9121076698637653e7 0.0
1.9121076698637653e7 1.7835863317929157e6 0.0
0.0 0.0 0.0

-5.382742248329023e6 1.2025786112648176e7 0.0
1.2025786112648176e7 1.0409564947924837e7 0.0
0.0 0.0 0.0

-3.469328129189391e6 2.173791728560515e7 0.0
2.173791728560515e7 8.2583198862144705e6 0.0
0.0 0.0 0.0

-982001.9417967089 1.8972821045044564e7 0.0
1.8972821045044564e7 2.63387850516925e7 0.0
0.0 0.0 0.0

3.8855884294748325e6 2.1555876155533832e6 0.0
2.1555876155533832e6 -2.8378943181305602e7 0.0
0.0 0.0 0.0

-1.5828425065774113e7 1.4120662714414472e7 0.0
1.4120662714414472e7 4.1703441925142296e6 0.0
0.0 0.0 0.0

5.644698803328416e6 2.2371940145306785e7 0.0
2.2371940145306785e7 1.2942898880257193e7 0.0
0.0 0.0 0.0

-1.3768014049444748e6 1.7956416236093897e7 0.0
1.7956416236093897e7 -1.6704431480192646e7 0.0
0.0 0.0 0.0

7.083768400841178e7 1.0433633662294773e7 0.0
1.0433633662294773e7 -304247.38133351505 0.0
0.0 0.0 0.0

362908.35926948953 1.7015500976097945e7 0.0
1.7015500976097945e7 -2.093106916899184e7 0.0
0.0 0.0 0.0

-129061.2502926432 2.577430580303411e7 0.0
2.577430580303411e7 -5.080221768611867e6 0.0
0.0 0.0 0.0

-2.761874512991003e6 2.2807018279170733e7 0.0
2.2807018279170733e7 -235532.88617993775 0.0
0.0 0.0 0.0

6.56942274684404e6 1.878611725340444e7 0.0
1.878611725340444e7 5.849621200882382e7 0.0
0.0 0.0 0.0

-9.791458885666186e6 1.2905968051824085e7 0.0
1.2905968051824085e7 3.240389546913681e7 0.0
0.0 0.0 0.0

-8.28360880616596e6 -3.070108722661532e6 0.0
-3.070108722661532e6 3.7752221166621216e7 0.0
0.0 0.0 0.0

-1.0031280718366023e7 6.037240540495244e6 0.0
6.037240540495244e6 3.901420290832912e7 0.0
0.0 0.0 0.0

-2.50521644865116e6 2.951005284053545e7 0.0
2.951005284053545e7 1.0253640072406621e6 0.0
0.0 0.0 0.0

1.9348107021392407e6 1.1606133411415271e7 0.0
1.1606133411415271e7 -2.3085552322305597e7 0.0
0.0 0.0 0.0

-3.387659584284059e6 2.296196697727819e7 0.0
2.296196697727819e7 1.0862671835948985e7 0.0
0.0 0.0 0.0

569135.5628191745 1.9476261739343215e7 0.0
1.9476261739343215e7 -1.490629623316865e7 0.0
0.0 0.0 0.0

-6.634251379064087e6 1.7481219063475974e7 0.0
1.7481219063475974e7 1.5286834565861171e7 0.0
0.0 0.0 0.0

-5.044189606833318e6 2.5322580293542948e7 0.0
2.5322580293542948e7 8.438146883785628e6 0.0
0.0 0.0 0.0

8.591038924212137e6 2.4672552494666092e7 0.0
2.4672552494666092e7 -4.802803827645969e6 0.0
0.0 0.0 0.0

-4.278501639793941e6 2.1254951340226877e7 0.0
2.1254951340226877e7 1.613572714183652e7 0.0
0.0 0.0 0.0

-3.4246022123663314e6 2.2185062992672928e7 0.0
2.2185062992672928e7 1.2263492932451315e7 0.0
0.0 0.0 0.0

-3.5645183125881758e6 1.777258340816322e7 0.0
1.777258340816322e7 -1.4891296566471761e7 0.0
0.0 0.0 0.0

-1.0934764138726262e7 1.4247136868112814e7 0.0
1.4247136868112814e7 2.529252779319287e7 0.0
0.0 0.0 0.0

-2.162674562610845e6 2.9490861331438802e7 0.0
2.9490861331438802e7 2.1668834138716296e6 0.0
0.0 0.0 0.0

3.282151908789767e6 4.7233596071466915e6 0.0
4.7233596071466915e6 -2.6814197194863364e7 0.0
0.0 0.0 0.0

-7.132250966403589e6 2.7574737683553426e6 0.0
2.7574737683553426e6 5.870627679809334e7 0.0
0.0 0.0 0.0

-1.5647402024687135e6 1.9904616844760843e7 0.0
1.9904616844760843e7 -8.517549304127926e6 0.0
0.0 0.0 0.0

-2.5449322989020413e6 3.0131055993539277e7 0.0
3.0131055993539277e7 1.119726334537591e6 0.0
0.0 0.0 0.0

1.3741775760515966e6 1.3584712940021167e7 0.0
1.3584712940021167e7 -2.612280511596576e7 0.0
0.0 0.0 0.0

-5128.147064968711 2.7036859392937467e7 0.0
2.7036859392937467e7 -4.00338258876283e6 0.0
0.0 0.0 0.0

2.1400475655550286e6 1.0012916131134043e7 0.0
1.0012916131134043e7 -2.311127714840326e7 0.0
0.0 0.0 0.0

-1.0855680459584428e7 1.2518879746805944e7 0.0
1.2518879746805944e7 2.823147492073354e7 0.0
0.0 0.0 0.0

-5.8043159599157624e7 4.269522981224273e7 0.0
4.269522981224273e7 1.0209146679690529e7 0.0
0.0 0.0 0.0

-1.3862019529124811e7 2.4764143730317745e7 0.0
2.4764143730317745e7 -427667.3002970107 0.0
0.0 0.0 0.0

-3.6929362840027297e6 2.2955837510724884e7 0.0
2.2955837510724884e7 1.1915356498801487e7 0.0
0.0 0.0 0.0

-7.785485124376496e6 -6.320646464736273e6 0.0
-6.320646464736273e6 1.7717482941555306e7 0.0
0.0 0.0 0.0

-1.6585789197338814e7 2.3487183555879284e7 0.0
2.3487183555879284e7 -2.407054902777778e6 0.0
0.0 0.0 0.0

-6.696011907260571e6 2.5890148425786316e7 0.0
2.5890148425786316e7 7.333813865710871e6 0.0
0.0 0.0 0.0

3.2709679881867506e6 2.9972468604942947e6 0.0
2.9972468604942947e6 -3.64977897831387e7 0.0
0.0 0.0 0.0

-6.9920158348294245e6 1.6178145563274547e7 0.0
1.6178145563274547e7 1.8239658519283883e7 0.0
0.0 0.0 0.0

-1.0080286276349138e7 1.4880620916972453e7 0.0
1.4880620916972453e7 2.278520615873274e7 0.0
0.0 0.0 0.0

4.004115178364301e6 3.397197009170424e7 0.0
3.397197009170424e7 -1.7611582057740584e6 0.0
0.0 0.0 0.0

-1.1405094078171935e7 1.6029455295663553e6 0.0
1.6029455295663553e6 2.0254071842541322e7 0.0
0.0 0.0 0.0

-1.041874641570237e7 1.5178555726431793e7 0.0
1.5178555726431793e7 2.6078876549987033e7 0.0
0.0 0.0 0.0

-931350.9946584306 3.0745223655584995e7 0.0
3.0745223655584995e7 932435.9618749464 0.0
0.0 0.0 0.0

-7.987984059999995e6 464450.9257254117 0.0
464450.9257254117 4.863795787050147e7 0.0
0.0 0.0 0.0

-8.242383959425281e6 -3.981610424328996e6 0.0
-3.981610424328996e6 2.008364927512404e7 0.0
0.0 0.0 0.0

2.935887289759783e6 7.355792046035083e6 0.0
7.355792046035083e6 -2.548610260704613e7 0.0
0.0 0.0 0.0

-3.245424067302271e6 2.208693062571453e7 0.0
2.208693062571453e7 9.33024090733583e6 0.0
0.0 0.0 0.0

-9.608609197358293e6 1.4803618453216188e7 0.0
1.4803618453216188e7 2.873299592744847e7 0.0
0.0 0.0 0.0

151243.51878977194 1.8918202726443183e7 0.0
1.8918202726443183e7 -1.4637886926006414e7 0.0
0.0 0.0 0.0

835110.4523697468 1.805435121048269e7 0.0
1.805435121048269e7 -1.545915394323589e7 0.0
0.0 0.0 0.0

1.9659570681308173e6 1.1316312931127923e7 0.0
1.1316312931127923e7 -2.4655839912087824e7 0.0
0.0 0.0 0.0

96093.6037871223 1.6549328054134155e7 0.0
1.6549328054134155e7 -2.2374489437724665e7 0.0
0.0 0.0 0.0

960018.7883209619 1.917257589775111e7 0.0
1.917257589775111e7 7.831562613073839e6 0.0
0.0 0.0 0.0

-9.450467621134726e6 1.5892483958029622e7 0.0
1.5892483958029622e7 2.731658333548082e7 0.0
0.0 0.0 0.0

120585.29938549735 2.630550020981618e7 0.0
2.630550020981618e7 -4.901857073676956e6 0.0
0.0 0.0 0.0

-5.225233369208844e6 2.8069100088916946e7 0.0
2.8069100088916946e7 5.668024308912385e6 0.0
0.0 0.0 0.0

-1.5967004593701507e6 2.98480112684032e7 0.0
2.98480112684032e7 1.555305177333499e6 0.0
0.0 0.0 0.0

1.4460525806069298e7 2.3695371910373084e7 0.0
2.3695371910373084e7 6.975821151425351e7 0.0
0.0 0.0 0.0

-2.7700405895779068e6 2.247151844702156e7 0.0
2.247151844702156e7 7.817021181615159e6 0.0
0.0 0.0 0.0

960635.335441269 1.7200154748775695e7 0.0
1.7200154748775695e7 -1.631806692046972e7 0.0
0.0 0.0 0.0

-641686.9588609487 1.730157315708678e7 0.0
1.730157315708678e7 -2.0854579594090607e7 0.0
0.0 0.0 0.0

1.0263446808482865e6 1.6947520455605023e7 0.0
1.6947520455605023e7 -1.779913239443043e7 0.0
0.0 0.0 0.0

907048.7092942261 2.9256805637418363e7 0.0
2.9256805637418363e7 -1.9632176585614001e6 0.0
0.0 0.0 0.0

-3.4160721941753076e6 2.1428743317937e7 0.0
2.1428743317937e7 7.230115723393657e6 0.0
0.0 0.0 0.0

73796.2978669242 1.833139371057433e7 0.0
1.833139371057433e7 2.8882456218075156e6 0.0
0.0 0.0 0.0

-820266.2996939449 1.832738162006665e7 0.0
1.832738162006665e7 -1.6057661342972368e7 0.0
0.0 0.0 0.0

-6.44175283416727e6 1.2728452053698204e7 0.0
1.2728452053698204e7 9.173806560190363e6 0.0
0.0 0.0 0.0

4.751916017707008e6 3.93750713300259e7 0.0
3.93750713300259e7 -4.873730470565723e6 0.0
0.0 0.0 0.0

2.1544232175285146e6 3.8435053873043237e6 0.0
3.8435053873043237e6 -5.195608001039906e7 0.0
0.0 0.0 0.0

9.71160556152979e7 3.737597567625695e7 0.0
3.737597567625695e7 2.2946131061125953e7 0.0
0.0 0.0 0.0

4.210202097423862e7 3.950268409143269e7 0.0
3.950268409143269e7 -1.7424005982977044e7 0.0
0.0 0.0 0.0

-1.3420519315226823e6 1.9626865984585207e7 0.0
1.9626865984585207e7 1.7807636820011962e7 0.0
0.0 0.0 0.0

1.6554002939108433e6 1.957535093464225e7 0.0
1.957535093464225e7 1.007904949876875e7 0.0
0.0 0.0 0.0

-2.5143178644668777e7 2.5316525264252618e7 0.0
2.5316525264252618e7 -134308.01097450592 0.0
0.0 0.0 0.0

-5.934910093857746e7 2.9450850417734403e7 0.0
2.9450850417734403e7 731641.8652026802 0.0
0.0 0.0 0.0

-7.248526461919725e6 1.279791130619479e7 0.0
1.279791130619479e7 1.4634793867191855e7 0.0
0.0 0.0 0.0

-801215.7359711672 2.5844507539370067e7 0.0
2.5844507539370067e7 -2.0429760326233748e6 0.0
0.0 0.0 0.0

1.1206995905695716e6 1.6072146173452936e7 0.0
1.6072146173452936e7 -1.859925583822858e7 0.0
0.0 0.0 0.0

1.8345841569923777e6 7.583789458923172e6 0.0
7.583789458923172e6 -4.71612771360254e7 0.0
0.0 0.0 0.0

630228.5011432832 1.6283392664210524e7 0.0
1.6283392664210524e7 -1.892957372558269e7 0.0
0.0 0.0 0.0

-2.2462046890281662e6 1.4569448007579619e7 0.0
1.4569448007579619e7 -3.6456994723292865e7 0.0
0.0 0.0 0.0

-1.0583471082317952e7 1.498010713072754e7 0.0
1.498010713072754e7 2.083967113039058e7 0.0
0.0 0.0 0.0

502585.08548164647 1.8815043908604067e7 0.0
1.8815043908604067e7 2.4459347377538774e7 0.0
0.0 0.0 0.0

548835.3733694914 1.7932739642013185e7 0.0
1.7932739642013185e7 7.220097671074054e6 0.0
0.0 0.0 0.0

-1.1786905245924935e7 7.835708536381516e6 0.0
7.835708536381516e6 6.095188118467904e6 0.0
0.0 0.0 0.0

-1.0034093392118296e7 4.604847483573369e6 0.0
4.604847483573369e6 3.842104316522213e7 0.0
0.0 0.0 0.0

-3.069423834506281e6 2.5710744974586662e7 0.0
2.5710744974586662e7 5.962289342948602e6 0.0
0.0 0.0 0.0

-616497.2803833131 1.9255016700743023e7 0.0
1.9255016700743023e7 2.673740905508975e7 0.0
0.0 0.0 0.0

-5.08769105936203e6 1.7855812841980536e7 0.0
1.7855812841980536e7 1.5855052279858135e7 0.0
0.0 0.0 0.0

-6.074922237537417e6 2.5187557087902483e6 0.0
2.5187557087902483e6 5.932594440501522e6 0.0
0.0 0.0 0.0

-4.404959903883819e6 1.230376610737382e7 0.0
1.230376610737382e7 6.150922942375393e7 0.0
0.0 0.0 0.0

-2.5533434256057907e6 2.0710889274398148e7 0.0
2.0710889274398148e7 2.1207334972473644e6 0.0
0.0 0.0 0.0

229099.0465241631 2.557441246833122e7 0.0
2.557441246833122e7 -5.816126958890569e6 0.0
0.0 0.0 0.0

-553291.605367804 1.8745169121017303e7 0.0
1.8745169121017303e7 2.7573216187948436e7 0.0
0.0 0.0 0.0

-5.852597832976057e6 1.259814847335889e7 0.0
1.259814847335889e7 1.1887457776485687e7 0.0
0.0 0.0 0.0

6.267632592038796e6 2.538940407336377e7 0.0
2.538940407336377e7 -5.676096832577776e6 0.0
0.0 0.0 0.0

-5.339433908472478e6 4.669175516931265e6 0.0
4.669175516931265e6 6.6776172691737786e7 0.0
0.0 0.0 0.0

6.339228663372951e6 2.3407800188341197e7 0.0
2.3407800188341197e7 -5.307484367292356e6 0.0
0.0 0.0 0.0

-2.186553581536147e6 3.0066734813313894e7 0.0
3.0066734813313894e7 2.311404238876993e6 0.0
0.0 0.0 0.0

-4.956192816949359e6 1.6299771708232397e7 0.0
1.6299771708232397e7 -2.1996144539529767e7 0.0
0.0 0.0 0.0

-4.0495349038662547e6 2.0636835943892926e7 0.0
2.0636835943892926e7 1.707672466275058e7 0.0
0.0 0.0 0.0

-1.054907283790246e7 1.291400846508449e7 0.0
1.291400846508449e7 2.960726393099569e7 0.0
0.0 0.0 0.0

3.3093061647923733e6 2.8752884733529035e7 0.0
2.8752884733529035e7 -3.9843930891328854e6 0.0
0.0 0.0 0.0

2.8761320486839768e6 5.480027511632143e6 0.0
5.480027511632143e6 -1.0222967064400606e7 0.0
0.0 0.0 0.0

-466799.58001604927 3.688205527429699e7 0.0
3.688205527429699e7 -1.5016313640345405e6 0.0
0.0 0.0 0.0

3.7969963322274685e6 2.1171438005657602e7 0.0
2.1171438005657602e7 7.4590301573610725e6 0.0
0.0 0.0 0.0

-1.0937465495282756e6 2.374583146502046e7 0.0
2.374583146502046e7 -3.8098644643728943e6 0.0
0.0 0.0 0.0

2.7290506701602675e6 5.371793774750532e6 0.0
5.371793774750532e6 -3.613651140452699e7 0.0
0.0 0.0 0.0

-2.2541835023687324e6 2.066440406167084e7 0.0
2.066440406167084e7 -9.857134283306649e6 0.0
0.0 0.0 0.0

6.5036855013412405e6 2.195099175425709e7 0.0
2.195099175425709e7 1.2931582765678346e7 0.0
0.0 0.0 0.0

-1.6049349978846211e6 2.8076257841787994e7 0.0
2.8076257841787994e7 1.2604959002660555e6 0.0
0.0 0.0 0.0

3.686049249619415e6 1.9269438518801443e7 0.0
1.9269438518801443e7 2.7666469428824075e7 0.0
0.0 0.0 0.0

-3.8243508764665704e6 1.5306366234722757e6 0.0
1.5306366234722757e6 7.435492534323731e6 0.0
0.0 0.0 0.0

-1.872904034598248e6 1.813845178390737e7 0.0
1.813845178390737e7 3.262580056351894e7 0.0
0.0 0.0 0.0

-7.283668512091314e6 2.3849015508027554e7 0.0
2.3849015508027554e7 4.558569298630128e6 0.0
0.0 0.0 0.0

6.774700076235623e6 2.420498818836106e7 0.0
2.420498818836106e7 -5.287524858954866e6 0.0
0.0 0.0 0.0

2.37539359896601e6 2.2887136751056805e7 0.0
2.2887136751056805e7 -8.325240014216934e6 0.0
0.0 0.0 0.0

6.771528401400579e6 3.022961591205794e7 0.0
3.022961591205794e7 -4.652510127053856e6 0.0
0.0 0.0 0.0

567069.8824033723 1.6863804044321634e7 0.0
1.6863804044321634e7 5.157830539657129e6 0.0
0.0 0.0 0.0

-4.0343337080192617e6 2.371684723456137e7 0.0
2.371684723456137e7 1.0842444412189003e7 0.0
0.0 0.0 0.0

3.3769023367708996e6 3.1205876246045236e7 0.0
3.1205876246045236e7 -3.8713693389164694e6 0.0
0.0 0.0 0.0

-7.539915866241157e6 1.6674932894670252e7 0.0
1.6674932894670252e7 -4.583797309185812e7 0.0
0.0 0.0 0.0

-8.645855309808636e6 1.0399651727943925e7 0.0
1.0399651727943925e7 1.218499967959195e7 0.0
0.0 0.0 0.0

796479.5706467796 1.8791096700726073e7 0.0
1.8791096700726073e7 8.87330176211762e6 0.0
0.0 0.0 0.0

3.4834865589252096e6 2.9532688925780986e7 0.0
2.9532688925780986e7 -4.580192374892672e6 0.0
0.0 0.0 0.0

-1.1212571758663822e6 1.875597279240739e7 0.0
1.875597279240739e7 -1.6627918313557953e7 0.0
0.0 0.0 0.0

3.8941355104222298e6 3.475570874613319e6 0.0
3.475570874613319e6 -2.5413646588910047e7 0.0
0.0 0.0 0.0

-6.6241184467231855e6 -245486.4913378122 0.0
-245486.4913378122 6.180139773113625e7 0.0
0.0 0.0 0.0

1.0695900324532464e6 1.3657793927548954e7 0.0
1.3657793927548954e7 -2.7810455938079514e7 0.0
0.0 0.0 0.0

1.8986898251546065e6 2.033359363121298e7 0.0
2.033359363121298e7 1.1432714805975892e7 0.0
0.0 0.0 0.0

-9.180580564672384e6 1.562859713789619e7 0.0
1.562859713789619e7 2.181804106579076e7 0.0
0.0 0.0 0.0

7.645006777713221e6 2.3838669714429595e7 0.0
2.3838669714429595e7 -4.699632095912657e6 0.0
0.0 0.0 0.0

2.999330662545503e6 5.898444501090223e6 0.0
5.898444501090223e6 -2.150862814928373e7 0.0
0.0 0.0 0.0

3.331548581904834e6 2.0818653064083483e7 0.0
2.0818653064083483e7 -2.7284532044702717e6 0.0
0.0 0.0 0.0

6.823161855454778e6 2.2704389025560055e7 0.0
2.2704389025560055e7 1.227149167578713e7 0.0
0.0 0.0 0.0

9.989055512680996e6 3.8544532608604915e7 0.0
3.8544532608604915e7 -7.2458952636627555e6 0.0
0.0 0.0 0.0

2.374134622496517e6 2.2586957235295355e7 0.0
2.2586957235295355e7 -8.441848249097448e6 0.0
0.0 0.0 0.0

1.4140301287794467e6 1.7942004923622098e7 0.0
1.7942004923622098e7 4.3458735120550394e7 0.0
0.0 0.0 0.0

3.747656639737444e6 1.9173793383308302e6 0.0
1.9173793383308302e6 -3.2604184936273396e7 0.0
0.0 0.0 0.0

420510.68352771807 3.041139499016913e7 0.0
3.041139499016913e7 -2.2168717206069776e6 0.0
0.0 0.0 0.0

4.919215856529126e6 1.9901455035867244e7 0.0
1.9901455035867244e7 3.9116225573398247e6 0.0
0.0 0.0 0.0

-6.5530539925784245e7 1.8736698372390866e7 0.0
1.8736698372390866e7 4.0299407785039246e6 0.0
0.0 0.0 0.0

-6.1399343664936535e6 2.5724549188710473e7 0.0
2.5724549188710473e7 7.922368191102075e6 0.0
0.0 0.0 0.0

-7.659110715155188e6 9.513893380587712e6 0.0
9.513893380587712e6 1.3687273225436151e7 0.0
0.0 0.0 0.0

-53175.830072101206 1.6552832336220518e7 0.0
1.6552832336220518e7 -2.3968049291794237e7 0.0
0.0 0.0 0.0

-2.162443164530051e6 1.9916424684512347e7 0.0
1.9916424684512347e7 1.5349564802643236e7 0.0
0.0 0.0 0.0

-2.947209462753294e6 1.6376440593492417e7 0.0
1.6376440593492417e7 -3.2054967262612324e7 0.0
0.0 0.0 0.0

3.2934063004928734e6 2.7304888134813453e6 0.0
2.7304888134813453e6 -4.247814531233507e7 0.0
0.0 0.0 0.0

5.313641171884183e7 1.8821745422521647e7 0.0
1.8821745422521647e7 3.98200890994996e6 0.0
0.0 0.0 0.0

-1.187128520890846e8 4.578503481281727e7 0.0
4.578503481281727e7 -1.7159693112807933e7 0.0
0.0 0.0 0.0

1.2942571242938958e7 2.0711224616657216e7 0.0
2.0711224616657216e7 7.80030933997225e6 0.0
0.0 0.0 0.0

243008.33029460814 2.3191425057597555e7 0.0
2.3191425057597555e7 -8.719814627798658e6 0.0
0.0 0.0 0.0

-3.597419064032973e6 2.1603695365227718e7 0.0
2.1603695365227718e7 1.4016478707010604e7 0.0
0.0 0.0 0.0

3.68934391987825e6 3.482411318020406e6 0.0
3.482411318020406e6 -2.4923584060065683e7 0.0
0.0 0.0 0.0

-7.248037155816451e6 2.395099192361804e7 0.0
2.395099192361804e7 6.455501233101925e6 0.0
0.0 0.0 0.0

2.3391488976391554e6 3.122851991808708e7 0.0
3.122851991808708e7 -1.8452927213845383e6 0.0
0.0 0.0 0.0

-3.037070350781642e6 1.7463260423422597e7 0.0
1.7463260423422597e7 -2.4667501063170664e7 0.0
0.0 0.0 0.0

-1.44460763610495e6 2.3422013276470706e7 0.0
2.3422013276470706e7 -5.155031703940169e6 0.0
0.0 0.0 0.0

2.064193476951032e6 5.464938371429601e6 0.0
5.464938371429601e6 -6.831568666326894e6 0.0
0.0 0.0 0.0

9.886538933043962e6 2.2304859329890396e7 0.0
2.2304859329890396e7 1.2248363735474924e7 0.0
0.0 0.0 0.0

-1.1039479266124511e7 2.2831912133883912e7 0.0
2.2831912133883912e7 -2.1677901421995014e6 0.0
0.0 0.0 0.0

526937.7910779202 1.909308364503802e7 0.0
1.909308364503802e7 -1.3305580672197845e7 0.0
0.0 0.0 0.0

-2.678991408291043e6 2.4171591696438286e7 0.0
2.4171591696438286e7 929812.1382740111 0.0
0.0 0.0 0.0

893519.5308841672 1.3807771561144464e7 0.0
1.3807771561144464e7 -2.6462705116940916e7 0.0
0.0 0.0 0.0

-7.8886119123609625e6 634553.7701418127 0.0
634553.7701418127 4.9785750887082085e7 0.0
0.0 0.0 0.0

492293.7922426211 1.6814384943576425e7 0.0
1.6814384943576425e7 -1.7717305346136615e7 0.0
0.0 0.0 0.0

3.6298298973406544e6 1.9786123554670036e7 0.0
1.9786123554670036e7 -217651.2055813286 0.0
0.0 0.0 0.0

-1.4423927886449626e7 2.0061090960337244e7 0.0
2.0061090960337244e7 -5.865803831357812e7 0.0
0.0 0.0 0.0

3.449256079368025e6 6.604762519477446e6 0.0
6.604762519477446e6 -2.476362728932956e7 0.0
0.0 0.0 0.0

684222.4562930409 1.8343899679717787e7 0.0
1.8343899679717787e7 -1.7239462224593684e7 0.0
0.0 0.0 0.0

-4.746193112245772e6 2.493304401653676e7 0.0
2.493304401653676e7 9.038537843891952e6 0.0
0.0 0.0 0.0

-1.0611876718746193e6 2.739596357196451e7 0.0
2.739596357196451e7 -2.1220815549072265e6 0.0
0.0 0.0 0.0

-3.1115533741127164e6 2.2679282994900826e7 0.0
2.2679282994900826e7 1.0387308549958905e7 0.0
0.0 0.0 0.0

5.1342170854781065e6 2.07380847480856e7 0.0
2.07380847480856e7 8.135951246873918e6 0.0
0.0 0.0 0.0

-8.152315891552854e7 2.4909141807965785e7 0.0
2.4909141807965785e7 716581.7883576564 0.0
0.0 0.0 0.0

-384596.51861425035 1.5066401717055198e6 0.0
1.5066401717055198e6 -631199.6944242506 0.0
0.0 0.0 0.0

-1.2686835716713304e6 1.703277202164013e7 0.0
1.703277202164013e7 -1.8665064689724057e6 0.0
0.0 0.0 0.0

1.1955250181035409e7 2.0466082851895116e7 0.0
2.0466082851895116e7 2.693434073698717e6 0.0
0.0 0.0 0.0

-960118.8815227563 3.278158336429746e7 0.0
3.278158336429746e7 1.2145942561855707e6 0.0
0.0 0.0 0.0

-2.326700184688328e6 1.4814577584283065e7 0.0
1.4814577584283065e7 -3.9018100457539745e7 0.0
0.0 0.0 0.0

-2.662336978518022e6 2.0625725301281933e7 0.0
2.0625725301281933e7 -7.269356134950505e6 0.0
0.0 0.0 0.0

3.111845189356822e6 2.3840694899710022e7 0.0
2.3840694899710022e7 -7.315562012848378e6 0.0
0.0 0.0 0.0

1.0624416350781824e6 1.5391582992015256e7 0.0
1.5391582992015256e7 -1.5345817105370298e7 0.0
0.0 0.0 0.0

3.0705153976227907e6 2.3117776302203923e7 0.0
2.3117776302203923e7 -7.2524780611068625e6 0.0
0.0 0.0 0.0

319925.29943483556 1.9239881188916128e7 0.0
1.9239881188916128e7 9.051725721776757e6 0.0
0.0 0.0 0.0

-455211.78963786294 2.7136400185670644e7 0.0
2.7136400185670644e7 -1.7074551334647534e6 0.0
0.0 0.0 0.0

2.7557740710026706e6 9.535142239795014e6 0.0
9.535142239795014e6 -2.4133096252673525e7 0.0
0.0 0.0 0.0

3.2589438228437062e6 2.99061695730975e6 0.0
2.99061695730975e6 -3.693751214898964e7 0.0
0.0 0.0 0.0

-1.6703121003545958e6 738893.6024153818 0.0
738893.6024153818 -699892.24174862 0.0
0.0 0.0 0.0

-9.761490200228255e6 403802.8874009098 0.0
403802.8874009098 2.588881113558833e6 0.0
0.0 0.0 0.0

2.9616022061650963e6 2.05673093507725e7 0.0
2.05673093507725e7 1.3963971852843279e7 0.0
0.0 0.0 0.0

1.8867871304117504e6 1.8074778441087898e7 0.0
1.8074778441087898e7 1.1578771424190521e7 0.0
0.0 0.0 0.0

-75671.2528261994 1.908168504364266e7 0.0
1.908168504364266e7 9.089423371235766e6 0.0
0.0 0.0 0.0

2.9046690966856247e6 5.141047836959327e6 0.0
5.141047836959327e6 -1.6200686501502989e7 0.0
0.0 0.0 0.0

3.1225805784505643e6 2.200790254538195e7 0.0
2.200790254538195e7 -6.854427620030482e6 0.0
0.0 0.0 0.0

2.347006830477494e6 4.287640963651e6 0.0
4.287640963651e6 -8.012564467906224e6 0.0
0.0 0.0 0.0

2.568981286822504e6 2.3167517344287954e7 0.0
2.3167517344287954e7 -7.903228851907307e6 0.0
0.0 0.0 0.0

-8.5605743035944e6 1.6529382961313872e7 0.0
1.6529382961313872e7 2.8117570286889523e7 0.0
0.0 0.0 0.0

750760.0233600659 2.6095271118530553e7 0.0
2.6095271118530553e7 -4.577540699738975e6 0.0
0.0 0.0 0.0

4.0809167273866227e6 3.0212418911782213e7 0.0
3.0212418911782213e7 -3.224317233447909e6 0.0
0.0 0.0 0.0

2.823426730096003e6 7.273689230769093e6 0.0
7.273689230769093e6 -2.577950133668991e7 0.0
0.0 0.0 0.0

2.9808981556689963e6 5.989605253140256e6 0.0
5.989605253140256e6 -2.6339002382766686e7 0.0
0.0 0.0 0.0

1.4512198617089937e7 2.2039440113013513e7 0.0
2.2039440113013513e7 -31737.202986800112 0.0
0.0 0.0 0.0

575031.0733747287 1.9457268759922672e7 0.0
1.9457268759922672e7 2.399428729259561e7 0.0
0.0 0.0 0.0

290998.5454525864 1.7386867337700237e7 0.0
1.7386867337700237e7 -1.6595272135267483e7 0.0
0.0 0.0 0.0

-8.091789299528478e6 -2.8724048451443715e6 0.0
-2.8724048451443715e6 3.893952441701745e7 0.0
0.0 0.0 0.0

-1.0075748610580316e6 3.1376600965023365e7 0.0
3.1376600965023365e7 941482.663658684 0.0
0.0 0.0 0.0

-1.0073149922469966e7 1.5311694818005437e7 0.0
1.5311694818005437e7 2.6297747736597486e7 0.0
0.0 0.0 0.0

-8.219072955561861e6 -3.824738347154812e6 0.0
-3.824738347154812e6 1.5438885684056254e7 0.0
0.0 0.0 0.0

-153335.4254731671 1.7198836425124526e7 0.0
1.7198836425124526e7 -1.0238545305981461e7 0.0
0.0 0.0 0.0

3.410149558648389e6 3.070225324774646e6 0.0
3.070225324774646e6 -3.5577497747090615e7 0.0
0.0 0.0 0.0

-4.465421490899765e6 2.8528276199617017e7 0.0
2.8528276199617017e7 5.369610576874058e6 0.0
0.0 0.0 0.0

-851998.8921602941 2.3175300359868933e7 0.0
2.3175300359868933e7 -4.797333646694474e6 0.0
0.0 0.0 0.0

943324.3766800985 1.332379491019307e7 0.0
1.332379491019307e7 -2.7961618042221136e7 0.0
0.0 0.0 0.0

1.5366559357248792e7 1.9971683546181634e7 0.0
1.9971683546181634e7 5.275085409840479e6 0.0
0.0 0.0 0.0

-5.139869849514343e6 2.755702470039147e7 0.0
2.755702470039147e7 6.38503853028816e6 0.0
0.0 0.0 0.0

-9.034809287190305e6 -1.6693929556443354e6 0.0
-1.6693929556443354e6 3.7085138262092635e7 0.0
0.0 0.0 0.0

-8.882070330847818e6 -4.350469483518888e6 0.0
-4.350469483518888e6 2.848041454264962e7 0.0
0.0 0.0 0.0

4.969024122432001e6 2.014631488364633e7 0.0
2.014631488364633e7 205948.6905755999 0.0
0.0 0.0 0.0

553972.6453379132 2.30319806352118e7 0.0
2.30319806352118e7 -8.477647201263374e6 0.0
0.0 0.0 0.0

886622.0785459303 2.360585314259756e7 0.0
2.360585314259756e7 -8.032568774984626e6 0.0
0.0 0.0 0.0

-6.36784561298852e6 6.639627431806354e6 0.0
6.639627431806354e6 5.51609486347826e7 0.0
0.0 0.0 0.0

3.505072175412311e6 2.8213814193298207e6 0.0
2.8213814193298207e6 -1.2224578080837293e7 0.0
0.0 0.0 0.0

-7.879661019272478e6 2.276042279680225e7 0.0
2.276042279680225e7 -2.3374837176096197e6 0.0
0.0 0.0 0.0

-1.3430327102292273e7 2.3173435558697812e7 0.0
2.3173435558697812e7 -7.694511840434035e6 0.0
0.0 0.0 0.0

-2.9185852568967596e7 2.8102373218558874e7 0.0
2.8102373218558874e7 -3.308060951491234e6 0.0
0.0 0.0 0.0

783577.0843366075 3.1747749072335515e7 0.0
3.1747749072335515e7 -500648.10744087823 0.0
0.0 0.0 0.0

558183.688618149 1.751824607586003e7 0.0
1.751824607586003e7 826427.8973248051 0.0
0.0 0.0 0.0

-8.687265951465521e6 -1.0232784979142026e6 0.0
-1.0232784979142026e6 3.928694259208646e7 0.0
0.0 0.0 0.0

1.220046937038972e7 2.175775584881291e7 0.0
2.175775584881291e7 39680.59209879069 0.0
0.0 0.0 0.0

-16900.244493357837 1.896764493705629e7 0.0
1.896764493705629e7 -1.0845906414615758e7 0.0
0.0 0.0 0.0

-9.535512791765343e6 -842697.9254341557 0.0
-842697.9254341557 3.0464566465826705e7 0.0
0.0 0.0 0.0

-3.744750528008087e6 2.3147379539500594e7 0.0
2.3147379539500594e7 9.319833660680404e6 0.0
0.0 0.0 0.0

-3.8033058962072516e6 2.4514811871015448e7 0.0
2.4514811871015448e7 8.263951754352211e6 0.0
0.0 0.0 0.0

-5.063007053739624e6 658802.0189450484 0.0
658802.0189450484 5.513069507211821e6 0.0
0.0 0.0 0.0

3.152223365563404e6 5.170084163257548e6 0.0
5.170084163257548e6 -2.739645041532375e7 0.0
0.0 0.0 0.0

533251.9073642325 8.429443351401566e6 0.0
8.429443351401566e6 -4.833766208010432e7 0.0
0.0 0.0 0.0

6.868548669643265e6 2.2122731446774464e7 0.0
2.2122731446774464e7 1.2646625204893975e7 0.0
0.0 0.0 0.0

2.7597643556037224e6 4.4163187404242875e6 0.0
4.4163187404242875e6 -1.0963748968546765e7 0.0
0.0 0.0 0.0

1.9246273620484598e7 2.9496011632048137e7 0.0
2.9496011632048137e7 -7.6984148557469165e6 0.0
0.0 0.0 0.0

3.8685610271894373e6 4.462273943072636e6 0.0
4.462273943072636e6 -2.6125728263633884e7 0.0
0.0 0.0 0.0

3.7873815275276555e6 5.004693392470804e6 0.0
5.004693392470804e6 -1.7995924352435376e7 0.0
0.0 0.0 0.0

3.394008782421952e6 4.78415631503163e6 0.0
4.78415631503163e6 -2.3159480926268253e7 0.0
0.0 0.0 0.0

818995.2411887008 1.8512399561733235e7 0.0
1.8512399561733235e7 2.5939005471318257e6 0.0
0.0 0.0 0.0

1.2637639337368303e6 1.8030482654235564e7 0.0
1.8030482654235564e7 8.816611818506578e6 0.0
0.0 0.0 0.0

242416.65615391824 1.5573621849438457e7 0.0
1.5573621849438457e7 -2.5271878668721333e7 0.0
0.0 0.0 0.0

1.8134981807098687e7 3.0545633004258662e7 0.0
3.0545633004258662e7 -6.358631197814036e6 0.0
0.0 0.0 0.0

-9.321342023969892e6 -2.248774696208859e6 0.0
-2.248774696208859e6 3.03118162244496e7 0.0
0.0 0.0 0.0

-3.641384517198195e6 2.3356706534698285e7 0.0
2.3356706534698285e7 1.0964383153242175e7 0.0
0.0 0.0 0.0

-2.0270976507592602e6 3.105757513930604e7 0.0
3.105757513930604e7 461792.2267798439 0.0
0.0 0.0 0.0

353527.63798885886 2.6207701935620785e7 0.0
2.6207701935620785e7 -3.914664103101274e6 0.0
0.0 0.0 0.0

-8.317527080251219e6 -3.8130054735595863e6 0.0
-3.8130054735595863e6 2.1405811691497877e7 0.0
0.0 0.0 0.0

-9.57547529448466e6 -1.432771100866181e6 0.0
-1.432771100866181e6 1.4877628621716708e7 0.0
0.0 0.0 0.0

1.929173930801968e6 1.9489233942186605e7 0.0
1.9489233942186605e7 2.284648174180459e7 0.0
0.0 0.0 0.0

-2.0954780390355892e6 41927.88381015469 0.0
41927.88381015469 2.0899724101621509e6 0.0
0.0 0.0 0.0

6.488064208300734e6 2.422435093638309e7 0.0
2.422435093638309e7 -5.308901700433489e6 0.0
0.0 0.0 0.0

207063.67064808402 2.192025971035958e7 0.0
2.192025971035958e7 -1.0251259480683347e7 0.0
0.0 0.0 0.0

408018.2655055849 1.821733543615442e7 0.0
1.821733543615442e7 -1.8266261705534633e7 0.0
0.0 0.0 0.0

-2.110326767668523e6 2.2397195242941327e7 0.0
2.2397195242941327e7 501698.01883806044 0.0
0.0 0.0 0.0

-3.8301118688874417e6 2.236898829943632e7 0.0
2.236898829943632e7 9.89173717370654e6 0.0
0.0 0.0 0.0

-9.90508888031606e6 1.5401898480170695e7 0.0
1.5401898480170695e7 2.3298638787506588e7 0.0
0.0 0.0 0.0

-1.9582272111039575e7 3.9362968464002684e7 0.0
3.9362968464002684e7 6.0143347571314e6 0.0
0.0 0.0 0.0

2.9776382919995086e6 4.3423278781142095e6 0.0
4.3423278781142095e6 -1.1180634061342783e7 0.0
0.0 0.0 0.0

783893.4980984582 1.7744813493372615e7 0.0
1.7744813493372615e7 -1.521808172556585e7 0.0
0.0 0.0 0.0

2.352857835529931e6 3.9540030580498637e6 0.0
3.9540030580498637e6 -5.1786101640988655e7 0.0
0.0 0.0 0.0

2.783135693657537e6 2.3604490980718005e7 0.0
2.3604490980718005e7 -7.70225833021407e6 0.0
0.0 0.0 0.0

-7.46435617296758e6 1.2569002043295756e7 0.0
1.2569002043295756e7 1.2753051176452767e7 0.0
0.0 0.0 0.0

-8.077524820022352e6 1.640292438954851e7 0.0
1.640292438954851e7 -3.306021642942455e7 0.0
0.0 0.0 0.0

3.0879915646700405e7 2.0764513466879163e7 0.0
2.0764513466879163e7 6.43989072293956e6 0.0
0.0 0.0 0.0

-9.568454328578115e6 1.9975111124804404e6 0.0
1.9975111124804404e6 1.714156059872611e7 0.0
0.0 0.0 0.0

9.761271510862911e6 2.0953821315400857e7 0.0
2.0953821315400857e7 9.507607085470809e6 0.0
0.0 0.0 0.0

5.750524045989851e6 1.6732160707303256e7 0.0
1.6732160707303256e7 2.3837207459438223e7 0.0
0.0 0.0 0.0

-6.470510508307811e6 1.6623227100940716e7 0.0
1.6623227100940716e7 -2.0212512567212574e7 0.0
0.0 0.0 0.0

3.3689574878518246e6 3.325692353761224e7 0.0
3.325692353761224e7 -3.518481788696047e6 0.0
0.0 0.0 0.0

-845988.3171075163 2.323050413282778e7 0.0
2.323050413282778e7 -7.183695457382995e6 0.0
0.0 0.0 0.0

-6.134976452101063e6 1.7643602886791784e7 0.0
1.7643602886791784e7 1.82712039751636e7 0.0
0.0 0.0 0.0

-661001.9492588192 8.405335343513515e6 0.0
8.405335343513515e6 -6.821852211033753e7 0.0
0.0 0.0 0.0

-9.964852056345135e6 31854.62420443383 0.0
31854.62420443383 1.4578598513172325e7 0.0
0.0 0.0 0.0

-1.1937379234319772e6 1.875773256242377e7 0.0
1.875773256242377e7 -7.821095947104149e6 0.0
0.0 0.0 0.0

8.786848657463536e6 2.150253122596876e7 0.0
2.150253122596876e7 1.0217965403162694e7 0.0
0.0 0.0 0.0

893648.281655049 1.3731855479091886e7 0.0
1.3731855479091886e7 6.470506491569237e6 0.0
0.0 0.0 0.0

-4.0529948207147615e6 2.1652872048597805e7 0.0
2.1652872048597805e7 1.4712489377515944e7 0.0
0.0 0.0 0.0

-2.9858386944589308e6 2.6241534659382768e7 0.0
2.6241534659382768e7 5.064209572815826e6 0.0
0.0 0.0 0.0

-1.695900264750776e7 4.020845196600593e7 0.0
4.020845196600593e7 7.28421208013433e6 0.0
0.0 0.0 0.0

1.0904094918306577e6 7.907924338458711e6 0.0
7.907924338458711e6 -6.42644105172735e6 0.0
0.0 0.0 0.0

-3.493812836920857e6 2.594653422829006e7 0.0
2.594653422829006e7 4.627077633726197e6 0.0
0.0 0.0 0.0

-726971.1400900818 2.2236481974649057e7 0.0
2.2236481974649057e7 -7.183472396287359e6 0.0
0.0 0.0 0.0

1.4149260211801745e7 2.177645233181923e7 0.0
2.177645233181923e7 1.1022251935932944e7 0.0
0.0 0.0 0.0

-440232.03216045396 2.52013719337563e7 0.0
2.52013719337563e7 -5.421757254956787e6 0.0
0.0 0.0 0.0

2.2952149651052044e6 4.375796764737893e6 0.0
4.375796764737893e6 -8.932223430604601e6 0.0
0.0 0.0 0.0

67205.23503020778 1.9301684798867065e7 0.0
1.9301684798867065e7 -1.3642044864128428e7 0.0
0.0 0.0 0.0

-1.0484107696510566e7 1.6477271083388694e6 0.0
1.6477271083388694e6 2.341061802066048e7 0.0
0.0 0.0 0.0

3.6490251493126974e6 5.848495520997836e6 0.0
5.848495520997836e6 -2.564481640355576e7 0.0
0.0 0.0 0.0

2.1623814743419997e6 4.750547037311796e6 0.0
4.750547037311796e6 -5.61156146716116e7 0.0
0.0 0.0 0.0

2.5178947793059833e6 2.1418138601561103e7 0.0
2.1418138601561103e7 1.2388787297365883e7 0.0
0.0 0.0 0.0

533133.3053622572 1.919826962402201e7 0.0
1.919826962402201e7 -1.5988752117803931e7 0.0
0.0 0.0 0.0

-6.628924998977797e6 1.790335531420828e7 0.0
1.790335531420828e7 1.6246006246814772e7 0.0
0.0 0.0 0.0

4.003395409811293e6 2.340746314492558e6 0.0
2.340746314492558e6 -2.204777793086808e7 0.0
0.0 0.0 0.0

1.33747878319039e6 1.5590221631859988e7 0.0
1.5590221631859988e7 -1.9640579434243813e7 0.0
0.0 0.0 0.0

-58022.00173865631 1.7568136190150425e7 0.0
1.7568136190150425e7 -1.9323582281936795e7 0.0
0.0 0.0 0.0

-5.861373953697374e6 1.8858840405093875e7 0.0
1.8858840405093875e7 1.5485668964460023e7 0.0
0.0 0.0 0.0

-1.4961845368998968e6 8.518559397254406e6 0.0
8.518559397254406e6 4.345969832830645e6 0.0
0.0 0.0 0.0

-9.59144847937493e6 -1.7990256908068315e6 0.0
-1.7990256908068315e6 2.5022120392834134e7 0.0
0.0 0.0 0.0

154825.94436239358 1.8507267811121974e7 0.0
1.8507267811121974e7 -1.6720083698635373e7 0.0
0.0 0.0 0.0

-7.043453255310686e6 1.130738060695774e7 0.0
1.130738060695774e7 1.3728203571987884e7 0.0
0.0 0.0 0.0

1.3046521328598615e7 2.0090717579776864e7 0.0
2.0090717579776864e7 1.015990195175752e7 0.0
0.0 0.0 0.0

251371.83867004327 2.2517500550447054e7 0.0
2.2517500550447054e7 -9.614614243446294e6 0.0
0.0 0.0 0.0

2.457637319819089e6 4.354599264765031e6 0.0
4.354599264765031e6 -7.865925276652699e6 0.0
0.0 0.0 0.0

-9.155771466826664e6 5.77186956110985e6 0.0
5.77186956110985e6 3.973079972740917e7 0.0
0.0 0.0 0.0

-2.2678261078378605e6 2.8352294717647772e7 0.0
2.8352294717647772e7 819031.9684943515 0.0
0.0 0.0 0.0

-8.957027574273854e6 2.999118877428124e7 0.0
2.999118877428124e7 5.488004547600892e6 0.0
0.0 0.0 0.0

-1.1284298207881719e7 3.0337187990566427e6 0.0
3.0337187990566427e6 1.5205554269700529e7 0.0
0.0 0.0 0.0

-9.859317637535246e6 964178.9759752656 0.0
964178.9759752656 3.1950088160071306e7 0.0
0.0 0.0 0.0

559548.632139584 1.3926268866835754e7 0.0
1.3926268866835754e7 -2.8185570507897608e7 0.0
0.0 0.0 0.0

-4.6735698416397115e6 1.940495929454068e7 0.0
1.940495929454068e7 1.6111075128621168e7 0.0
0.0 0.0 0.0

-9.337183239722028e6 7.0437173892245265e6 0.0
7.0437173892245265e6 4.022204746083869e7 0.0
0.0 0.0 0.0

-6.268841240786986e7 1.957920825648531e7 0.0
1.957920825648531e7 5.351308381758742e6 0.0
0.0 0.0 0.0

1.139694261850494e6 1.3044846273400031e7 0.0
1.3044846273400031e7 -1.7566861778598644e7 0.0
0.0 0.0 0.0

841491.3235982211 1.842238402976316e7 0.0
1.842238402976316e7 350606.70717256336 0.0
0.0 0.0 0.0

3.6229982586037945e6 1.8335665693155979e6 0.0
1.8335665693155979e6 -3.476488930985261e7 0.0
0.0 0.0 0.0

3.065635008807094e6 1.9366512758936733e7 0.0
1.9366512758936733e7 1.476468434942276e7 0.0
0.0 0.0 0.0

-1.0292341783235984e7 7.237189502687261e6 0.0
7.237189502687261e6 3.705513812735884e7 0.0
0.0 0.0 0.0

1.1721026586616249e6 6.738464813660307e6 0.0
6.738464813660307e6 -8.247932706959564e6 0.0
0.0 0.0 0.0

-649183.1822660612 2.22805160558306e7 0.0
2.22805160558306e7 -7.172218584928967e6 0.0
0.0 0.0 0.0

-2.460273404407356e6 2.521579938522245e7 0.0
2.521579938522245e7 361650.7119656188 0.0
0.0 0.0 0.0

-3.1752415615081554e6 2.1532063524229534e7 0.0
2.1532063524229534e7 9.677648201475386e6 0.0
0.0 0.0 0.0

-6.23293677191733e6 2.9243965468573786e7 0.0
2.9243965468573786e7 5.195697311974242e6 0.0
0.0 0.0 0.0

-2.959349866685597e6 2.0646132913856167e7 0.0
2.0646132913856167e7 495238.44376893225 0.0
0.0 0.0 0.0

-8.39319551151524e6 -96933.11590683532 0.0
-96933.11590683532 4.450729094016587e7 0.0
0.0 0.0 0.0

2.5663321500441916e6 1.8939892799990322e7 0.0
1.8939892799990322e7 2.0624132884638447e7 0.0
0.0 0.0 0.0

945894.4685491677 1.748754473279285e7 0.0
1.748754473279285e7 -1.6668806827596117e7 0.0
0.0 0.0 0.0

-1.7006291259265445e7 2.6576996208746746e7 0.0
2.6576996208746746e7 -5.993920860476233e6 0.0
0.0 0.0 0.0

-6.49267218522381e6 -1.2440590687827223e6 0.0
-1.2440590687827223e6 8.680755123030394e6 0.0
0.0 0.0 0.0

-1.6070410383095792e6 3.0483021868733805e7 0.0
3.0483021868733805e7 1.6712182151777935e6 0.0
0.0 0.0 0.0

284761.61972226936 1.7711980605234765e7 0.0
1.7711980605234765e7 -1.6320958962920825e6 0.0
0.0 0.0 0.0

-8.257126017589321e6 1.7312769109726857e7 0.0
1.7312769109726857e7 2.6366242284410674e7 0.0
0.0 0.0 0.0

2.469919637469529e6 1.1518181066416292e7 0.0
1.1518181066416292e7 -2.304879659724527e7 0.0
0.0 0.0 0.0

-9.07712769673453e6 1.6678393919666989e7 0.0
1.6678393919666989e7 2.4245260901136458e7 0.0
0.0 0.0 0.0

2.0095916826177062e6 4.4645863744986e6 0.0
4.4645863744986e6 -7.586416869778069e6 0.0
0.0 0.0 0.0

3.3764087095026243e6 7.188598433872287e6 0.0
7.188598433872287e6 -2.53673070021604e7 0.0
0.0 0.0 0.0

-2.4021757689813464e6 2.064951199707026e7 0.0
2.064951199707026e7 -8.542012971790243e6 0.0
0.0 0.0 0.0

-2.5906099800748853e6 2.196879646871938e7 0.0
2.196879646871938e7 2.3688377129321396e6 0.0
0.0 0.0 0.0

-2.034020748402188e6 2.5306058206975877e7 0.0
2.5306058206975877e7 1.7511115131442847e6 0.0
0.0 0.0 0.0

3.159773374946235e6 2.2963760428424597e7 0.0
2.2963760428424597e7 -7.584887835272593e6 0.0
0.0 0.0 0.0

3.815055054743398e6 5.0830885854605585e6 0.0
5.0830885854605585e6 -2.3028188642142978e7 0.0
0.0 0.0 0.0

1.4447265161831595e6 4.374178475531594e6 0.0
4.374178475531594e6 -5.32041431645665e6 0.0
0.0 0.0 0.0

2.7838513272149805e6 6.488158147362466e6 0.0
6.488158147362466e6 -2.699547464087576e7 0.0
0.0 0.0 0.0

1.9928122750043152e6 6.686902373064497e6 0.0
6.686902373064497e6 -8.529031056398695e6 0.0
0.0 0.0 0.0

1.7910528363453988e7 2.003424590491037e7 0.0
2.003424590491037e7 8.666019677334411e6 0.0
0.0 0.0 0.0

-2.614169390732221e6 3.377674186426024e7 0.0
3.377674186426024e7 2.4365370407614266e6 0.0
0.0 0.0 0.0

-8.944560896487061e6 -1.65845318835917e6 0.0
-1.65845318835917e6 3.559312266762005e7 0.0
0.0 0.0 0.0

1.7094995598756373e6 8.293206510718977e6 0.0
8.293206510718977e6 -4.4435871088757455e7 0.0
0.0 0.0 0.0

2.435424702832239e6 2.3698045209978603e7 0.0
2.3698045209978603e7 -7.847875414903166e6 0.0
0.0 0.0 0.0

-1.9612272749258508e6 2.044983854204133e7 0.0
2.044983854204133e7 -9.942649614911031e6 0.0
0.0 0.0 0.0

2.304576061364811e6 7.526688523683534e6 0.0
7.526688523683534e6 -3.3692277217164e7 0.0
0.0 0.0 0.0

-6.443354263575356e6 3.366237887846707e7 0.0
3.366237887846707e7 4.755647536044724e6 0.0
0.0 0.0 0.0

7.300565525187451e6 2.1997069689037655e7 0.0
2.1997069689037655e7 1.164288398887087e7 0.0
0.0 0.0 0.0

-3.853266925526239e7 3.797315755149552e7 0.0
3.797315755149552e7 7.558056940404143e6 0.0
0.0 0.0 0.0

-2.913486149618624e6 1.9461828685040325e7 0.0
1.9461828685040325e7 2.128764015843871e7 0.0
0.0 0.0 0.0

2.3512570498330053e6 1.0512434786246916e7 0.0
1.0512434786246916e7 -2.3653053537874803e7 0.0
0.0 0.0 0.0

7.052093603351198e7 2.357309138492062e7 0.0
2.357309138492062e7 9.10492642526841e6 0.0
0.0 0.0 0.0

4.768073569438211e6 2.03138790256219e7 0.0
2.03138790256219e7 1.6550916411411153e7 0.0
0.0 0.0 0.0

-1.0984492164458625e7 2.8068310339370067e6 0.0
2.8068310339370067e6 2.4297363370596558e7 0.0
0.0 0.0 0.0

1.4366648880503804e6 1.8547928409062136e7 0.0
1.8547928409062136e7 9.283639134249184e6 0.0
0.0 0.0 0.0

-2.506663756955891e6 1.6954750719417434e7 0.0
1.6954750719417434e7 -2.3890743591279794e7 0.0
0.0 0.0 0.0

8.0509281968813315e6 2.3812646131414056e7 0.0
2.3812646131414056e7 -4.650535921188023e6 0.0
0.0 0.0 0.0

-3.1313857588721476e6 2.1930695824472424e7 0.0
2.1930695824472424e7 7.719866446023132e6 0.0
0.0 0.0 0.0

-1.0205518314513195e7 5.673802300114541e6 0.0
5.673802300114541e6 3.624100688671601e7 0.0
0.0 0.0 0.0

-5.796208101870138e6 3.428883566966498e7 0.0
3.428883566966498e7 3.5990462186659626e6 0.0
0.0 0.0 0.0

-7.7002407338194745e6 2.3044922991128482e7 0.0
2.3044922991128482e7 4.760326390558513e6 0.0
0.0 0.0 0.0

-2.646808451810998e6 2.4932492729333773e7 0.0
2.4932492729333773e7 1.137294453158469e6 0.0
0.0 0.0 0.0

2.4324160975413574e6 2.83508811969353e7 0.0
2.83508811969353e7 -3.9795850595826963e6 0.0
0.0 0.0 0.0

-2.263645765802698e6 2.776510849892563e7 0.0
2.776510849892563e7 748297.6763536441 0.0
0.0 0.0 0.0

148222.24476762637 1.8685310143089484e7 0.0
1.8685310143089484e7 246170.55445398242 0.0
0.0 0.0 0.0

-804865.4011391178 2.010074186367912e7 0.0
2.010074186367912e7 1.8380750137621406e7 0.0
0.0 0.0 0.0

2.053159510860022e6 2.0243825420174368e7 0.0
2.0243825420174368e7 201219.2991665937 0.0
0.0 0.0 0.0

-7.893725050097144e6 1.7249660740988538e7 0.0
1.7249660740988538e7 -4.069610832167335e7 0.0
0.0 0.0 0.0

37129.26525058283 1.8713105630883377e7 0.0
1.8713105630883377e7 2.2833507218867736e6 0.0
0.0 0.0 0.0

-2.891442063321408e6 2.1893128233459234e7 0.0
2.1893128233459234e7 1.0371594914893613e6 0.0
0.0 0.0 0.0

3.0859851277538287e6 1.594863411525155e7 0.0
1.594863411525155e7 1.3528473738333052e7 0.0
0.0 0.0 0.0

476866.9544282076 2.0670309653030388e7 0.0
2.0670309653030388e7 -1.1997444108804256e7 0.0
0.0 0.0 0.0

886765.7655333662 1.5230944006963836e7 0.0
1.5230944006963836e7 -2.0778404680822153e7 0.0
0.0 0.0 0.0

3.831810251018947e6 4.47012455533774e6 0.0
4.47012455533774e6 -2.4004787652034078e7 0.0
0.0 0.0 0.0

3.909512997059907e6 2.002909856633705e7 0.0
2.002909856633705e7 1.3863313032261906e7 0.0
0.0 0.0 0.0

-1.9686598944567153e6 2.0775959145776812e7 0.0
2.0775959145776812e7 1.2713901065914458e7 0.0
0.0 0.0 0.0

-8.785443217657205e6 1.7085799762307946e7 0.0
1.7085799762307946e7 2.4309855084188305e7 0.0
0.0 0.0 0.0

-3.0046002367412522e6 2.1273951188643813e7 0.0
2.1273951188643813e7 8.826246195444174e6 0.0
0.0 0.0 0.0

-3.7616472292834492e6 2.0784501695035327e7 0.0
2.0784501695035327e7 -8.858799985914942e6 0.0
0.0 0.0 0.0

-9.070862143394897e6 1.724102333573569e7 0.0
1.724102333573569e7 2.2872485270177998e7 0.0
0.0 0.0 0.0

-9.097249206951657e6 1.6756394287205564e7 0.0
1.6756394287205564e7 2.6299564492026076e7 0.0
0.0 0.0 0.0

-1.0368571961985014e7 1.5444557501858387e7 0.0
1.5444557501858387e7 2.150194510219767e7 0.0
0.0 0.0 0.0

-9.267387250065055e6 -3.2230933949644193e6 0.0
-3.2230933949644193e6 2.451873570703085e7 0.0
0.0 0.0 0.0

-3.0912876923978017e6 2.337900145939716e7 0.0
2.337900145939716e7 9.345970542639177e6 0.0
0.0 0.0 0.0

-3.210082791521252e6 1.6069185052223243e7 0.0
1.6069185052223243e7 -3.495864501268139e7 0.0
0.0 0.0 0.0

-200825.60932785738 1.5515037401038596e7 0.0
1.5515037401038596e7 -2.522464012967186e7 0.0
0.0 0.0 0.0

-2.8307123610164553e7 3.0235860574917465e7 0.0
3.0235860574917465e7 -8.200082682908192e6 0.0
0.0 0.0 0.0

-8.289022527037166e6 4.607169955454045e6 0.0
4.607169955454045e6 4.534197636972624e7 0.0
0.0 0.0 0.0

349221.2140269708 1.6060865120818198e7 0.0
1.6060865120818198e7 -2.368925360634922e7 0.0
0.0 0.0 0.0

-1.197314790151008e6 2.8447573129919145e7 0.0
2.8447573129919145e7 -1.1638738470600042e6 0.0
0.0 0.0 0.0

2.5313861083853752e6 1.8554607426706042e7 0.0
1.8554607426706042e7 1.5993088602574777e7 0.0
0.0 0.0 0.0

-8.345772166026704e6 -5.754659511461911e6 0.0
-5.754659511461911e6 2.059013592388689e7 0.0
0.0 0.0 0.0

-308239.440775492 1.8433482608129732e7 0.0
1.8433482608129732e7 -1.9296807551769721e6 0.0
0.0 0.0 0.0

-1.1521749002530107e6 2.0130673698390756e7 0.0
2.0130673698390756e7 -9.089618881156696e6 0.0
0.0 0.0 0.0

-1.2263804230454093e7 6.926205539570454e6 0.0
6.926205539570454e6 1.6784367980921946e7 0.0
0.0 0.0 0.0

3.073878527832592e6 1.570937179210922e6 0.0
1.570937179210922e6 -4.401230587911373e7 0.0
0.0 0.0 0.0

153889.4878648012 1.0380490788785951e7 0.0
1.0380490788785951e7 -9.212019203889214e6 0.0
0.0 0.0 0.0

-1.109867587380286e7 2.12327297983209e6 0.0
2.12327297983209e6 2.9081035333531182e7 0.0
0.0 0.0 0.0

829228.7656439589 2.1131588901447657e7 0.0
2.1131588901447657e7 -1.1625041819625627e7 0.0
0.0 0.0 0.0

5.477592405965643e6 1.8414488759594478e7 0.0
1.8414488759594478e7 2.874092241751249e7 0.0
0.0 0.0 0.0

84715.78835528251 9.921777529637704e6 0.0
9.921777529637704e6 -5.083216663220038e6 0.0
0.0 0.0 0.0

7.738693592989203e6 2.19298025216859e7 0.0
2.19298025216859e7 1.3221757108136142e7 0.0
0.0 0.0 0.0

-3.1989493731346233e6 3.459140737754911e7 0.0
3.459140737754911e7 2.6878394855044642e6 0.0
0.0 0.0 0.0

-1.1787768199747143e7 3.034412268820894e6 0.0
3.034412268820894e6 2.133395713183392e7 0.0
0.0 0.0 0.0

-149935.7131739799 1.937530118097028e7 0.0
1.937530118097028e7 1.9836593916109376e7 0.0
0.0 0.0 0.0

1.8142243127872227e6 1.083655332216204e7 0.0
1.083655332216204e7 -2.4156065081782945e7 0.0
0.0 0.0 0.0

-2.106897580810929e7 2.6816556934293706e7 0.0
2.6816556934293706e7 2.1975193999553546e6 0.0
0.0 0.0 0.0

-7.6620912479297975e6 -3.016756614636778e6 0.0
-3.016756614636778e6 1.2066906147218486e7 0.0
0.0 0.0 0.0

-1.082618055400181e7 2.2652354249948025e7 0.0
2.2652354249948025e7 -7.514999097142983e6 0.0
0.0 0.0 0.0

3.126509535125272e7 2.2224865502680518e7 0.0
2.2224865502680518e7 7.065088510192249e6 0.0
0.0 0.0 0.0

-1.1679896320703803e6 2.240354392718631e7 0.0
2.240354392718631e7 -7.016657654691379e6 0.0
0.0 0.0 0.0

2.3599928483113283e6 1.1081799569274563e7 0.0
1.1081799569274563e7 -2.2421507904316034e7 0.0
0.0 0.0 0.0

-4.15023843457662e6 2.3627559820237063e7 0.0
2.3627559820237063e7 1.0730207214196373e7 0.0
0.0 0.0 0.0

-7.728097056296345e6 609751.8797974446 0.0
609751.8797974446 5.079131480627702e7 0.0
0.0 0.0 0.0

-4.326147317565608e6 2.056471008970748e7 0.0
2.056471008970748e7 -1.3108209470382737e7 0.0
0.0 0.0 0.0

-1.6546341264771777e6 3.111469764041027e7 0.0
3.111469764041027e7 1.7605517866733004e6 0.0
0.0 0.0 0.0

-1.6491573654421642e6 1.459935421837292e7 0.0
1.459935421837292e7 -3.417668225446665e7 0.0
0.0 0.0 0.0

133425.96284477506 1.8408891620066047e7 0.0
1.8408891620066047e7 -1.8130295823151767e7 0.0
0.0 0.0 0.0

180673.1467552157 1.7771862636499368e7 0.0
1.7771862636499368e7 -1.9555767667908568e7 0.0
0.0 0.0 0.0

-9.346096993755033e6 1.3729737828650858e7 0.0
1.3729737828650858e7 3.2362691851801492e7 0.0
0.0 0.0 0.0

-3.2789460435940027e6 2.232263024554876e7 0.0
2.232263024554876e7 8.230610528162254e6 0.0
0.0 0.0 0.0

-5.909875474798933e6 1.1824066757098803e7 0.0
1.1824066757098803e7 9.338514694560438e7 0.0
0.0 0.0 0.0

3.1494023637396805e6 1.1892778425596008e7 0.0
1.1892778425596008e7 -8.98739756526883e7 0.0
0.0 0.0 0.0

-1.5912183444137683e7 2.6515420146895297e7 0.0
2.6515420146895297e7 -9.702190895224078e6 0.0
0.0 0.0 0.0

-2.55308439528275e6 2.0018190241379593e7 0.0
2.0018190241379593e7 1.3604665468261765e7 0.0
0.0 0.0 0.0

-2.419234049572754e7 2.750263515973046e7 0.0
2.750263515973046e7 -2.7396025664385855e6 0.0
0.0 0.0 0.0

-7.873559618691329e6 -3.3625410259044417e6 0.0
-3.3625410259044417e6 1.6790867557975672e7 0.0
0.0 0.0 0.0

-8.074606248686039e6 1.7924080511236124e7 0.0
1.7924080511236124e7 2.0509020296190932e7 0.0
0.0 0.0 0.0

-1.228678288516268e7 2.394550050328516e7 0.0
2.394550050328516e7 -5.962320804385966e6 0.0
0.0 0.0 0.0

-1.0232536627333054e7 3.313473814707535e6 0.0
3.313473814707535e6 3.130022907787997e7 0.0
0.0 0.0 0.0

2.9355182152756896e7 2.0046501005498096e7 0.0
2.0046501005498096e7 6.411679786405955e6 0.0
0.0 0.0 0.0

59261.52507586032 1.920807342307984e7 0.0
1.920807342307984e7 2.3628673790440064e7 0.0
0.0 0.0 0.0

-4.565715447627865e6 1.91190617133816e7 0.0
1.91190617133816e7 1.5785543603006247e7 0.0
0.0 0.0 0.0

-2.446789768799604e7 3.729151387909492e7 0.0
3.729151387909492e7 9.55174689986607e6 0.0
0.0 0.0 0.0

3.907719538232228e6 2.0913060443448365e7 0.0
2.0913060443448365e7 4.95286231134253e6 0.0
0.0 0.0 0.0

2.945295877027461e6 1.965555395663857e7 0.0
1.965555395663857e7 -1.4672000810405195e6 0.0
0.0 0.0 0.0

-4.538383577534885e6 2.4977956343418464e7 0.0
2.4977956343418464e7 9.089486257206948e6 0.0
0.0 0.0 0.0

-7.494463305748738e6 2.2096984926174298e7 0.0
2.2096984926174298e7 -491612.6998921281 0.0
0.0 0.0 0.0

-982809.706278496 1.8304017350423638e7 0.0
1.8304017350423638e7 -2.257151697994287e6 0.0
0.0 0.0 0.0

2.8696972103524525e6 2.043479489446807e7 0.0
2.043479489446807e7 -3.3564250963325715e6 0.0
0.0 0.0 0.0

3.423205992034267e6 2.082393927775891e7 0.0
2.082393927775891e7 1.3010829238688668e7 0.0
0.0 0.0 0.0

4.0663323383179065e6 3.200251954613467e7 0.0
3.200251954613467e7 -2.4662795105133913e6 0.0
0.0 0.0 0.0

-3.6262564084616294e6 2.3137447713983137e7 0.0
2.3137447713983137e7 1.0226735292249866e7 0.0
0.0 0.0 0.0

-4.920420408100162e6 3.415709489621676e7 0.0
3.415709489621676e7 1.9910632222828958e6 0.0
0.0 0.0 0.0

-6.609903526262514e6 1.6578957243984196e7 0.0
1.6578957243984196e7 -4.4786279057652295e7 0.0
0.0 0.0 0.0

-1.5470824211951274e7 1.9321234637306046e7 0.0
1.9321234637306046e7 -8.389838135929517e7 0.0
0.0 0.0 0.0

1.4316470245304333e7 2.016627764016875e7 0.0
2.016627764016875e7 8.510769806700395e7 0.0
0.0 0.0 0.0

5.721509953805432e6 1.8756903792106174e7 0.0
1.8756903792106174e7 2.7698221452241607e7 0.0
0.0 0.0 0.0

961069.9738983233 9.986744568369523e6 0.0
9.986744568369523e6 -3.866412962062931e7 0.0
0.0 0.0 0.0

2.0146523262447896e6 3.1617407341051187e7 0.0
3.1617407341051187e7 -2.981913337741866e6 0.0
0.0 0.0 0.0

622571.7942486708 2.239358500237246e7 0.0
2.239358500237246e7 -9.421162023247559e6 0.0
0.0 0.0 0.0

-973031.9642457676 1.9380999141615193e7 0.0
1.9380999141615193e7 -6.701839871133409e6 0.0
0.0 0.0 0.0

937201.8451769715 2.155154138415792e7 0.0
2.155154138415792e7 -1.0965719553656328e7 0.0
0.0 0.0 0.0

-3.233678834644277e7 3.9638900818322e7 0.0
3.9638900818322e7 1.024525817348057e7 0.0
0.0 0.0 0.0

-2.7594177715479564e6 3.077689480106456e7 0.0
3.077689480106456e7 1.2443507861893969e6 0.0
0.0 0.0 0.0

-6.294780381221533e6 2.5648265790962867e7 0.0
2.5648265790962867e7 7.794940341133568e6 0.0
0.0 0.0 0.0

2.642388966703577e6 3.2268596614696174e6 0.0
3.2268596614696174e6 -4.694015065719899e7 0.0
0.0 0.0 0.0

8.75261464171243e6 2.4530241458298437e7 0.0
2.4530241458298437e7 -4.979520768625382e6 0.0
0.0 0.0 0.0

-1.5451052032510713e6 1.5145819034679215e7 0.0
1.5145819034679215e7 -3.2030844453409042e7 0.0
0.0 0.0 0.0

7.543957027179828e6 2.5031417308857087e7 0.0
2.5031417308857087e7 -5.346009256314397e6 0.0
0.0 0.0 0.0

-560948.0898554206 1.760549984763818e7 0.0
1.760549984763818e7 -1.299283165706479e6 0.0
0.0 0.0 0.0

601714.2602706309 2.0010480685035236e7 0.0
2.0010480685035236e7 2.064290861102858e7 0.0
0.0 0.0 0.0

-4.897618043805232e6 2.7540094432244785e7 0.0
2.7540094432244785e7 5.65486494686961e6 0.0
0.0 0.0 0.0

-9.624587860828135e6 -2.0215011439901085e6 0.0
-2.0215011439901085e6 2.9587358107741367e7 0.0
0.0 0.0 0.0

1.5162244440989267e7 2.037561370212954e7 0.0
2.037561370212954e7 2.286357525234172e6 0.0
0.0 0.0 0.0

-7.023117780317016e7 2.60225668387561e7 0.0
2.60225668387561e7 2.708679016040925e6 0.0
0.0 0.0 0.0

-1.001109123180071e7 1.3944973187166512e7 0.0
1.3944973187166512e7 2.997799780060856e7 0.0
0.0 0.0 0.0

-6.263016507759839e6 2.2955483157740027e7 0.0
2.2955483157740027e7 5.162501277382577e6 0.0
0.0 0.0 0.0

3.6671490570849515e6 2.070254174479367e7 0.0
2.070254174479367e7 -558579.6329997331 0.0
0.0 0.0 0.0

3.8349470925721247e6 3.214753049826604e6 0.0
3.214753049826604e6 -3.0758297822469443e7 0.0
0.0 0.0 0.0

-2.913665307864739e6 2.0617850444816083e7 0.0
2.0617850444816083e7 1.0727683938751465e7 0.0
0.0 0.0 0.0

-8.2457048302083425e6 -224133.65803428387 0.0
-224133.65803428387 4.506385628758814e7 0.0
0.0 0.0 0.0

-1.6039053607111571e7 2.301052044281467e7 0.0
2.301052044281467e7 -8.947679536643553e7 0.0
0.0 0.0 0.0

1.4497074821612539e7 2.4832504654743478e7 0.0
2.4832504654743478e7 9.005545833804543e7 0.0
0.0 0.0 0.0

666842.7563742921 1.3293091518300574e7 0.0
1.3293091518300574e7 -2.9291527628636464e7 0.0
0.0 0.0 0.0

881642.6275270893 4.557250491821314e6 0.0
4.557250491821314e6 -5.39374875066655e6 0.0
0.0 0.0 0.0

1.1311509099402338e7 1.850725848512597e7 0.0
1.850725848512597e7 6.07866155571605e6 0.0
0.0 0.0 0.0

-7.913496782008402e6 1.2958267731301752e6 0.0
1.2958267731301752e6 5.10746690067227e7 0.0
0.0 0.0 0.0

957516.1547610029 8.214059699429939e6 0.0
8.214059699429939e6 -7.597404885540944e6 0.0
0.0 0.0 0.0

5.1789851221509585e6 3.044706988067518e7 0.0
3.044706988067518e7 -4.0857701322574476e6 0.0
0.0 0.0 0.0

81823.91419901885 1.875211041352483e7 0.0
1.875211041352483e7 -1.4527961799321167e7 0.0
0.0 0.0 0.0

3.9686785687162504e6 1.8768619189116314e7 0.0
1.8768619189116314e7 2.000536836238023e7 0.0
0.0 0.0 0.0

-5.956184624102525e6 2.2727074340014674e7 0.0
2.2727074340014674e7 411966.05194655503 0.0
0.0 0.0 0.0

-2.8629810504267294e7 2.5629062513142936e7 0.0
2.5629062513142936e7 -5.749191567669509e6 0.0
0.0 0.0 0.0

-3.1603034108299506e6 3.0355404961042136e7 0.0
3.0355404961042136e7 1.9053770000497256e6 0.0
0.0 0.0 0.0

841538.3408216238 1.9124015897421204e7 0.0
1.9124015897421204e7 1.1431436576652596e7 0.0
0.0 0.0 0.0

-1.7159497194053363e6 2.041404350561856e7 0.0
2.041404350561856e7 1.582590338500944e7 0.0
0.0 0.0 0.0

1.0623398117516655e6 1.6047474571216127e7 0.0
1.6047474571216127e7 -2.0057940303472694e7 0.0
0.0 0.0 0.0

993888.4663574882 2.0919709675802816e7 0.0
2.0919709675802816e7 -1.1478656399527663e7 0.0
0.0 0.0 0.0

-8.452262588127289e6 2.8174985829831697e6 0.0
2.8174985829831697e6 4.913450452450977e7 0.0
0.0 0.0 0.0

-2.6432458504148282e7 4.003193502768075e7 0.0
4.003193502768075e7 7.073983374709334e6 0.0
0.0 0.0 0.0

-1.1847845501666758e7 3.202857569968282e7 0.0
3.202857569968282e7 5.806647472661405e6 0.0
0.0 0.0 0.0

-2.8062251756184235e7 2.7554227294410735e7 0.0
2.7554227294410735e7 -77754.20909575373 0.0
0.0 0.0 0.0

92217.59595468291 1.932106777717299e7 0.0
1.932106777717299e7 4.0626861149027282e6 0.0
0.0 0.0 0.0

-8.762007531682178e6 2.34141029480441e7 0.0
2.34141029480441e7 -1.2208140211243343e6 0.0
0.0 0.0 0.0

-1.6332323249449711e7 2.5756286338915627e7 0.0
2.5756286338915627e7 -5.805072805184115e6 0.0
0.0 0.0 0.0

1.7176593102585361e6 7.417143583507744e6 0.0
7.417143583507744e6 -7.266353455140053e6 0.0
0.0 0.0 0.0

3.062471540399365e6 1.9080248512743346e7 0.0
1.9080248512743346e7 2.081748965325274e7 0.0
0.0 0.0 0.0

1.928124289556535e6 9.16942039338541e6 0.0
9.16942039338541e6 -3.785703173574843e7 0.0
0.0 0.0 0.0

-8.914296607064808e6 1.4950803848873636e7 0.0
1.4950803848873636e7 3.11898388239196e7 0.0
0.0 0.0 0.0

-7.396639357423607e6 922309.4170608721 0.0
922309.4170608721 5.217607386975897e7 0.0
0.0 0.0 0.0

2.8843631660868376e6 3.4312683646854954e6 0.0
3.4312683646854954e6 -4.627449006080595e7 0.0
0.0 0.0 0.0

-3.213251860771754e7 2.7781215846704382e7 0.0
2.7781215846704382e7 -1.308481701568354e6 0.0
0.0 0.0 0.0

-8.539662180627922e6 -1.0034151891028711e6 0.0
-1.0034151891028711e6 4.115420200909006e7 0.0
0.0 0.0 0.0

-9.033392908889947e6 -1.5912939064595718e6 0.0
-1.5912939064595718e6 3.585227038157239e7 0.0
0.0 0.0 0.0

1.0408761985208853e6 7.138741826058396e6 0.0
7.138741826058396e6 -9.28601737696703e6 0.0
0.0 0.0 0.0

-9.378366053797508e6 -285279.6183829105 0.0
-285279.6183829105 3.434798567377232e7 0.0
0.0 0.0 0.0

7.164669054606867e6 4.136412556535612e7 0.0
4.136412556535612e7 -5.213111583692843e6 0.0
0.0 0.0 0.0

-4.061655429483096e6 2.0027640674183764e7 0.0
2.0027640674183764e7 1.5046595117778247e7 0.0
0.0 0.0 0.0

1.687951024014648e6 4.42698110857941e6 0.0
4.42698110857941e6 -5.695475339862635e7 0.0
0.0 0.0 0.0

2.8756132415848933e6 4.0376527785479003e6 0.0
4.0376527785479003e6 -3.636773196928152e7 0.0
0.0 0.0 0.0

-3.393211338188361e6 2.2119502203899525e7 0.0
2.2119502203899525e7 7.316841056193888e6 0.0
0.0 0.0 0.0

-4.60390723623706e6 3.3778023917694815e7 0.0
3.3778023917694815e7 3.426160867614082e6 0.0
0.0 0.0 0.0

4.9567911908728285e6 1.0880022451101579e7 0.0
1.0880022451101579e7 2.1389967795861983e6 0.0
0.0 0.0 0.0

1.0612768081279421e7 2.1598494019308545e7 0.0
2.1598494019308545e7 1.1973534886058625e7 0.0
0.0 0.0 0.0

8.843143142454045e6 2.3403177610729575e7 0.0
2.3403177610729575e7 -3.918609072063257e6 0.0
0.0 0.0 0.0

-8.748827902342383e6 -769666.2321696831 0.0
-769666.2321696831 4.0355857192097e7 0.0
0.0 0.0 0.0

-1.703309880480603e7 2.319474845646716e7 0.0
2.319474845646716e7 11348.175225757062 0.0
0.0 0.0 0.0

-3.044133529748768e6 2.9729443730667833e7 0.0
2.9729443730667833e7 1.780811314481575e6 0.0
0.0 0.0 0.0

2.5285022814583294e6 1.830556111779056e7 0.0
1.830556111779056e7 4.704230199488337e7 0.0
0.0 0.0 0.0

1.0635374373797476e7 2.3829902506019488e7 0.0
2.3829902506019488e7 -3.8905119220054992e6 0.0
0.0 0.0 0.0

-3.77902440217801e6 2.0919317338513225e7 0.0
2.0919317338513225e7 -8.750256641295277e6 0.0
0.0 0.0 0.0

-3.821752311752728e6 2.1118421207457792e7 0.0
2.1118421207457792e7 1.5808416928259965e7 0.0
0.0 0.0 0.0

-2.9500591813491504e6 2.023009757227972e7 0.0
2.023009757227972e7 -8.863288234893013e6 0.0
0.0 0.0 0.0

-6.685696253511332e7 3.615032372135556e7 0.0
3.615032372135556e7 -5.027407303523278e6 0.0
0.0 0.0 0.0

-5.148201025979908e6 1.975421624030854e7 0.0
1.975421624030854e7 1.4632699031999284e7 0.0
0.0 0.0 0.0

-3.437839707083968e6 2.1313474400913518e7 0.0
2.1313474400913518e7 -7.455824697501254e6 0.0
0.0 0.0 0.0

-3.978916946838229e6 2.1786602460522573e7 0.0
2.1786602460522573e7 1.504221075886733e7 0.0
0.0 0.0 0.0

6.907155652723897e6 2.3042780134469673e7 0.0
2.3042780134469673e7 -4.6624504486241955e6 0.0
0.0 0.0 0.0

3.476693384472765e6 3.206566339737115e6 0.0
3.206566339737115e6 -2.9872503413471125e7 0.0
0.0 0.0 0.0

2.5710402505606185e6 2.238561130490917e7 0.0
2.238561130490917e7 -7.9713151093163425e6 0.0
0.0 0.0 0.0

-2.524442939647744e7 4.008922993944365e7 0.0
4.008922993944365e7 6.96195467877797e6 0.0
0.0 0.0 0.0

-6.0393876692638425e6 2.870738545476921e7 0.0
2.870738545476921e7 6.078288449312804e6 0.0
0.0 0.0 0.0

-9.688902836319624e6 -2.951649731039238e6 0.0
-2.951649731039238e6 2.3847908350008033e7 0.0
0.0 0.0 0.0

251923.27586224023 1.895174150822624e7 0.0
1.895174150822624e7 -1.5918814480477884e7 0.0
0.0 0.0 0.0

1.2498822679018116e7 2.1128717609550204e7 0.0
2.1128717609550204e7 3.4658937417222094e6 0.0
0.0 0.0 0.0

-6.116744843185966e7 3.088212718697006e7 0.0
3.088212718697006e7 3.080456417793926e6 0.0
0.0 0.0 0.0

3.3231728738574088e6 1.7519361696981423e7 0.0
1.7519361696981423e7 1.4371557271972908e7 0.0
0.0 0.0 0.0

1.3113923334905636e6 8.981141312435497e6 0.0
8.981141312435497e6 -3.995445266430473e7 0.0
0.0 0.0 0.0

723644.1812457722 1.5798167804627525e7 0.0
1.5798167804627525e7 -1.9959807302037876e7 0.0
0.0 0.0 0.0

-2.6169206177891586e6 2.0903816809701607e7 0.0
2.0903816809701607e7 1.2521748143338788e7 0.0
0.0 0.0 0.0

-6.873175870799718e6 3.405277534682623e7 0.0
3.405277534682623e7 3.1994731978527815e6 0.0
0.0 0.0 0.0

247156.12916418375 2.5575876170168106e7 0.0
2.5575876170168106e7 -4.785783966448751e6 0.0
0.0 0.0 0.0

3.320485241010124e6 3.004026382996309e6 0.0
3.004026382996309e6 -3.56542745537577e7 0.0
0.0 0.0 0.0

5.176841714850207e6 1.85818282986615e7 0.0
1.85818282986615e7 4.0675764379701726e7 0.0
0.0 0.0 0.0

-609775.853707747 1.733109758940855e7 0.0
1.733109758940855e7 -1.7001276938788889e6 0.0
0.0 0.0 0.0

-4.785447757328271e7 3.5826058792443685e7 0.0
3.5826058792443685e7 1.0748092956819236e7 0.0
0.0 0.0 0.0

-1.0257638819501972e7 158092.27027565724 0.0
158092.27027565724 3.051025461717375e7 0.0
0.0 0.0 0.0

-9.537779231500179e6 -87761.74574244887 0.0
-87761.74574244887 3.2755649527174227e7 0.0
0.0 0.0 0.0

1.1917659351268815e7 2.108118397451796e7 0.0
2.108118397451796e7 6.08642745381025e6 0.0
0.0 0.0 0.0

-8.5030805952681e6 -1.1006314588020532e6 0.0
-1.1006314588020532e6 4.016057279660797e7 0.0
0.0 0.0 0.0

2.826930629628922e6 1.796995021370182e7 0.0
1.796995021370182e7 1.4014924375171466e7 0.0
0.0 0.0 0.0

6.851918550747499e6 1.8891765543114524e7 0.0
1.8891765543114524e7 2.935368932212814e7 0.0
0.0 0.0 0.0

624834.2083889826 3.1556669488767732e7 0.0
3.1556669488767732e7 -1.395563496909379e6 0.0
0.0 0.0 0.0

-7.75651276244932e6 5.832167050328383e6 0.0
5.832167050328383e6 5.376647918095648e7 0.0
0.0 0.0 0.0

-2.178423263176741e6 1.5197936138002574e7 0.0
1.5197936138002574e7 -3.2860791969459023e7 0.0
0.0 0.0 0.0

581214.2761019813 7.9626289013876775e6 0.0
7.9626289013876775e6 -8.131481379259531e6 0.0
0.0 0.0 0.0

-2.2559555246498594e6 2.048203045875259e7 0.0
2.048203045875259e7 1.0768615012324043e7 0.0
0.0 0.0 0.0

3.56947340712134e6 1.9091491503199443e7 0.0
1.9091491503199443e7 2.8756036364055626e7 0.0
0.0 0.0 0.0

-9.44941434717481e6 528706.1033311604 0.0
528706.1033311604 3.90298165256489e7 0.0
0.0 0.0 0.0

-7.886319267697193e6 8.213835428696344e6 0.0
8.213835428696344e6 6.9720838784034755e6 0.0
0.0 0.0 0.0

-2.8203451727626533e6 2.131669754288522e7 0.0
2.131669754288522e7 1.085194839597857e6 0.0
0.0 0.0 0.0

240604.17818817543 1.1362054872965617e7 0.0
1.1362054872965617e7 1.1577764036571177e7 0.0
0.0 0.0 0.0

3.3694026959828315e6 1.9841542641837724e7 0.0
1.9841542641837724e7 -2.254115243542414e6 0.0
0.0 0.0 0.0

-9.947354262215586e6 -273161.0010248985 0.0
-273161.0010248985 3.2450211680482812e7 0.0
0.0 0.0 0.0

-6.933767261680305e6 5.768485435779727e6 0.0
5.768485435779727e6 5.726030073746453e7 0.0
0.0 0.0 0.0

2.7408504825772736e6 2.0439955034295503e7 0.0
2.0439955034295503e7 -1.2023057392029888e6 0.0
0.0 0.0 0.0

670794.2824603217 1.9348232060711954e7 0.0
1.9348232060711954e7 -1.3810533247934261e7 0.0
0.0 0.0 0.0

-6.850474741564322e6 5.606744529926373e6 0.0
5.606744529926373e6 5.672718557462592e7 0.0
0.0 0.0 0.0

6.71265748789794e6 2.312458935043434e7 0.0
2.312458935043434e7 -4.558249156691484e6 0.0
0.0 0.0 0.0

2.862005469077066e6 1.82289088092296e7 0.0
1.82289088092296e7 2.1020605392877553e7 0.0
0.0 0.0 0.0

-7.925407880990023e6 1.1894312185505552e7 0.0
1.1894312185505552e7 1.2385610893403232e7 0.0
0.0 0.0 0.0

-6.270349604502922e6 1.1630179608329197e7 0.0
1.1630179608329197e7 8.206692195044361e6 0.0
0.0 0.0 0.0

-1.2795453911564233e7 8.14401584188729e6 0.0
8.14401584188729e6 5.917151987585098e6 0.0
0.0 0.0 0.0

