# vtk DataFile Version 2.0
phase field modeling fracture
ASCII
DATASET UNSTRUCTURED_GRID
POINTS 2538 float
0.0 0.0 0.0
10.0 0.0 0.0
0.0 10.0 0.0
10.0 10.0 0.0
0.0 4.9995 0.0
0.0 5.0005 0.0
5.0 5.0 0.0
0.9416964895726688 0.0 0.0
1.803581725054446 0.0 0.0
2.592419885431098 0.0 0.0
3.314401822861676 0.0 0.0
3.975193910351406 0.0 0.0
4.579982132660152 0.0 0.0
5.133512780936812 0.0 0.0
5.640130319506143 0.0 0.0
6.103810708661955 0.0 0.0
6.528192895506818 0.0 0.0
6.916607540127679 0.0 0.0
7.272102969376355 0.0 0.0
7.597469242948583 0.0 0.0
7.895259826292669 0.0 0.0
8.167811885738017 0.0 0.0
8.417264413845215 0.0 0.0
8.645575169389538 0.0 0.0
8.854535961159101 0.0 0.0
9.045786767735546 0.0 0.0
9.220828555767493 0.0 0.0
9.38103509633881 0.0 0.0
9.527663687265145 0.0 0.0
9.661865124984566 0.0 0.0
9.784692609918062 0.0 0.0
9.897110148790482 0.0 0.0
10.0 0.09999999999992584 0.0
10.0 0.199999999999856 0.0
10.0 0.2999999999997771 0.0
10.0 0.3999999999996677 0.0
10.0 0.4999999999995511 0.0
10.0 0.5999999999994683 0.0
10.0 0.6999999999993983 0.0
10.0 0.7999999999993286 0.0
10.0 0.8999999999992587 0.0
10.0 0.9999999999991888 0.0
10.0 1.099999999999119 0.0
10.0 1.199999999999033 0.0
10.0 1.299999999998852 0.0
10.0 1.399999999998576 0.0
10.0 1.499999999998284 0.0
10.0 1.599999999997992 0.0
10.0 1.6999999999977 0.0
10.0 1.799999999997408 0.0
10.0 1.899999999997116 0.0
10.0 1.999999999996825 0.0
10.0 2.099999999996533 0.0
10.0 2.199999999996241 0.0
10.0 2.299999999995949 0.0
10.0 2.399999999995657 0.0
10.0 2.499999999995365 0.0
10.0 2.599999999995073 0.0
10.0 2.699999999994782 0.0
10.0 2.79999999999449 0.0
10.0 2.899999999994198 0.0
10.0 2.999999999993906 0.0
10.0 3.099999999993614 0.0
10.0 3.199999999993322 0.0
10.0 3.299999999993029 0.0
10.0 3.399999999992738 0.0
10.0 3.499999999992446 0.0
10.0 3.599999999992154 0.0
10.0 3.699999999991863 0.0
10.0 3.799999999991571 0.0
10.0 3.899999999991278 0.0
10.0 3.999999999991022 0.0
10.0 4.099999999991035 0.0
10.0 4.199999999991187 0.0
10.0 4.299999999991338 0.0
10.0 4.399999999991491 0.0
10.0 4.499999999991642 0.0
10.0 4.599999999991795 0.0
10.0 4.699999999991947 0.0
10.0 4.799999999992099 0.0
10.0 4.89999999999225 0.0
10.0 4.999999999992403 0.0
10.0 5.099999999992555 0.0
10.0 5.199999999992706 0.0
10.0 5.299999999992858 0.0
10.0 5.39999999999301 0.0
10.0 5.499999999993161 0.0
10.0 5.599999999993313 0.0
10.0 5.699999999993466 0.0
10.0 5.799999999993618 0.0
10.0 5.899999999993771 0.0
10.0 5.999999999993922 0.0
10.0 6.099999999994074 0.0
10.0 6.199999999994227 0.0
10.0 6.299999999994378 0.0
10.0 6.39999999999453 0.0
10.0 6.499999999994682 0.0
10.0 6.599999999994833 0.0
10.0 6.699999999994986 0.0
10.0 6.799999999995138 0.0
10.0 6.899999999995289 0.0
10.0 6.999999999995442 0.0
10.0 7.099999999995594 0.0
10.0 7.199999999995747 0.0
10.0 7.299999999995897 0.0
10.0 7.39999999999605 0.0
10.0 7.499999999996202 0.0
10.0 7.599999999996353 0.0
10.0 7.699999999996505 0.0
10.0 7.799999999996658 0.0
10.0 7.899999999996808 0.0
10.0 7.999999999996962 0.0
10.0 8.099999999997113 0.0
10.0 8.199999999997265 0.0
10.0 8.299999999997418 0.0
10.0 8.399999999997569 0.0
10.0 8.499999999997721 0.0
10.0 8.599999999997873 0.0
10.0 8.699999999998024 0.0
10.0 8.799999999998176 0.0
10.0 8.899999999998329 0.0
10.0 8.99999999999848 0.0
10.0 9.099999999998634 0.0
10.0 9.199999999998786 0.0
10.0 9.299999999998937 0.0
10.0 9.399999999999089 0.0
10.0 9.499999999999241 0.0
10.0 9.599999999999392 0.0
10.0 9.699999999999545 0.0
10.0 9.799999999999697 0.0
10.0 9.899999999999848 0.0
9.897110148790565 10.0 0.0
9.784692609918244 10.0 0.0
9.66186512498486 10.0 0.0
9.527663687265571 10.0 0.0
9.381035096339392 10.0 0.0
9.220828555768257 10.0 0.0
9.045786767736512 10.0 0.0
8.854535961160305 10.0 0.0
8.645575169391027 10.0 0.0
8.417264413847017 10.0 0.0
8.167811885740178 10.0 0.0
7.895259826295246 10.0 0.0
7.597469242951631 10.0 0.0
7.272102969379938 10.0 0.0
6.916607540131873 10.0 0.0
6.528192895511704 10.0 0.0
6.103810708667616 10.0 0.0
5.640130319512691 10.0 0.0
5.13351278094435 10.0 0.0
4.579982132668816 10.0 0.0
3.975193910361222 10.0 0.0
3.314401822869852 10.0 0.0
2.592419885437257 10.0 0.0
1.803581725058137 10.0 0.0
0.9416964895740705 10.0 0.0
0.0 9.00010000000243 0.0
0.0 8.000200000005481 0.0
0.0 7.000300000005135 0.0
0.0 6.000400000002569 0.0
0.901790731451151 5.000409820926855 0.0
1.657200899774397 5.000334279910023 0.0
2.289991063707192 5.000271000893629 0.0
2.820065163538221 5.000217993483646 0.0
3.264096435579811 5.000173590356442 0.0
3.636051481595835 5.00013639485184 0.0
3.947629914072366 5.000105237008593 0.0
4.208632181002628 5.0000791367819 0.0
4.427267949625672 5.000057273205037 0.0
4.610414277633563 5.000038958572237 0.0
4.763831845154243 5.000023616815485 0.0
4.892346298799659 5.00001076537012 0.0
4.892346298799748 4.99998923462988 0.0
4.763831845154455 4.999976383184515 0.0
4.610414277633943 4.999961041427763 0.0
4.427267949626277 4.999942726794963 0.0
4.208632181003523 4.9999208632181 0.0
3.94762991407365 4.999894762991407 0.0
3.636051481597624 4.99986360514816 0.0
3.264096435582253 4.999826409643559 0.0
2.820065163541503 4.999782006516354 0.0
2.289991063711534 4.999728999106371 0.0
1.657200899778495 4.999665720089978 0.0
0.9017907314530094 4.999590179073145 0.0
0.0 3.999600000002013 0.0
0.0 2.999700000005187 0.0
0.0 1.99980000000512 0.0
0.0 0.9999000000025537 0.0
9.897889398521345 2.93573355845387 0.0
9.906568249974548 7.060009441434234 0.0
9.913122631074113 3.64016132281653 0.0
9.922462129543863 6.354535290629151 0.0
9.917693659967533 4.354211663134567 0.0
9.909873057440208 5.637584487339942 0.0
9.914183254994697 4.950672966925282 0.0
9.913885043715895 7.666887930262611 0.0
9.91009668007573 2.351889069770817 0.0
9.905135696074536 8.138152454502785 0.0
9.913397459621809 1.849999999997262 0.0
7.099302372137626 0.297750452375005 0.0
7.095143729410097 9.700359990366296 0.0
4.942912558701401 5.095838627899509 0.0
4.315009232304429 5.165022115481685 0.0
4.946182472483878 4.906763777264103 0.0
4.317967462990024 4.825955043772673 0.0
9.916390871492647 8.64999999999792 0.0
9.921504649680616 1.368376469890358 0.0
8.292538149791614 0.206877570318844 0.0
8.292538149793597 9.793122429681448 0.0
5.884594439766573 9.587645267048616 0.0
5.794826292691579 0.3794853783929359 0.0
9.913397459621425 9.049999999998557 0.0
9.908526577714177 0.9568239351922434 0.0
3.456851160380649 5.315740054130451 0.0
3.457889657868442 4.707121019609468 0.0
8.945214200703926 0.1503383337970344 0.0
8.950161364448409 9.8413906539257 0.0
9.913862335499305 4.055887885208452 0.0
9.916697353372683 4.650158482607802 0.0
9.919076340414442 6.049999999994006 0.0
9.906994308667635 5.25749687748192 0.0
9.917490342358025 6.655979201891897 0.0
9.915757520293784 7.343848891656911 0.0
9.910049507471042 3.363474386285078 0.0
9.914471988502868 2.647400064832979 0.0
9.91474124160965 9.337490423485129 0.0
9.916971008170838 0.6499999999994355 0.0
4.307157269264427 9.509674045029644 0.0
4.331527375865619 0.4401616696422582 0.0
9.45434939180249 9.878397030523757 0.0
9.457696120412969 0.1270877537061785 0.0
2.555070293622606 5.422044496190925 0.0
2.566232917480916 4.608001224030952 0.0
3.026511860837692 9.332320638257093 0.0
2.945561971800619 0.5895662714727601 0.0
7.7395404387124 0.2511088946967771 0.0
7.736379255744154 9.745848826372828 0.0
4.687135269408529 5.122111433928926 0.0
4.688420821504113 4.871895064967488 0.0
9.910554884115975 0.3448356354522978 0.0
9.911230082250466 9.65764729394159 0.0
9.921953841410854 6.851023993342036 0.0
9.912065178606017 5.448170483544033 0.0
9.911660025326261 3.861846960030188 0.0
9.914847467973438 3.14501593945607 0.0
9.913397459621425 5.849999999993703 0.0
9.913397459621425 7.849999999996735 0.0
9.906916878988277 2.15455769998631 0.0
9.913397459621425 8.349999999997479 0.0
9.909472363117661 1.640528221515488 0.0
9.913987325695956 1.152857110636247 0.0
9.913397459621425 8.849999999998241 0.0
0.9100099990995943 2.614215977520411 0.0
0.8395284981715456 7.451196254860987 0.0
9.723278867451556 9.898135916635193 0.0
9.723316350887044 0.09841820909386662 0.0
1.385819164827588 4.454539963646463 0.0
1.338343629665047 5.523111536005823 0.0
1.377179700550677 0.6809168304959698 0.0
1.418060461092743 9.285896715136046 0.0
9.91268220142518 0.1457914080939694 0.0
9.906737126737994 9.845745933882352 0.0
0.7108351382691361 6.537941170074089 0.0
1.527735020267026 6.915620208855231 0.0
1.630993885659103 7.838271825205868 0.0
2.232760943566823 7.370850737296832 0.0
2.243414218068206 6.688299277952821 0.0
2.779655053105118 7.021588754814074 0.0
2.80227799359795 7.632420170547022 0.0
3.282022065908813 7.305859666021318 0.0
3.327597298795347 7.857554136825748 0.0
3.743210251018715 7.549183328204379 0.0
3.716353232200752 7.062036086888612 0.0
4.111978858674101 7.27497101169417 0.0
4.104192177581432 6.879858986267289 0.0
4.436230765617037 7.045693351607117 0.0
4.430360014817357 6.703971783962796 0.0
4.732390145036301 6.849841042423394 0.0
5.056161327708878 5.095276573498806 0.0
5.111586796021131 4.999081142133581 0.0
5.169267363407189 5.09444870412406 0.0
5.223795108752053 4.996986220359468 0.0
5.281480803887719 5.092780870372803 0.0
5.335670761900611 4.994887492556936 0.0
5.393485214772442 5.090486192743301 0.0
5.447323082877892 4.992601527033996 0.0
5.505243219343024 5.087953380710069 0.0
5.558739102026105 4.990287787962959 0.0
5.616491581184779 5.085335255235766 0.0
5.669852346908056 4.9879269227514 0.0
5.727502713908907 5.082679981817038 0.0
5.780766004135139 4.988313988715834 0.0
5.838244881129535 5.080480568766611 0.0
5.891357695677371 4.986433849408193 0.0
5.948696036767613 5.077969900389505 0.0
6.001601341641615 4.981313698556656 0.0
6.058851024265095 5.074871552128682 0.0
6.111614020704875 4.978360695880202 0.0
6.168801161530775 5.072044953270978 0.0
6.221368818778567 4.975825765213497 0.0
6.278268309066882 5.066182320461055 0.0
6.330814273567539 4.972837984645718 0.0
6.387565032421376 5.062889771971895 0.0
6.437476667631405 4.971693683589553 0.0
6.496181111585419 5.060210690175857 0.0
6.539454812256072 4.964658165361536 0.0
6.604198202576491 5.056387520850258 0.0
6.648506025747331 4.939374587506267 0.0
6.714026758992516 5.05873885840664 0.0
6.764418045981209 4.959246676066148 0.0
6.8219334571197 5.055299567406268 0.0
6.873708540948134 4.960426349093742 0.0
6.930181428849307 5.053461390218819 0.0
6.981893615341967 4.96435459462232 0.0
7.037791764774784 5.051219747103022 0.0
7.090993561518408 4.96392420322464 0.0
5.504417457283294 4.900897920552702 0.0
7.145434864123609 5.048960634292441 0.0
6.054532384032612 4.883956083938546 0.0
6.738027949040956 4.850032323068674 0.0
7.198432914526514 4.956325226333323 0.0
7.252637187936749 5.046012229327236 0.0
7.30926729605109 4.948903216650376 0.0
7.248106275544042 4.860306312845646 0.0
7.363100274863074 4.849952416808486 0.0
7.365733472701664 5.039519554615095 0.0
7.308483293090149 5.137557220352172 0.0
6.768399513646964 5.145609705119954 0.0
7.422800035311104 5.132251445551834 0.0
7.358273518796229 5.235980394389298 0.0
7.480824155801127 5.227946127939927 0.0
7.302193400058628 4.761917474298247 0.0
7.413570879789824 4.754555110721153 0.0
7.414392998903179 5.334729114426734 0.0
7.352769630272076 4.660405502266205 0.0
7.467556835255426 4.658352623795039 0.0
7.536246869015014 5.328986926716081 0.0
7.478865844607288 5.432598185493195 0.0
7.406396991826072 4.556956233957538 0.0
7.523581002009154 4.552005631348623 0.0
7.597792398573263 5.429506106314967 0.0
7.540511043402902 5.53619421580439 0.0
7.46214474876342 4.452580994318881 0.0
7.5852185078634 4.446021810672608 0.0
7.663329342323453 5.533453399066901 0.0
7.603478967594521 5.643227430483237 0.0
7.513450346818673 4.347641323140766 0.0
7.640744971722214 4.333388343316237 0.0
7.727671715775243 5.642390483050116 0.0
7.667774597993788 5.753188858425915 0.0
7.570065256728661 4.230515669344811 0.0
7.702881065467917 4.218307808529532 0.0
7.638288257073729 4.107994211855027 0.0
7.493362356301017 4.120843902105771 0.0
7.779018500630071 5.521233457321821 0.0
7.794641287388929 5.752364621610818 0.0
7.73369774483611 5.865894287356292 0.0
7.600834531784728 5.867752110500446 0.0
6.233038857278689 5.15645045634683 0.0
7.669727996028819 5.985665563643058 0.0
7.528582452554481 5.987393423295551 0.0
7.598722674572824 6.11001923494443 0.0
7.778305000222867 4.104318908265786 0.0
7.704329019832056 3.987744174608892 0.0
7.838453459801382 4.213322728668484 0.0
7.864495721576461 5.862306066517277 0.0
7.846552353360407 3.98481756181946 0.0
7.769730409703277 3.86544808681145 0.0
5.785249360396857 5.177248808588045 0.0
7.908837087876153 3.861484036275285 0.0
7.834824606222196 3.740586825753288 0.0
7.97685993406276 3.736209527152902 0.0
7.89665098770825 3.615501862931453 0.0
7.753228010315262 3.617800245018972 0.0
7.826063013090472 3.483173292579822 0.0
7.66789744383048 3.48859328808356 0.0
8.042515855796823 3.595394268381807 0.0
7.75200750488492 3.341279823834038 0.0
7.582870318332553 3.346584916806707 0.0
8.120807847415062 3.732493963388337 0.0
8.189783970303546 3.61159165475499 0.0
7.657801000286734 3.200439907646711 0.0
7.486781956172036 3.201402473247712 0.0
7.452595103886905 6.11418616185016 0.0
7.527098033550077 6.243191052852112 0.0
8.260502906807751 3.728437634721859 0.0
8.327629317451398 3.608173631356984 0.0
7.372763970891452 6.247552889754036 0.0
7.456170570815929 6.384992468962936 0.0
7.621837793616884 6.376077080857113 0.0
7.548039512904141 6.520750676893614 0.0
7.717475944451644 6.514856553988943 0.0
7.636658166268699 6.661648164052906 0.0
7.807468267259438 6.664076174524672 0.0
7.718022764310774 6.817938967122142 0.0
7.887785766941087 6.807440365887151 0.0
7.545993589083432 6.815070675854734 0.0
7.809874785067209 6.967537287475282 0.0
7.975643812145337 6.948729406725126 0.0
8.396477808021062 3.725446935061211 0.0
7.565651643157136 3.044354774611752 0.0
7.384328725505071 3.043048915147076 0.0
8.056405351948353 6.802790889114673 0.0
8.14128318237188 6.940027831915737 0.0
8.064621760266059 7.086348792208953 0.0
8.225003598857908 6.805225152373254 0.0
8.463085452993242 3.606998510553562 0.0
8.230426869720718 7.079551841000411 0.0
8.155262284174286 7.224761758176069 0.0
8.530696760758996 3.721683301125054 0.0
8.596669886994064 3.604516769862316 0.0
8.528531058025589 3.490411531312337 0.0
8.320451770844851 7.218191678954744 0.0
8.245273958732774 7.363444652121271 0.0
8.66324687389452 3.717094013035765 0.0
8.600103125209296 3.831913857228569 0.0
8.662131102573216 3.488322280861316 0.0
8.594166125380536 3.374071873435548 0.0
8.411074336066186 7.353871649576861 0.0
8.339644223432472 7.505172120620427 0.0
8.165883718619623 7.513159193685373 0.0
8.483453820080417 7.2082285366806 0.0
8.261200365730348 7.657400951288149 0.0
8.081570576666843 7.670933304838066 0.0
7.471613195794025 2.872548423100142 0.0
7.268733678357991 2.881209199257603 0.0
7.184255506995786 3.084448584600423 0.0
7.065899603697895 2.883902449336828 0.0
6.960163891183182 3.081014635802978 0.0
6.847612128388715 2.885646860602812 0.0
6.739800729737967 3.078895733381448 0.0
8.729373804596847 3.827689165637365 0.0
8.668550856907444 3.938702277545298 0.0
8.72770789162863 3.371798381178293 0.0
8.659764090070603 3.257493349874974 0.0
8.436453928793245 7.648724489148887 0.0
6.619080287792762 2.90880017416788 0.0
6.511740956842646 3.09340654756684 0.0
8.793527829963288 3.935174834810256 0.0
8.736430500996828 4.042719556852617 0.0
7.631260330584174 4.565300771328012 0.0
8.359058396840432 7.801678182761817 0.0
5.339436215072359 5.184870243702279 0.0
4.994031736761993 5.193306795607908 0.0
6.383387675268097 4.87760645722207 0.0
7.29117392392962 6.382172868329505 0.0
6.378196825372041 2.907113079755629 0.0
6.269817199014261 3.12412150658573 0.0
8.793149127377946 3.255386294257182 0.0
8.725774239201558 3.141596687892195 0.0
8.857434600673502 4.041295940541356 0.0
8.802868937128341 4.1471119953668 0.0
8.532045262478793 7.7905977476835 0.0
7.364542641624493 2.699128473342751 0.0
7.571677611088925 2.695732556686516 0.0
6.723058333614999 2.672341359410618 0.0
8.456744924757372 7.94483904450548 0.0
6.140831279784704 2.921247401137864 0.0
6.02419219050745 3.14358702955763 0.0
8.916255604212301 3.934279868822481 0.0
8.859287250884009 3.140226640574265 0.0
8.791092798057303 3.025929352146465 0.0
7.210445465986021 6.245773134960393 0.0
7.120884161792869 6.385155584680196 0.0
7.036931702064287 6.240721609143972 0.0
6.943722280007011 6.3869279517155 0.0
8.920094519678617 4.144837222494242 0.0
8.864374107136287 4.250930406527029 0.0
7.347569838739255 4.463467417508182 0.0
5.90383431757064 2.935113219563906 0.0
5.783476009580765 3.156456199832474 0.0
8.626013191558314 7.935092223505354 0.0
8.687240186957197 7.796697889991163 0.0
5.642059327424706 2.903018174330269 0.0
5.52647853955939 3.162549070310043 0.0
8.555300051897738 8.086169516016518 0.0
8.405624441178524 8.083972416481254 0.0
5.374124307190728 2.945480555950917 0.0
8.935805220807357 3.249260758206028 0.0
8.981625171409894 4.247375537584228 0.0
8.924725364486765 4.352101286657735 0.0
8.807208588134106 4.356163101450244 0.0
8.868277832430604 4.45657124153171 0.0
8.75099635287701 4.460644845248524 0.0
8.812385950597063 4.560891222623518 0.0
8.693833206943118 4.564602972998703 0.0
8.756474732548273 4.665720853686476 0.0
8.63721608225855 4.669394550615355 0.0
8.700108119351134 4.770682016274914 0.0
8.81920502916846 4.767536120893284 0.0
8.76355311338807 4.871451945248518 0.0
8.881442328033694 4.868382238751069 0.0
8.826433523510634 4.97132552240372 0.0
8.943387824985514 4.967694248194483 0.0
8.888718468126953 5.071044784833541 0.0
8.580377663835254 4.774669738817985 0.0
8.770572242937233 5.073880380431421 0.0
8.832915096600454 5.174518948293615 0.0
8.952224483821848 5.170970838320107 0.0
8.897282771771884 5.275476392171722 0.0
7.463928467290875 2.513944501591933 0.0
7.675935950092034 2.509420347143072 0.0
8.924252417741767 3.024418701372628 0.0
8.857265893102921 2.911213535286156 0.0
8.776981063213334 5.27944309004916 0.0
8.840710910770163 5.380165700477552 0.0
8.960876896785969 5.375521424256389 0.0
8.904555918255223 5.482125846038813 0.0
7.567193097677677 2.32750151280277 0.0
7.780880844888839 2.323064027160363 0.0
6.851602118390116 6.234522818184622 0.0
6.758680682687229 6.389359516748128 0.0
6.66345977321418 6.231254850996584 0.0
8.715764716958308 8.079994249772627 0.0
8.65189989696114 8.227534663647639 0.0
9.042229096541828 4.348551764001607 0.0
6.436774206993324 3.316782326998922 0.0
7.590527613340588 5.22651784724799 0.0
9.024366884701616 5.476726561488805 0.0
8.968734351641839 5.583879050892151 0.0
8.845941080047659 5.586406316932274 0.0
8.909881305857882 5.690482454668167 0.0
7.348726871578975 5.44047403999932 0.0
6.567070253986433 6.398115757512583 0.0
6.697077150072261 6.553426749743366 0.0
5.252377383990728 3.187782967482479 0.0
8.988440431820699 2.908621158637298 0.0
8.922541972760119 2.796420836075996 0.0
6.466806010659505 6.229115583261771 0.0
9.033851153821296 5.686506775615425 0.0
8.978340519963718 5.795772485582058 0.0
8.85111463793018 5.798672910287243 0.0
8.922171984280597 5.907237880910408 0.0
8.795190680908043 5.911854068712683 0.0
8.864373398892472 6.019728357749566 0.0
8.991346995940626 6.014539153309398 0.0
8.93374019140187 6.12698887312768 0.0
5.095192648098848 2.952353430985476 0.0
7.672651464908932 2.141715359830917 0.0
7.886266921042761 2.136211284120189 0.0
9.098474286589756 4.245971410451114 0.0
8.813172564986438 8.216887361735234 0.0
8.74802978243154 8.366104673219047 0.0
9.059985162956899 6.120982589539211 0.0
9.00342813739303 6.233245043891739 0.0
4.961413514304496 3.214209167276753 0.0
9.05248113004685 2.794651022570942 0.0
8.986028039118027 2.681341972594222 0.0
5.671890458441996 3.377122473800023 0.0
4.755829262593116 7.184480462344647 0.0
9.158258644940048 4.34465968221255 0.0
4.799687186662534 2.961354824469195 0.0
6.030554747591715 2.726787502996874 0.0
8.938327180212585 8.34758372042188 0.0
8.847392320655468 8.503370672816716 0.0
8.67342124373679 8.518117686968314 0.0
5.234423106934083 2.694925204361751 0.0
8.964923046453565 8.185313058214797 0.0
7.456650986668838 2.134076476407834 0.0
9.111732084821366 2.897226832609386 0.0
6.368055837513985 6.402805870976705 0.0
6.265629899005033 6.226581076317183 0.0
8.736327196352686 6.026404178766982 0.0
9.117473097358854 2.67987006607594 0.0
9.052137415465204 2.565428515518978 0.0
7.781001557847192 1.955874236406257 0.0
7.992134447300669 1.949184538864554 0.0
8.593074792993455 3.143159483125708 0.0
9.1291360203536 6.226877897052981 0.0
9.072154326613617 6.338696745620542 0.0
8.916532550320525 2.566986282201109 0.0
8.984021113721658 2.449252898983242 0.0
9.178032243215632 6.120533546076094 0.0
9.213703592343162 4.244823670856978 0.0
9.11972142641474 2.449071238668887 0.0
9.052853896812186 2.33190758581705 0.0
8.635035926402708 4.462329956179506 0.0
8.773614475966344 8.657865377672689 0.0
8.596400917257634 8.67759750279447 0.0
8.942023339420883 8.644678093589654 0.0
9.19471670675691 6.33096438039349 0.0
9.138460613363325 6.443043552768813 0.0
8.66620319432524 5.916297234509582 0.0
8.606669825267202 6.032658196729024 0.0
9.27222540210304 4.341341907533128 0.0
9.013782808177437 6.451040569407859 0.0
9.08360982569773 6.55729980456602 0.0
7.885622149776354 1.768093045890686 0.0
8.095672144455353 1.768790621151345 0.0
9.208772072925791 6.549717411809656 0.0
9.154272208194383 6.662613503537815 0.0
9.187669783927937 2.334640996932141 0.0
9.122379015831417 2.215832190697178 0.0
6.164077036161143 6.404611236428829 0.0
6.062367614988677 6.224307160647549 0.0
8.987075041759633 2.211477580983978 0.0
9.056972755801603 2.093573581203428 0.0
9.194557288902232 2.096029761809264 0.0
9.131223008370409 1.972713028695079 0.0
8.87381302587057 8.795793668920256 0.0
9.039169086943392 8.781606667490083 0.0
4.662813350519927 3.228118291851354 0.0
4.474181267994617 2.945703616023359 0.0
6.562627723301209 6.075544382232434 0.0
9.326886053211574 4.243083624343211 0.0
9.280374192897945 6.656072830232892 0.0
9.224718905178564 6.766740750539347 0.0
4.703284910421452 6.528907865005451 0.0
8.955136474970331 6.565989985649191 0.0
8.998148826814893 4.865480736169776 0.0
8.99429836796776 1.965972383552685 0.0
9.065669391141741 1.847195105148808 0.0
9.207236162050343 1.853010386995843 0.0
9.143218073349985 1.725630086781897 0.0
8.998867447699345 1.719378449325465 0.0
9.082595782768397 1.592017827427701 0.0
8.92804562738841 1.585238202229766 0.0
9.01637794607019 1.453847302675876 0.0
8.854253119154375 1.446306868730686 0.0
8.941620273019874 1.320083886766936 0.0
8.775393064215876 1.308487027359826 0.0
9.102170347200483 1.324733726345249 0.0
9.013857060361985 1.178821526410403 0.0
7.991031819452564 1.587689878441685 0.0
7.767218744640202 1.595993197647291 0.0
9.191539171305216 1.194087248761656 0.0
9.123965901037613 1.057102462689568 0.0
4.853921953226772 3.470213116851758 0.0
7.496563223334782 3.470157221608763 0.0
8.536691379028115 5.921845852206257 0.0
8.475496498707471 6.037633662010236 0.0
7.978668526342969 2.307231488316941 0.0
9.384721922092124 4.337357165846226 0.0
9.331039180200886 4.435926256444196 0.0
8.546261775564837 6.150267290476958 0.0
8.411727261785726 6.155319300628062 0.0
8.972203609044218 8.930944433074036 0.0
9.133480321468399 8.90955269607895 0.0
9.197778815538276 8.768743880012563 0.0
6.162231825784922 6.05277753404107 0.0
5.962111081146334 6.046949845237622 0.0
9.268727788642101 4.146883230687689 0.0
9.380694211527906 4.144811697563401 0.0
9.323823335199954 4.049557759546529 0.0
9.283324894520613 1.736313094621396 0.0
5.858151623803662 6.22041808248046 0.0
5.759668475561988 6.038806123495502 0.0
7.836860473863919 3.191674397465999 0.0
9.348591928839294 6.75855034547469 0.0
9.293979592221298 6.870213350675044 0.0
9.170543172728557 6.879819332293818 0.0
9.240028263813034 6.983394994050525 0.0
4.347372565145963 3.312731475520695 0.0
4.114183445909965 2.96879678229065 0.0
8.616264880152233 4.042035981070631 0.0
9.403174760076901 6.650407069150438 0.0
4.173860112179449 7.723461240865885 0.0
9.365302975518428 6.973476802087294 0.0
9.312420275675276 7.088420778208979 0.0
9.184876614539778 7.0978133687822 0.0
9.25921281729617 7.204979813006656 0.0
9.12816413817609 7.21569648263899 0.0
9.203944409919862 7.322703303071253 0.0
9.334311975087337 7.311477957762272 0.0
9.280415785210538 7.428795599957155 0.0
9.274060219641907 1.066603180421249 0.0
9.211820491509728 0.9316562593680151 0.0
9.050684011148748 0.9017681241401576 0.0
9.441953732403995 4.432092590771756 0.0
9.394725873909666 4.526051349391942 0.0
9.43453556160865 4.048003950509361 0.0
9.378043599351757 3.952631412328806 0.0
9.289691247910705 8.890746792319852 0.0
9.228148443138926 9.030109127390128 0.0
4.440757888677695 6.389562448928118 0.0
4.689874463978985 6.239329075084555 0.0
4.291519540095677 2.622920583112654 0.0
3.886073352912894 2.632778677714434 0.0
9.344015622314338 1.202401041544343 0.0
8.193292196814806 3.849649660906171 0.0
6.960946604527747 6.07044529864598 0.0
9.347708267319902 8.756364147482309 0.0
6.826423138602714 3.261415861395883 0.0
6.06309517882478 5.884563187328262 0.0
9.4085057714426 7.414123963607981 0.0
9.356416821537886 7.532359471354527 0.0
5.042074134251055 6.938947182785697 0.0
5.063988238156824 7.311205832605263 0.0
3.946666851334923 3.30681624613374 0.0
8.189857914071878 1.939951128540477 0.0
7.880690277686857 1.38928908049477 0.0
7.63766396748483 1.399736360041063 0.0
9.345004233592562 1.857695941115052 0.0
9.440465164139875 7.085860901905448 0.0
7.918332480761888 5.744468010879592 0.0
9.08007135068879 5.372457017512481 0.0
8.78639561093144 3.718391405525285 0.0
9.356843485085705 0.9414458825132457 0.0
9.29705128845331 0.8103081541678832 0.0
9.251825423225316 2.451701826351773 0.0
8.483895366325516 6.270717564685176 0.0
8.346386886249478 6.275973306650227 0.0
9.493299170161215 4.138582531223591 0.0
5.321115649032961 7.117073603021904 0.0
5.354076009109965 7.436189411362466 0.0
5.597984079819928 7.254284331170681 0.0
5.644042313435943 7.564172740776336 0.0
5.383963016128051 7.753854027984002 0.0
5.681168258142109 7.880444993178456 0.0
5.935548099874979 7.687258900444162 0.0
5.979508404301389 7.994332725561488 0.0
6.21936843555201 7.802335560754011 0.0
6.267092590637372 8.104873033518185 0.0
6.498845418385807 7.917606504106031 0.0
6.544600005636809 8.209910620392591 0.0
6.77336078689533 8.027284686082275 0.0
6.814840179123049 8.311778392637773 0.0
6.721304148677048 7.737863326704131 0.0
7.031320924898797 8.1335673274533 0.0
7.077388928622946 8.403901803728003 0.0
5.417471987089176 8.090112295667405 0.0
8.845427688507666 2.446352368201366 0.0
9.318512319918124 2.339233739859646 0.0
9.380241452597096 2.451895615249572 0.0
7.283805558009199 8.237518806365102 0.0
7.329200330160381 8.497045124353782 0.0
7.233272584416691 7.991590926766813 0.0
9.142592248414191 5.471315142785471 0.0
9.196303265878848 5.36738298742727 0.0
9.25795832955665 5.465260877691205 0.0
9.310581303233182 5.36341558704714 0.0
9.371094700882272 5.459458038195667 0.0
9.422767107822985 5.360687090455724 0.0
9.36402660964156 5.264821436196721 0.0
9.474220736978928 5.262802348886269 0.0
9.41680330511366 5.169477108906666 0.0
5.168675939028436 4.895496152382537 0.0
9.482591449057548 5.454699312257291 0.0
9.431567605310825 5.552723344040521 0.0
7.531449703396948 4.741663470323411 0.0
8.517293123442691 4.672601123164268 0.0
8.459978676626639 4.778466809901586 0.0
8.396595115309985 4.67568709170855 0.0
8.338966609235166 4.782101664607259 0.0
8.275355646032752 4.678829956447008 0.0
8.217675280223542 4.785699596769931 0.0
8.28149024865807 4.888803783902183 0.0
8.16019781596952 4.892696417098926 0.0
8.22433278506531 4.995725219088695 0.0
8.102825704443651 4.999629142625341 0.0
8.166887930010795 5.098242831115916 0.0
8.034904900788316 4.896825406879729 0.0
8.15353539905931 4.682103688185489 0.0
8.211891449058882 4.574219757233394 0.0
8.290305306104333 5.094007100958221 0.0
8.225684228618732 5.201525567655179 0.0
9.444618942559746 2.343141375196729 0.0
6.929446520625337 4.868116916840016 0.0
5.737810725167649 4.893891407574175 0.0
8.720389971487277 5.38508368411851 0.0
8.805734920311323 8.951818172412821 0.0
8.905272694453211 9.083303226359831 0.0
6.006155038818204 5.171375272745409 0.0
6.431496448228514 5.152985998213245 0.0
9.052675024457304 7.106590131831544 0.0
7.740007013494393 6.09727525827826 0.0
9.375852260355511 9.013078430361404 0.0
9.32035844773103 9.14584923943073 0.0
6.989707597683965 5.146377438798643 0.0
9.488190206836386 3.951168069367155 0.0
9.432429152094464 3.855725756072153 0.0
5.568386402814275 5.185723849666124 0.0
9.525561551078322 5.166162126187324 0.0
9.465026391994275 5.072601962964018 0.0
9.320357339516937 3.857795423728873 0.0
9.375955927831914 3.759314274140895 0.0
9.261783786753899 3.761412578759438 0.0
9.31820665563318 3.661845422072752 0.0
9.431798673168924 3.660830894813109 0.0
9.374584413615914 3.563138564686839 0.0
9.48759661134647 3.562294297118573 0.0
9.431339678707085 3.464016717943268 0.0
9.417896212887529 1.746970678437863 0.0
8.731705369070733 9.110902182838881 0.0
5.652297951447118 6.21188565774667 0.0
5.569122518069258 6.024400786163834 0.0
8.257007204149394 3.505875091031567 0.0
8.717428603143034 2.925525757227976 0.0
6.882852832747376 8.57686572931064 0.0
6.337330066435714 8.416819098143066 0.0
9.50188906539997 4.521022403818629 0.0
9.453500859905136 4.617181635748691 0.0
9.46806769570129 6.749352117850711 0.0
8.836822104875719 1.72282859852854 0.0
7.481071063421426 5.64593758994851 0.0
5.668814988976305 5.86611128457842 0.0
5.487644760735084 5.847591822776978 0.0
8.993992818065195 7.228173913870249 0.0
7.98322414937693 7.229980191466666 0.0
9.22810751684646 7.54864871395298 0.0
9.304103360459063 7.654622011545798 0.0
9.432787371848761 7.633691049023619 0.0
9.382619818023882 7.759136995934441 0.0
7.239096822516492 4.679179578301165 0.0
9.47692479956498 1.861231395362419 0.0
8.041243110813022 5.095895152648969 0.0
6.190208781188077 7.509864122823853 0.0
9.283062812782122 4.549418667685757 0.0
9.503847665760087 2.450295046295932 0.0
9.443345385250678 2.557904120404248 0.0
9.52009568463353 6.644015937008899 0.0
9.203119005973903 3.662458522935253 0.0
8.406198651282708 5.92630414760378 0.0
8.467263597743843 5.811987729136874 0.0
9.461423029059445 9.128120577356565 0.0
9.408445330070542 9.26024300250086 0.0
9.266505293379728 9.277952925446408 0.0
4.14874709022218 3.631681332690154 0.0
9.437448107949258 0.8198473430736303 0.0
9.376993771693973 0.6910550697058979 0.0
9.22882356848217 0.6931820370818127 0.0
4.451823867195988 6.103664366188579 0.0
4.200031743909027 6.232039028149317 0.0
4.687154754667774 5.975132870483986 0.0
6.268889397098538 6.592235545990395 0.0
7.509366161722768 8.340075462391164 0.0
7.564775703413765 8.59800936579159 0.0
9.542148732924264 3.854614593058991 0.0
7.036231103929761 6.550562550831048 0.0
4.089373665437328 2.268193930262139 0.0
3.642558884866483 2.250386188148396 0.0
3.442182385618804 2.651948803899947 0.0
3.146832503011753 2.222630466765926 0.0
2.948870467975985 2.805088883766417 0.0
9.352005315330274 5.067356449300542 0.0
9.31729677031493 3.462944187594675 0.0
9.37428383619102 3.365546369736205 0.0
9.4883538239391 3.365384871181599 0.0
9.432147665178338 3.267287636377487 0.0
9.25034519267688 7.775848812012313 0.0
9.332091350002502 7.881724023243533 0.0
9.462101000264603 7.86490055671988 0.0
9.413353271651825 7.98561007219363 0.0
8.273592814723814 6.158623919352561 0.0
8.207135014732339 6.280394934566054 0.0
9.541483811580331 5.548224291759592 0.0
9.491365919893726 5.644847811894615 0.0
8.088095771120983 4.577581369371366 0.0
8.14760102783746 4.468303741922308 0.0
9.556217963323956 4.414867468889523 0.0
9.543667331547693 3.266908751519594 0.0
9.489307652535885 3.169908976697059 0.0
9.26285575842982 8.635341362685686 0.0
9.403220742003983 8.621447866627538 0.0
9.326013417886902 8.506778946171965 0.0
9.455477927154853 8.503896705359047 0.0
9.566646674069602 4.611465258087684 0.0
9.499341049870914 0.9352184973273918 0.0
8.683891958597638 1.444705608998412 0.0
8.599973456173778 1.287265568270043 0.0
7.760988189317371 1.175381292562583 0.0
7.50927661322749 1.171223823957793 0.0
7.380927152434357 1.411062577009695 0.0
7.242417847270241 1.170759311509981 0.0
7.107236746116019 1.421234419770886 0.0
6.960799033544566 1.169618322344823 0.0
6.817786081200392 1.434174581170586 0.0
9.48095050141868 8.738557748483624 0.0
9.319762046171894 3.263060331456388 0.0
8.920653400180534 7.117307656029475 0.0
9.452431221190624 6.544166520883111 0.0
9.571407933653493 6.540336592280795 0.0
9.507586285214174 6.443281357841339 0.0
9.575252974749443 5.070210512157044 0.0
5.755172844377253 6.370710487467459 0.0
9.541351959064952 7.969072511059531 0.0
9.354607289792183 9.3921968735401 0.0
9.495213435762107 9.37218405175897 0.0
3.77688136092967 3.643094492921176 0.0
5.460967180339239 6.159077196937325 0.0
8.656589552918996 5.283032675040985 0.0
8.599307076390474 5.387421722684671 0.0
9.584017606465821 5.263931993965828 0.0
9.51536593891754 4.977534386249715 0.0
7.788544970111893 2.70578432810479 0.0
7.381746833264364 8.755477463411431 0.0
7.615969996822885 8.852710176548548 0.0
7.783643411970649 8.691528137204457 0.0
7.845017394185501 8.938777577473743 0.0
8.570520580943368 7.342304222498308 0.0
9.103648004226827 5.781084627507008 0.0
8.338082930126799 5.815990105349368 0.0
8.930848895071895 4.561111316304916 0.0
7.381089602119859 5.983657236035151 0.0
8.42066837692862 6.393608568217351 0.0
8.888256157021065 6.459558428285236 0.0
8.826495664731354 6.575679897210801 0.0
4.22522220414496 5.921354747981145 0.0
3.943296448343383 6.075578573904587 0.0
9.563175937841836 2.554860696349795 0.0
9.505342423182917 2.656889632284623 0.0
6.660863480070611 1.168750929063519 0.0
6.518316961679488 1.436478598119306 0.0
6.683474168246802 1.694104067636375 0.0
6.376799057174731 1.707382100972048 0.0
6.205091481342603 1.443621641108414 0.0
6.058670988071357 1.728841803855816 0.0
5.877457486049096 1.454297236926778 0.0
5.724979192982589 1.756666409586195 0.0
5.529885788012015 1.462283739157555 0.0
9.514953777019835 0.7018468683209754 0.0
8.398665270372675 5.702731562702358 0.0
9.456442249775696 0.5772068858285652 0.0
9.565795671866349 2.345573662774494 0.0
8.830758563027459 9.247271599108435 0.0
8.523580738257648 4.88015211128435 0.0
5.580123316488715 5.701889892660689 0.0
5.398591029446707 5.685938459654249 0.0
5.367686360823392 1.778740548277203 0.0
9.546603444041448 1.754984055696778 0.0
9.489649223089446 1.641312329051244 0.0
9.617973952467912 3.363804764345866 0.0
9.584322830999731 6.729956156156573 0.0
9.597221861144487 3.948534024289882 0.0
9.49401963819799 8.089507968561776 0.0
9.207321074262563 9.416906871900888 0.0
8.27185428346661 4.464932191097996 0.0
8.207416067213774 4.35878753684812 0.0
8.332747746635944 4.354903699457511 0.0
3.990181919126853 3.930792395858886 0.0
8.267392138262498 4.254008221702929 0.0
7.997788712685495 1.196805377512679 0.0
9.600316638269724 5.639973985281733 0.0
9.550939606739425 5.737313319038155 0.0
9.44084303195315 5.74233753256161 0.0
9.50112296154558 5.834555019909565 0.0
8.897429225733994 6.685415510921676 0.0
8.762930941408914 6.695907295903629 0.0
8.654628175336732 9.278157371342388 0.0
8.544676900803436 9.133790942553834 0.0
5.294904777716057 5.855935872688884 0.0
5.216749389964556 5.66865685845661 0.0
9.508453581298625 2.239460033375932 0.0
9.599691370793206 3.169496930704394 0.0
9.546615051106684 3.073514534194011 0.0
7.484714626923596 5.028675123117963 0.0
9.588496050271255 7.850836295555126 0.0
5.153197381012662 1.471340286561097 0.0
9.433168304679345 3.071871997104804 0.0
9.610464706874994 5.829217654498672 0.0
9.561407772947403 5.926179534044419 0.0
8.273381980676042 5.705233340662362 0.0
8.330794188929296 5.594351887246082 0.0
8.207319603076424 5.596747949305344 0.0
7.251338559467102 5.233758892662348 0.0
8.708518799790543 1.130513882092466 0.0
9.590155250193266 0.5878623138195824 0.0
9.389919385420015 5.841079912164009 0.0
7.991397852194216 5.859910582924319 0.0
9.624951589233206 4.975554514425905 0.0
7.240016788025947 2.531866266726309 0.0
7.635666783493215 3.873554782053258 0.0
9.608476620993713 1.863530872936442 0.0
9.365330459496413 8.10677840682376 0.0
8.775076110585598 2.572737931759856 0.0
8.699389445914996 2.444602334375113 0.0
8.625078713232146 2.580891022578613 0.0
8.54447196848446 2.447624719286678 0.0
8.468898498943965 2.586757328881282 0.0
8.62282309213608 2.307826916202421 0.0
9.622102662978762 6.439307895185218 0.0
9.561995355724862 6.35103962032292 0.0
3.898245450818314 1.856155797593496 0.0
9.681759177700954 5.07069253017652 0.0
9.059254996454502 4.963357716933865 0.0
9.113144532326562 4.861710138088372 0.0
9.62140874877204 2.656009146517733 0.0
7.884510615470827 0.9666888912541309 0.0
8.14902661050739 1.005010215149227 0.0
8.491263206618079 8.527197931363634 0.0
8.408859203395778 8.697060715788105 0.0
6.54422152733529 1.954566069381189 0.0
9.563546573097593 2.755667904356369 0.0
9.453065492925557 2.761122255953964 0.0
9.676889098520615 2.755084315170127 0.0
9.678287124781653 2.556838324720633 0.0
2.60254317790297 2.278874965850319 0.0
9.211706272534968 4.050470567310489 0.0
8.526711683538949 5.698821878547752 0.0
8.296604023060945 8.533761944401608 0.0
9.649704314258118 5.543946557831669 0.0
9.651176136337964 3.85122804518279 0.0
9.44590154800397 9.498503704959054 0.0
9.580491248736612 9.476376347552954 0.0
4.3239388803087 3.921156392977062 0.0
9.65737873521736 3.075324100817917 0.0
8.128000846282253 6.160273991836929 0.0
8.06242981852327 6.292371360998262 0.0
8.500465019503922 1.442700595221201 0.0
9.615253212967009 1.649819368149096 0.0
9.561768620580791 1.538553925606111 0.0
9.435477757657937 1.527391516499924 0.0
9.627993450010088 2.242685831452484 0.0
9.5338252733548 0.4673994795805215 0.0
9.398055066504014 0.4589059948533885 0.0
9.669486082509058 5.920177035588319 0.0
9.621072177439727 6.016493814615133 0.0
9.506185962103057 6.018397021409126 0.0
9.196884440497488 7.898824858961557 0.0
9.112591143666748 7.789491461180181 0.0
9.664357762385308 7.950712034233033 0.0
8.46233617997115 2.308903464128035 0.0
8.547917980328803 2.169381684694277 0.0
8.139931430059324 6.410762600521521 0.0
7.672499127532963 9.099143622036436 0.0
7.91372855627271 9.178704612763656 0.0
8.463425076318451 9.290653726808348 0.0
9.643938029094286 9.335632419679458 0.0
9.647017668702574 0.7068996148634754 0.0
6.241662276606473 5.884018212993202 0.0
6.157742245066693 5.73500474100449 0.0
6.318815619949124 5.730068085823802 0.0
6.247706374231452 5.593094310939028 0.0
6.406948541886973 5.593272398468375 0.0
6.092564106310554 5.587409338401505 0.0
8.535507922245372 5.286142900439676 0.0
8.022959839404006 4.471630490587016 0.0
7.963561162854596 4.581393556789843 0.0
9.683487139413305 1.546750704925431 0.0
9.630761777960082 1.435922217091829 0.0
5.121714348989337 7.950140247572198 0.0
5.136464096196084 8.310254432483559 0.0
5.47349124035624 8.455234262268478 0.0
5.176273618280354 8.687190323573228 0.0
4.796664658962938 8.592678692862421 0.0
9.568705729418735 4.887269869750176 0.0
9.462711651199594 4.88832222094458 0.0
9.674903475028225 4.882285174433025 0.0
5.4996067353406 5.546583260717527 0.0
5.663632234555963 5.557613452957074 0.0
6.829408195405585 1.947174574944512 0.0
5.336529198289861 1.127585641139875 0.0
9.672387559812332 6.34138351957329 0.0
4.463988917379896 2.271060678869338 0.0
8.618048281355405 6.263841736419089 0.0
6.480949808711781 5.74815588680617 0.0
6.562207427719153 5.592185077216444 0.0
6.643040463857446 5.721233693378952 0.0
6.712825900331884 5.588664360236 0.0
6.79240375630333 5.711383948285569 0.0
6.86115931532141 5.584697050428064 0.0
6.939210100691576 5.704407337029545 0.0
7.007668476576536 5.580801046893123 0.0
7.084627386867475 5.702817970154801 0.0
6.633257976075473 5.460881327825488 0.0
6.931430743764456 5.461960451448691 0.0
9.682652370938209 6.533133024505995 0.0
8.761108695241376 9.450742747770144 0.0
9.146031326900015 3.764292700000154 0.0
9.089378801805193 3.661317181076136 0.0
9.514354521818781 8.994988681611192 0.0
8.157650730500988 4.262987189670279 0.0
6.329633198899328 5.4647789391701 0.0
2.340685767996258 2.811285337457589 0.0
7.379572471323651 0.9290892725587991 0.0
4.171878172186605 4.222320767259098 0.0
4.4876601621649 4.16473354200826 0.0
5.336389369563535 6.806464508860387 0.0
9.595468321212476 9.108133206829102 0.0
9.645038675267227 8.982113951305912 0.0
8.393140678816192 4.246338342095281 0.0
8.309440721624494 4.155300532283633 0.0
9.418269339704423 1.9925512363779 0.0
9.662781807969623 0.477809346089035 0.0
8.011297869803792 0.7518828483803571 0.0
8.250149975885678 0.7646904662196189 0.0
9.608674873602773 0.3618049194050078 0.0
8.692696069692623 6.582927327365709 0.0
8.628225948401226 6.705702462696891 0.0
8.701883181418305 6.822086652299242 0.0
8.559276855155542 6.829564723911442 0.0
7.069268463354993 5.459534423493629 0.0
2.654575201159115 3.323490466195074 0.0
3.610801136544596 4.044075244426243 0.0
8.263757217166944 5.48730323490738 0.0
8.138838162809126 5.491254533497952 0.0
7.90196833683664 4.477386962763833 0.0
7.987943097943191 3.978756490171551 0.0
9.704623491880403 3.945605151832784 0.0
9.461009573830147 7.301728818091931 0.0
9.532468631193666 7.399916015174975 0.0
9.582688928417856 7.292330983701011 0.0
9.652579613269625 7.387768793572397 0.0
9.699264016151023 7.282867433965265 0.0
9.633305589700536 7.188543855060478 0.0
9.505576100168666 6.961225778216469 0.0
9.43876966151099 6.342441564206569 0.0
4.908483672172518 6.098703904450545 0.0
9.135448256237908 5.269827196966999 0.0
5.905650502271389 2.025036080946255 0.0
9.709890722072377 9.452748507541063 0.0
9.663337613522643 9.572126259365891 0.0
9.603900123387826 7.495180532331903 0.0
9.720147629525837 7.483400774981126 0.0
9.674588415444239 7.588303295299578 0.0
9.653186673863587 4.039274180923234 0.0
9.053164539680804 4.764545162185531 0.0
9.164908495749003 4.763017269285045 0.0
9.226019227262443 4.858029410614327 0.0
8.809947621994619 3.4964384919072 0.0
9.10538997155458 4.665865142902959 0.0
9.331074106432244 5.748993480915537 0.0
9.055854333858068 7.918554535314415 0.0
9.446431573964945 8.209836764658437 0.0
9.573844810886287 8.191100251691205 0.0
9.309704769895653 8.244395007943949 0.0
7.240329561730736 1.676197957122907 0.0
9.543389817573933 3.660019800390455 0.0
9.598599341122098 3.563130123982772 0.0
9.652615161407017 3.658119804270645 0.0
9.706336063693934 3.564815526226687 0.0
8.632284427755456 6.946688912416058 0.0
9.682863230715835 2.349655023034811 0.0
9.571538455120994 2.142369886250143 0.0
8.090821900439733 9.017409120951333 0.0
6.812258669899192 0.9007667548831626 0.0
6.50135254578461 0.8974046495177885 0.0
9.598335906230732 6.246437748035812 0.0
9.719677442549804 6.253968775436637 0.0
8.593026822691716 5.180101360605356 0.0
5.537586126848265 8.836083861509138 0.0
9.688689404995035 2.143487155934306 0.0
2.821389253975936 6.507820864074362 0.0
9.176571289960709 8.507736431357309 0.0
2.918303740542162 8.256728920338826 0.0
3.428955230180972 8.401446814887457 0.0
8.490587404589881 6.715350139132777 0.0
8.86049054904785 7.243279881821806 0.0
8.93696309213556 7.356650230611625 0.0
3.951931175165697 5.78308550088855 0.0
3.65055612573298 5.91672400098539 0.0
3.668142216548471 6.247526235973777 0.0
9.717269848920886 5.821831227352286 0.0
9.708364917734201 3.164198601626433 0.0
8.45581975650687 4.569560863828342 0.0
8.204448312099833 6.040774355519757 0.0
8.65969449127868 5.485991799508151 0.0
9.707534571012967 5.634423933296901 0.0
9.62102991883279 2.849662850313935 0.0
9.144093558002634 3.560383427867003 0.0
8.29763273805118 1.77155302934031 0.0
5.280452715709455 9.01633391004168 0.0
8.984558945859158 6.99932633710603 0.0
8.4157550875812 1.275784953143711 0.0
2.068078118650995 3.355462780535101 0.0
9.205703884756806 5.568274778556933 0.0
9.745857863753141 7.178456670302003 0.0
9.681628895748586 7.081494416756802 0.0
8.875818787971069 6.240744812097083 0.0
7.993733797566922 6.414830952863579 0.0
8.462810157069566 3.377071044664789 0.0
9.29428363519789 4.759591981903337 0.0
7.933956818298286 5.97437536746848 0.0
9.028281726378319 3.558713145763133 0.0
9.083461773461467 3.455531762175701 0.0
9.73231939683535 2.849247643393067 0.0
6.70072305037728 2.192432536215492 0.0
6.423245125077639 2.212870246546939 0.0
4.931537051605536 1.135086496804522 0.0
4.746426561586179 1.500381091957315 0.0
9.707706579932626 7.836419656220658 0.0
8.590593344701457 1.595639668013959 0.0
8.708946574109854 2.1688179918246 0.0
8.634728854549891 2.028564483452208 0.0
9.230357659411311 8.129337203173913 0.0
9.102841374461482 4.452881308250647 0.0
8.472081531214734 5.388993924853032 0.0
4.925996806199801 5.844046944846857 0.0
4.702806345752284 5.745688656289065 0.0
4.884357002239844 5.633237011762874 0.0
4.709628434300812 5.536404116679045 0.0
4.530800966746534 5.627044171217377 0.0
6.040296145349247 6.603808099703576 0.0
6.162203578696918 6.795213950202512 0.0
5.923135943221574 6.824060069869489 0.0
6.046693245732212 7.010423490915212 0.0
6.297337598588478 6.979895528204233 0.0
7.760448385794147 0.7294020304851334 0.0
8.492228348169641 6.958778476405878 0.0
2.89219822877093 1.704113597264478 0.0
2.26178643438086 1.7814602252425 0.0
9.726968895980871 6.009547057102511 0.0
6.63195110828313 0.6072886418835157 0.0
7.984023036954866 7.515675826210831 0.0
7.893857204140559 7.681876703427663 0.0
7.778465117872411 7.537836322197895 0.0
7.998204230811618 7.844922503023499 0.0
7.798554315988981 7.858161805718108 0.0
7.917846202023782 8.03040048103727 0.0
8.547520504556728 2.721261126162116 0.0
8.39253850806587 2.732073315877738 0.0
8.306047241032278 2.59069854402512 0.0
8.233011054235162 2.739783364361515 0.0
8.318836035587811 2.879838477099622 0.0
8.159530874574331 2.888511553151382 0.0
8.245490421394788 3.024568439743106 0.0
9.759103003747676 3.077839427881478 0.0
8.083610090773394 3.033523757291178 0.0
8.174562583800352 3.166768504406541 0.0
6.046769434852523 1.155662270344939 0.0
6.968371001421964 2.176347877216873 0.0
8.324858098380334 3.152966249334499 0.0
8.145556596142626 2.609897633546475 0.0
8.970652052821418 7.804556541250797 0.0
9.033737629244714 7.681328986528639 0.0
9.62347010002576 4.796939565664328 0.0
9.72520380348743 4.790261082613535 0.0
4.882631186210167 5.455006233451049 0.0
4.618356368594037 3.933076284395493 0.0
4.748083507220199 4.151025177732873 0.0
4.641724290430313 4.358202249373887 0.0
4.87055838101999 4.337900676660481 0.0
4.974114446887331 4.149149057174687 0.0
5.081577844806959 4.3240148266423 0.0
5.179521650033781 4.148725180298481 0.0
5.276261408871418 4.316673822529601 0.0
5.369189110897883 4.148362797753505 0.0
5.463892033849439 4.338819369807593 0.0
5.550828466075906 4.146274465971151 0.0
5.646554822352869 4.303571429647391 0.0
5.728109623160046 4.138582010823754 0.0
5.821689108984419 4.291959598724587 0.0
5.906082534948073 4.141649907302701 0.0
5.99655838673762 4.288752711512514 0.0
6.077312859438928 4.141011188943332 0.0
6.164215275138099 4.281164574562373 0.0
6.241782344986693 4.140701084167517 0.0
6.324316420613108 4.277393447415522 0.0
6.40284165425941 4.140026953305852 0.0
6.483655157361099 4.273418937894759 0.0
6.561170698911611 4.136221843106807 0.0
6.63512300179586 4.269917278694155 0.0
6.720306110251473 4.133393659385058 0.0
6.63777078218551 3.99617001426095 0.0
6.802492763973074 3.994355399489989 0.0
6.798834760478153 4.276914787769972 0.0
6.15377608509923 4.000134206628027 0.0
6.548727135071258 4.400510710520637 0.0
6.251479300130713 4.421887359316258 0.0
5.275876048175579 3.979624500657822 0.0
5.910905077162284 4.431174408784691 0.0
6.717070288412452 3.851239795555301 0.0
6.883499045994213 3.852555480300214 0.0
6.96664848901999 3.994033961856844 0.0
7.048208567116626 3.854750001965969 0.0
5.810004974283072 3.982497501655442 0.0
5.586615391658107 4.471070246359201 0.0
6.547331954052155 3.853872077215347 0.0
5.179081233207816 4.485638492900557 0.0
7.126615227065496 3.995337770596979 0.0
7.209459742762513 3.856893463870469 0.0
7.130226097876905 3.713620439679428 0.0
6.63075064074106 3.699684148676045 0.0
6.446985573861992 3.697358756862005 0.0
7.043151422977365 4.131713936060725 0.0
7.198322215260019 4.129850614748363 0.0
7.119378405252723 4.26005098890218 0.0
4.797146270976422 4.525762781577414 0.0
4.608329098388589 4.573584257851931 0.0
7.294442092743627 3.720853338661503 0.0
7.215753312764997 3.571378507508807 0.0
7.049631633956289 3.568047985538775 0.0
7.133765707749521 3.414282375958479 0.0
9.755079417839903 5.539705890434435 0.0
9.698955703441971 5.450920012703194 0.0
9.717604099406742 9.09084770432896 0.0
9.276716006673976 5.847248422342224 0.0
9.339081208926798 5.941174203394446 0.0
9.031261921742963 3.750271483819014 0.0
9.08721978689863 3.853416037308712 0.0
4.801461566647803 7.510704110489921 0.0
8.206553504932042 5.818005960412773 0.0
7.362361315389098 3.863102442315545 0.0
9.492826845316191 2.963845037486267 0.0
9.376710375304633 2.97229517374228 0.0
9.3192743723601 3.070687802230453 0.0
7.915389082113898 6.293241865913004 0.0
6.735006382384437 5.832450056405368 0.0
8.456481836836168 4.35369289249905 0.0
8.517718268476031 4.246675068616396 0.0
5.583512022030555 5.411069060406398 0.0
5.73625200174779 5.422617752052123 0.0
5.81006929286229 5.548584937688919 0.0
5.903438861894402 5.420604003204523 0.0
5.43801870974416 5.402925156167655 0.0
7.022641548594327 5.825217331839047 0.0
7.165095795605366 5.826005223633447 0.0
7.223078558430726 5.690146755650336 0.0
7.841396000338385 4.586693006493787 0.0
7.904793170875705 4.690826189066096 0.0
7.785999820520073 4.696719777099973 0.0
7.846448506395101 4.798518978096564 0.0
7.728149182067156 4.803800941124008 0.0
7.788983823826226 4.904802634695232 0.0
7.672018889153144 4.910077510508749 0.0
7.731996012352178 5.014717724244488 0.0
7.852072803124419 5.00743796185411 0.0
7.779278698005006 5.118909346425974 0.0
8.088113864063853 5.605434545811022 0.0
8.016457362785575 5.494849890158723 0.0
8.072290383394757 5.385594956317259 0.0
7.95068657972964 5.38825563681957 0.0
8.309366678475389 1.438342408757099 0.0
9.748160780780179 1.447794693754379 0.0
9.696454228162398 1.337889922375316 0.0
9.568813761940916 1.329560834053294 0.0
9.638326779791626 1.226729570935787 0.0
8.472132467407484 5.182856496818138 0.0
8.066211547412054 6.53691730655352 0.0
8.217035586462373 6.522976700918602 0.0
3.544839338670893 3.324491119989469 0.0
6.999740002965287 5.347729916247808 0.0
6.874544698914502 5.347027470386579 0.0
4.880451234715014 5.193043717957879 0.0
9.104510033763066 9.313204713465637 0.0
9.0466357104558 9.45359399494339 0.0
9.146803165140184 9.569652364413551 0.0
8.134107047896672 0.5527712356100052 0.0
8.369770412730738 0.5571215815175228 0.0
8.47386979744655 0.7564607169846485 0.0
8.585193608569258 0.5749174254532757 0.0
8.683868132726584 0.75505070091701 0.0
8.787381435061018 0.5813987798627239 0.0
8.697570280442534 0.3771156480326233 0.0
8.530048434259976 5.077280516000916 0.0
7.995091351438729 2.90367515012593 0.0
9.731083608815164 1.662638626153251 0.0
7.260488865351954 4.255073962371814 0.0
9.760728358076392 8.990038509880067 0.0
9.716710396257366 8.884160310398862 0.0
8.794627466210242 7.369659405098349 0.0
8.868068657550866 7.515048014893154 0.0
8.702594597629135 7.510501129643432 0.0
5.132320689147051 0.7610757801158905 0.0
9.755852887652699 3.853180024615871 0.0
9.787424819067885 2.757921105725315 0.0
9.731193479931608 0.3736343090103709 0.0
9.796526908308536 0.489684029254899 0.0
8.226019692057042 2.453349105940535 0.0
4.560989821496479 5.428206018250252 0.0
4.348810639659689 5.517048281386008 0.0
8.785190163106925 7.119142251269924 0.0
9.015515413043023 7.464769766852701 0.0
9.754861440190705 3.659036930324926 0.0
9.7543610723378 4.033687839160082 0.0
9.707881226943384 4.127219992296752 0.0
9.52841017383273 8.309020665649431 0.0
9.65186044414544 8.289498614805698 0.0
9.714051275521857 8.173576484362068 0.0
8.209758892476394 8.715513071423135 0.0
8.097084883671858 8.548851201381087 0.0
8.177989947800599 8.367872862579052 0.0
7.974142434808908 8.36779470623567 0.0
8.409012054919861 2.142624252464372 0.0
7.707002321497132 8.039129945341395 0.0
7.574653123518228 7.83895791570255 0.0
9.229858094382692 5.951357214361815 0.0
9.75307989876696 1.229893222503321 0.0
9.715811155868643 1.128779429890018 0.0
9.597960915003707 1.117058287635912 0.0
9.672063923518955 1.020806103150243 0.0
8.99090422125785 9.593878510105375 0.0
8.133165456134304 9.257620998029804 0.0
7.976779931497633 9.420725324095141 0.0
9.77231778617502 7.927819487779705 0.0
7.957213679655531 4.364530256281665 0.0
9.609903116082736 8.403725680286847 0.0
9.724891358972584 8.388392708395173 0.0
9.687487059868507 8.495935345161797 0.0
9.810055520269009 8.494090598382963 0.0
9.755967487162335 8.599790818513082 0.0
9.645698986824481 8.606121319182705 0.0
9.721376049217765 8.699989876681524 0.0
9.773009257015609 4.884557953188837 0.0
9.830105798750992 4.796546393900876 0.0
9.775335108731761 4.686093304257503 0.0
7.455611517737074 3.730099283949135 0.0
8.906943567829634 0.4197477661467797 0.0
8.980613334153533 0.5814185917581446 0.0
9.081059111759728 0.4263421860552371 0.0
9.821654809259165 3.576985724143072 0.0
9.761309244784803 3.4792267780002 0.0
9.763329553045937 9.353068233045157 0.0
4.463051839136694 1.164440352584939 0.0
8.0213168204867 5.283436382300235 0.0
7.89385412333227 5.290429544753158 0.0
5.806940001023414 8.583716119232427 0.0
5.88977793877374 8.96065112858812 0.0
9.177759062826041 8.25539130897928 0.0
9.626582559276994 2.05283181283147 0.0
9.747673294325121 2.064954301745188 0.0
8.775905508647185 6.951821187702613 0.0
2.3581644273991 6.029034686663493 0.0
9.777798009058461 9.548066962498762 0.0
9.737129197219856 9.662299853506903 0.0
9.615080366030512 9.683349544763068 0.0
3.315839678697904 6.042943273456425 0.0
8.915083018115329 7.937748428923896 0.0
9.489832173860055 4.712364754630572 0.0
8.118313727862493 8.013944064029838 0.0
8.902248750797776 7.67372145952523 0.0
8.954075939212636 3.463080912810881 0.0
9.45247551997678 2.133243108303608 0.0
8.311151553157742 8.899233004613622 0.0
3.28672004268868 6.826745674539142 0.0
9.86008383798735 3.468233656255824 0.0
8.389990589860254 1.947086063498656 0.0
7.144231739553659 5.329544660076687 0.0
9.654500729007207 7.743301971143119 0.0
9.761920842881946 7.740144345898896 0.0
9.692820773976567 0.2651585113981998 0.0
9.690951720399688 6.100517071814821 0.0
9.775704281989471 6.077882312279847 0.0
9.823117117198079 4.115168542267924 0.0
9.764391943581737 4.214465954230587 0.0
9.659455011849253 4.218716850797838 0.0
9.713462125022623 4.30742830316693 0.0
9.849638067150842 4.208845651573708 0.0
6.376241713254513 3.858766051594979 0.0
6.274931849158213 3.701528298009006 0.0
7.097780104117746 1.926449727602711 0.0
2.457742027508782 3.810157622192786 0.0
2.963634206580268 3.740748099915693 0.0
5.065585416063965 5.544355730437482 0.0
9.783560252464587 7.566507987677117 0.0
9.825819294611026 7.470942204664841 0.0
9.799976114123012 1.01659516618323 0.0
9.745559590633832 0.9150866860898854 0.0
8.20473400632469 9.495828670767946 0.0
8.784586030320169 2.054461500762216 0.0
8.758471587067168 1.888286802854785 0.0
0.9188935087347281 8.510730800272478 0.0
9.674192026048217 9.20389587377276 0.0
9.796314981283475 9.185916994648775 0.0
7.206882433199502 5.452024361489832 0.0
9.773927048949279 6.334665846819535 0.0
9.830288393591173 6.225300227041885 0.0
8.25177349297509 3.282767705830209 0.0
8.099233469407428 3.304040153764131 0.0
9.607860512870598 4.315652630490023 0.0
9.403674738018715 8.367349042046314 0.0
7.611756786273919 5.018691202305147 0.0
7.549513964643336 4.923310232561835 0.0
9.80986724662116 0.2915868356190958 0.0
0.7757562810577034 3.504187313079081 0.0
7.659562100664981 4.698467529240196 0.0
6.539424975891206 3.541729955691742 0.0
6.717348880400739 3.55221857686142 0.0
6.836337579501807 2.417476958454302 0.0
7.096480496160066 5.959124656438389 0.0
7.189742782777612 4.377051328076039 0.0
7.051723187622053 4.38470822973091 0.0
7.125489805519186 4.497018383456762 0.0
6.994915621927777 4.501504591168814 0.0
7.056755276274058 4.607929817497045 0.0
6.932937068803914 4.613249390039674 0.0
6.86629288290367 4.50541343988659 0.0
6.80427099775847 4.617607827251794 0.0
6.739195362053689 4.511124964201849 0.0
6.677260697693361 4.624288827143181 0.0
6.996760608675822 4.711715831373894 0.0
6.316045249462968 0.6456945497683586 0.0
7.321834163850416 5.816449323512759 0.0
7.833101485370825 4.390058096386987 0.0
4.996572652976738 4.498711166259074 0.0
5.112334577457371 4.663858846723513 0.0
5.271923064784868 4.629759173373871 0.0
4.93773508827367 4.668006487116195 0.0
5.348137647919096 4.485934621930562 0.0
5.413454827497575 4.62999925573761 0.0
5.356581113747675 4.770594395332836 0.0
5.013422223730484 4.793321773780133 0.0
8.58674425943957 0.9312335381466886 0.0
8.776450596582496 0.9362399987293505 0.0
4.783496233934828 9.486061758876032 0.0
4.544176394620909 9.034071856445296 0.0
4.082330493623582 9.015765881393772 0.0
9.820867469965414 7.285959215547852 0.0
9.852697883440127 7.166089674802766 0.0
9.260999083164238 2.971390964911171 0.0
9.197701900169713 3.073162109379564 0.0
9.31960210441945 2.867465579641856 0.0
6.660951583415121 3.383363199709994 0.0
5.210469976037585 4.761678854423166 0.0
6.740780285297665 4.733615686805694 0.0
6.611362405615225 4.731958642073806 0.0
6.549091884465382 4.629620704100811 0.0
6.491761716522486 4.733409494449344 0.0
6.425259228542098 4.640546096196947 0.0
9.715556659367534 2.986725573570596 0.0
3.710524324925069 9.463213827486557 0.0
4.768537031214573 4.727001037865238 0.0
5.039413681704655 5.378508462165627 0.0
5.188746429211535 5.440476671296013 0.0
5.172214816037712 5.298914527247826 0.0
4.469063601436893 3.667917323494335 0.0
3.799121596584382 4.741629285988305 0.0
3.661085664896249 4.442847704416992 0.0
3.316563386321876 4.380147387454913 0.0
3.802087298647255 5.26743535640985 0.0
9.738116341343215 8.047178982429934 0.0
9.85106076399546 8.021725551312715 0.0
9.837581050304836 2.844176011307251 0.0
9.664579962075123 4.402853107737106 0.0
9.76433159763034 4.39807801415352 0.0
9.718924973226878 4.487825491046641 0.0
9.826405563645343 4.494594135148365 0.0
4.931068003413168 6.359330991212394 0.0
5.130175746947236 6.201075257041828 0.0
5.143884286052002 6.445382329515047 0.0
4.953395875296406 6.628748468717369 0.0
7.833019185167153 5.400347121613631 0.0
7.766636138801143 5.313240048256084 0.0
9.767038723422333 4.578090619166644 0.0
7.315369355237483 3.441501197259575 0.0
9.556068971301514 0.2347811136726856 0.0
5.733871280791703 4.444861510772459 0.0
5.828809543126846 4.569791247698539 0.0
5.986701526182213 4.562881783985375 0.0
5.912543327921148 4.692966271273211 0.0
6.052130330528581 4.682477327897978 0.0
5.773525984744635 4.697697018456535 0.0
6.121646311546238 4.572302645403103 0.0
6.182349700936326 4.67713231096357 0.0
5.846371383601797 4.808939734754761 0.0
5.117807918383606 5.974361363083184 0.0
6.256132501905665 4.575863546153224 0.0
6.324770064521816 9.645040261272253 0.0
7.345522892050965 4.12581088034536 0.0
9.338523512844539 4.854480276600515 0.0
9.286984287289403 4.959628690044808 0.0
5.676298026114105 4.589279806918992 0.0
5.631257891894775 4.722749088404111 0.0
7.970415275563177 5.621040275419208 0.0
9.565118337557308 7.081391220827488 0.0
9.626201005045262 6.980441083020495 0.0
9.733729506193331 6.979928568877979 0.0
9.684556253529976 6.887102896543928 0.0
9.780785815410074 6.890287441101827 0.0
9.740054813822885 6.794211367612523 0.0
6.462628988057306 7.629921412015864 0.0
6.692564520952154 7.473594130811262 0.0
6.927983108788191 7.570982428592125 0.0
6.899878641134941 7.329306734748538 0.0
7.117542472438434 7.416951094809493 0.0
7.089537168123128 7.186691566729968 0.0
7.296585396514727 7.275888419524222 0.0
6.879678873774065 7.097443005287856 0.0
7.063454637059129 6.967740076426161 0.0
7.329105042924355 7.496317641003757 0.0
6.867084781778411 6.878842928865059 0.0
7.494278796275744 7.351949197351029 0.0
7.462564159480594 7.150140034494138 0.0
7.644835001206406 7.21506678718646 0.0
6.682478929414216 7.008358327294905 0.0
6.449199855715812 7.365660640952548 0.0
7.548139855358765 7.57299228324251 0.0
7.008502809092701 7.844601794812628 0.0
7.371739019901781 7.707688433423657 0.0
5.665345294602155 5.290628720253272 0.0
3.987583013016546 4.486920698115711 0.0
8.893480480320447 0.7785000884179994 0.0
9.715485963651112 0.5955299613117169 0.0
9.761785841543585 0.7048670948649375 0.0
9.670304314877074 4.578896619304786 0.0
8.058509626083154 5.744161686650483 0.0
6.181795443628869 5.462040811515966 0.0
6.256771804808641 5.338464817889848 0.0
6.124070400983443 5.352376180901929 0.0
6.399679261813415 5.349186390888865 0.0
6.477776305607503 5.46505688468465 0.0
6.541624525938461 5.346017118512589 0.0
6.673064575428321 5.339051516933525 0.0
6.599301548842115 5.241958624987057 0.0
9.573774011620444 0.815274945835158 0.0
5.86493292693426 5.877588788523632 0.0
5.552663040119136 6.957487930464628 0.0
5.535080960199246 6.663033131707637 0.0
3.708603689392072 0.5979254716153909 0.0
3.31896983256719 1.188583855309964 0.0
3.895664898001925 1.128137111173669 0.0
6.363360407965353 6.032416442205533 0.0
9.445959758065749 1.070139246426051 0.0
9.50632172780449 1.214052376665338 0.0
9.441030033980638 1.325047485624912 0.0
9.295799464644857 1.341410624832976 0.0
9.184164107767781 1.461677744200096 0.0
6.407191016756832 4.407273313799791 0.0
5.544591888593027 0.7652641669375747 0.0
7.883090151006535 2.497506182548758 0.0
8.073420508370992 2.120510489750234 0.0
5.494822040671399 4.732314720081375 0.0
0.8986976806403217 1.464611451578306 0.0
9.536325549598013 6.83286654168725 0.0
5.972289519322897 5.727532110854501 0.0
9.82203607053145 9.443411729566549 0.0
7.263199949874008 7.064207941227515 0.0
7.233659553805083 6.853135694774254 0.0
9.793310082768443 7.072747972018893 0.0
6.734168931095253 9.67499220075154 0.0
6.941134861034159 9.382328333169653 0.0
7.285822522704258 9.443989747444657 0.0
6.576263515512108 9.333035011158342 0.0
7.160560566479093 9.127732577621245 0.0
6.218711947378506 9.298064908857533 0.0
6.432383355119106 8.980985203293491 0.0
6.795390278360442 9.046043538032663 0.0
8.54677014121837 0.1957422484480979 0.0
8.528696320820908 9.804850950580938 0.0
8.42644965647489 9.604735484095604 0.0
8.010239224104339 9.715048083583248 0.0
8.644359648763341 9.628432815860457 0.0
5.344212921686536 5.526744195650314 0.0
9.760936589662048 7.38409687515441 0.0
9.128187788393989 0.1445485608215519 0.0
9.133307661752394 9.854833215426817 0.0
4.867351616228264 3.944459575003425 0.0
5.905323253270366 7.385600364255367 0.0
5.909045412185362 3.361969954191194 0.0
5.80580919758911 3.569999290452344 0.0
5.578230704221431 3.587842862412673 0.0
6.013352753603037 3.550699073477782 0.0
5.936624955014758 3.721630401607248 0.0
5.735413275357409 3.78528948606432 0.0
5.512538847486775 3.794760621907932 0.0
5.360571639388366 3.618649018042938 0.0
5.134141179590394 3.459385929220745 0.0
6.167399567008798 3.367365990358096 0.0
9.766756262206602 8.291756450136036 0.0
5.486063578307141 9.64505925252771 0.0
9.497624614180321 4.328873442170357 0.0
9.811387324954623 1.570516917365688 0.0
9.389210081887331 4.69150887571586 0.0
9.704395728912932 3.754226393630331 0.0
9.808172776193384 3.748784464356272 0.0
6.549660911932182 4.839747932361234 0.0
6.757415124099031 6.077939876843736 0.0
3.805578542126494 8.040840085419626 0.0
4.232580149691158 8.198659880701744 0.0
4.559765382564095 7.87091698350757 0.0
8.3829075948167 0.9495097054886067 0.0
9.8571301061408 1.456307792614791 0.0
2.005900212453279 4.535525273813588 0.0
1.85904408608185 3.956445706785572 0.0
1.979307922430775 5.474327285927505 0.0
4.387923194305381 4.427191306527721 0.0
9.429258370703248 8.873693567695483 0.0
8.99196583083892 4.664567567015693 0.0
3.050357122593155 5.368999067452741 0.0
2.861107385476722 5.785089447130829 0.0
5.005058958272409 3.711196438448062 0.0
9.8972295764837 2.755337284632969 0.0
9.581048890980513 8.853909321617065 0.0
9.668838904423916 1.762418716497425 0.0
9.716576458425756 1.852218615166234 0.0
9.799043132681442 1.780583141193779 0.0
7.661868217848455 2.880323287492419 0.0
6.780136552904057 5.443858690999834 0.0
6.489544866845868 5.913957888434588 0.0
6.880149522020364 4.134257616716107 0.0
6.970134365280068 4.264072319341612 0.0
2.225481516813409 9.348422240784 0.0
1.843418032490818 8.641605249943353 0.0
2.198000805242772 0.6459947140825729 0.0
8.740020306282506 0.1903932731609072 0.0
6.86957996016679 4.720776242956433 0.0
7.430920333506809 0.2702852342693345 0.0
7.302066064947383 0.6134316505458445 0.0
9.305398039877746 4.64854361125207 0.0
4.078151380865065 5.203425462519088 0.0
4.080704120371218 4.778853303303787 0.0
8.052525541571825 5.965483159581719 0.0
6.367194027835946 4.754896037842673 0.0
8.604191121620719 7.648182513679963 0.0
9.546446695207845 9.234701521982952 0.0
9.018652854946867 3.351011585453845 0.0
9.143853648154607 3.350173119015413 0.0
9.067079866763024 3.245174561579149 0.0
8.991492136849105 3.135578770028028 0.0
9.29603967712795 0.1426516429033488 0.0
9.392428271030795 0.2506306237151588 0.0
9.223973843394301 0.2912279164401488 0.0
8.39375191941536 3.018777714002827 0.0
8.4836475746111 2.88135207267795 0.0
8.741089053946197 9.821127577434911 0.0
9.803966507713174 5.448064463539533 0.0
9.748132240148552 5.359371181503531 0.0
9.850258990973547 5.355211921626304 0.0
9.7965346514158 5.266762244994661 0.0
9.84142096963129 5.171050273734619 0.0
9.738843612428232 5.167483913244169 0.0
9.64168976006725 5.359875132194057 0.0
3.335917453809221 5.671837672982919 0.0
6.962669142802881 1.683222554707996 0.0
7.365210844496719 1.887492842536114 0.0
7.517378971174123 1.677983072937792 0.0
8.00383870208024 6.089394601875145 0.0
1.725435941000569 2.759295503019395 0.0
7.907977929549089 5.102827208603365 0.0
8.052861051278896 0.2683271125209605 0.0
9.80169732768395 3.385443381464333 0.0
9.831597648680848 3.28491948963525 0.0
9.736335895866404 3.316207814499244 0.0
9.597256128490281 3.756160701977744 0.0
8.865819925321706 3.366235906378775 0.0
8.489614436807788 1.757152185195495 0.0
8.88089641144391 1.078983279100314 0.0
7.430923851187758 9.724389499796425 0.0
7.584252919312249 9.509430586267927 0.0
9.744026095940516 2.247117754488748 0.0
9.729961521243718 2.659836747108116 0.0
9.790866569780063 2.558993767350471 0.0
9.736606445116795 2.455104424879619 0.0
9.846806182714698 2.452157456754448 0.0
4.518102112052724 5.141350889745285 0.0
4.519880229178207 4.85678334497067 0.0
9.7302407894617 6.434012603549242 0.0
9.787537474544765 6.523591663056312 0.0
9.744262337067932 6.617499601377625 0.0
9.8406238811518 6.41591236129004 0.0
8.914967252734657 3.579360039684312 0.0
9.154797282599406 5.670753066089419 0.0
4.228839454580575 4.612979739018002 0.0
6.095037541675208 4.42126627187728 0.0
9.304166983880842 9.864854494751789 0.0
9.406445527105628 9.759007358529582 0.0
9.256225114941945 9.700832989525724 0.0
9.796206564635622 2.351215649506205 0.0
9.849373673349081 2.25090453834006 0.0
6.332048155295931 3.511675163099286 0.0
9.069679774213784 3.022879178706259 0.0
9.070599961450037 9.055284879641471 0.0
1.808685691036764 6.331557276533421 0.0
7.120156826652838 4.698481230214924 0.0
7.052894345811342 4.799848851879358 0.0
4.739957520484086 5.369107149361242 0.0
9.389197839958292 7.197139943834638 0.0
9.046688232613976 4.560364044038737 0.0
9.162685461967492 4.562194096410666 0.0
4.227377821420887 1.564128177298305 0.0
9.201090975245227 2.794301402811909 0.0
9.251941624303948 2.677556975242327 0.0
9.186758273070138 2.563916005021366 0.0
9.317609833868786 2.560335260954038 0.0
6.57599191748324 2.437689779955877 0.0
6.305556560534859 2.459112595979303 0.0
6.981058048792093 2.642476994448363 0.0
9.886113463139504 6.510498309609482 0.0
9.250462794607717 6.221362629571698 0.0
9.305373999084068 6.108271307139882 0.0
9.390477915810829 6.228015172491477 0.0
9.44452571968143 6.114582165110393 0.0
9.502105740270528 6.197677857389309 0.0
9.31559697209813 6.331647407124485 0.0
9.370938253597153 6.437386206819511 0.0
9.594764406124872 0.1099001288712305 0.0
9.602872681151728 9.894988341116305 0.0
9.622661196143387 8.076680696281343 0.0
9.769069277144705 5.9102532189237 0.0
2.615076109785583 8.807551523115547 0.0
9.658920005405456 5.730890135691177 0.0
9.76063135061807 5.720703211793342 0.0
8.63963723169499 7.177334225227945 0.0
7.841904391869763 6.41346852896409 0.0
7.764520718520185 6.297267738834625 0.0
9.546492996136271 3.465225175657335 0.0
9.25600964352143 2.219157062786616 0.0
7.625057159226293 7.012987957636062 0.0
9.529121062829038 7.730283486008674 0.0
8.329887090625894 3.845190321147069 0.0
8.265841850823831 3.95687001944245 0.0
8.402006523775544 3.947660780406651 0.0
8.128436391670505 3.968543393650448 0.0
8.46705122470662 3.835767362024195 0.0
8.218867047074696 4.063481375518748 0.0
8.089763413611255 4.08062363292928 0.0
7.939578083855268 4.111915744184436 0.0
3.74991304509639 6.615676756107112 0.0
2.627714335615619 1.170993030860914 0.0
7.046129971268607 6.759930788612616 0.0
8.534603732661887 7.486325780553722 0.0
1.569381386467569 2.042794535871475 0.0
6.228703743210918 1.986421863690014 0.0
6.467030855792859 2.67190498312861 0.0
9.272246093269825 1.975478263632296 0.0
8.05269609263041 3.854522845257449 0.0
8.008595521536957 3.177870309354594 0.0
7.929796740504207 3.350600835935766 0.0
8.048703574664067 3.449582532910417 0.0
9.72947480375618 4.973926800124758 0.0
9.784850360535604 5.072865219810449 0.0
9.896036387646596 5.069261557893528 0.0
9.633140953203334 5.168645132864771 0.0
9.558102991128836 7.602453108835212 0.0
7.278758746505716 3.994295887299482 0.0
8.306681733482405 6.936428510427854 0.0
9.487163072013963 3.757777670075558 0.0
9.532950522284125 5.359403698944497 0.0
9.816036650072329 3.927268437107025 0.0
6.173882586235392 8.734645960664665 0.0
7.972518459433741 5.003005338485466 0.0
8.398453459336153 1.601072016988848 0.0
8.97460527296194 4.040886705742754 0.0
9.037941657530773 4.143578781749325 0.0
8.849604200183613 3.828506169652706 0.0
9.545296177100065 4.042698359132156 0.0
8.595941796785514 5.806754902023664 0.0
8.65588412428292 5.694192853853139 0.0
8.723710665131787 5.801528918332044 0.0
6.861288985046249 6.673713222735126 0.0
8.87477249219366 4.664500928777609 0.0
8.72385765226959 3.608276264790996 0.0
7.145228858696953 5.573648565429618 0.0
7.282945121585866 5.558559688509987 0.0
9.224761401603633 1.602363370249125 0.0
9.609115686587552 2.986868833620756 0.0
9.633989947851914 6.628120633848649 0.0
6.046214325132457 5.45615093027661 0.0
9.017014346798927 5.271996636983457 0.0
9.070824864071271 5.168510834798647 0.0
9.189021391555556 5.166867900487267 0.0
9.123328759137758 5.064718588163964 0.0
9.240587446378079 5.06459430516883 0.0
9.250848280531756 5.267364371053135 0.0
5.773050603406019 5.7192906317521 0.0
8.576466432793914 4.3559007860436 0.0
8.634627802680399 4.253467736542067 0.0
8.461790117175607 5.591735227444779 0.0
8.907610717370224 3.713397213891439 0.0
9.80665594564509 5.628066492225966 0.0
8.985935132601089 4.455263493464225 0.0
9.00640209566022 5.067597672073404 0.0
9.833659276096986 6.976519563917422 0.0
8.0283368553477 4.687271895436317 0.0
8.326580191759327 9.127498457128247 0.0
8.650637373791266 5.07513089931925 0.0
8.701067313435203 2.700069743477523 0.0
4.825307249916392 4.884175191874744 0.0
9.418335984190309 6.858444798015129 0.0
3.91434687300816 8.542956908935874 0.0
5.569239724399552 2.064135034637056 0.0
5.234271567762738 2.128974435011933 0.0
5.757920427527626 2.312422707096966 0.0
5.43365689737979 2.427455772745759 0.0
5.673210219624612 2.602111218343444 0.0
7.214258468265766 6.652783071431555 0.0
9.823626269633962 4.30685540664529 0.0
7.96996639420014 4.794005510174826 0.0
7.616003332725032 0.502676560965646 0.0
3.050634530589821 4.659174799474146 0.0
2.870894249800723 4.246924313393336 0.0
5.285393339952368 6.079037173753393 0.0
9.439954241218905 4.23581687956071 0.0
9.67709722097145 4.710772408106511 0.0
7.40767785509217 4.259947873553335 0.0
8.396202587439676 5.486075637998701 0.0
8.323689688705493 5.372061002264632 0.0
8.191312386254125 5.384662546230823 0.0
5.304380054816289 5.369675374029755 0.0
9.093848379546637 4.047647920840374 0.0
7.916313220758624 3.045043876114836 0.0
8.435854831444637 4.144861908356168 0.0
9.060262453079693 0.7340576053322918 0.0
7.053195520344596 5.238809779682351 0.0
9.621762679347093 2.45205452967588 0.0
8.410730269104743 5.287995309529392 0.0
9.655094569234972 3.472720279371932 0.0
7.982140513923982 6.667914768024983 0.0
8.402690325256646 4.883576657130221 0.0
9.17488654147479 4.962006474835693 0.0
9.013188196102961 8.49700148123058 0.0
9.795977244531603 2.156818021002043 0.0
9.893813711206834 9.545820400859157 0.0
7.965349232662289 4.250048884270795 0.0
8.644264557989125 4.874751532150782 0.0
8.215430976121077 1.26077208565765 0.0
8.379717637669398 8.37324652769609 0.0
9.320026533461409 5.559861899725609 0.0
7.885778178744864 0.4977439426642278 0.0
7.547066983926719 5.125166613071239 0.0
7.657542898944819 5.122996245335209 0.0
7.423918840193691 9.000935553397358 0.0
9.854133000712425 5.541931969512857 0.0
9.328508174398952 2.101486405523264 0.0
9.300749600926641 9.530012105354274 0.0
8.130307182491519 5.277079344947874 0.0
8.346752967392757 4.987627363826086 0.0
9.118404185029991 6.007087846617186 0.0
9.048232213728614 5.89431792713258 0.0
9.088340967655858 5.576242562571367 0.0
8.094762487139027 4.789727191449318 0.0
9.915265904493378 5.749591413470928 0.0
9.92169805280126 6.154216704502091 0.0
9.918022441582268 4.549125436287157 0.0
9.919332362905616 4.849536560132457 0.0
9.914800786693318 6.750595509794719 0.0
9.811792900437824 6.703950687575952 0.0
9.900643083988882 3.749855087409844 0.0
9.912423171222734 3.043228996968949 0.0
9.91892875832665 5.949999999993851 0.0
9.913300070218703 3.960831593817277 0.0
7.709347001661226 4.444236534782706 0.0
7.479443107717332 8.071637285053104 0.0
8.839057072155848 6.807845119358974 0.0
8.972330068019902 6.78765448182788 0.0
8.542093772125282 3.941452413628317 0.0
8.279144752968262 5.930387616620717 0.0
9.393455876855919 4.973162505621418 0.0
9.507123333872533 2.855087674515822 0.0
8.77504684283825 2.317347145885344 0.0
8.394133129040345 4.464046960801843 0.0
5.725509852450801 8.210843960481027 0.0
5.62632390239664 3.967637659758752 0.0
7.910815814627989 4.900765971697654 0.0
8.595808444085467 5.590040244353608 0.0
9.705160502006024 0.8106158419444889 0.0
9.82021247904746 0.808810893177099 0.0
9.218352146075844 4.447736986422823 0.0
9.20781892622228 3.858281726888132 0.0
8.713609974387523 5.178241668554946 0.0
3.55755059259364 8.921522400238844 0.0
9.59122926011489 5.452844834281716 0.0
9.70565100407009 9.77887811062354 0.0
9.826938454219809 9.74303055702321 0.0
7.238962096855633 3.278078153406256 0.0
8.575609105166194 4.567807831727537 0.0
8.936449841121737 4.765835458965493 0.0
5.59323463391086 9.248527978398117 0.0
5.280809113285124 4.886132326418428 0.0
9.328132730893216 6.544753806716806 0.0
9.026944889277736 6.67247283515637 0.0
9.81946239021469 3.007926663525007 0.0
8.677633568960493 6.144049349297466 0.0
8.33427489656924 4.571212803519522 0.0
8.55734024448315 6.382535186588269 0.0
8.692399379422756 6.372347713955898 0.0
8.495817478252626 6.503308565233578 0.0
9.905494734661673 2.544078755559835 0.0
6.177101405266569 7.228490244483556 0.0
9.825373011845263 5.807482724503027 0.0
9.808678508609606 8.118683092442964 0.0
8.397717712407108 7.08010313863416 0.0
7.428555529689225 4.935946611338556 0.0
9.575504958128711 6.125633853639113 0.0
9.154066996197898 4.146562596982661 0.0
8.074381802159323 4.337569667261167 0.0
7.018337246891919 8.843475095716133 0.0
7.970627172560641 2.658650028065857 0.0
7.382546388883145 6.723381543491632 0.0
6.822972334933889 4.884555620881615 0.0
8.343732976791593 6.041576709398377 0.0
7.743680217306919 8.423336160305476 0.0
8.505717922983454 1.115022897794028 0.0
9.113973198216474 6.992972408167606 0.0
5.818882632841168 5.300437503812764 0.0
5.951991891717714 5.279516346785062 0.0
9.450183479138845 5.92934813870612 0.0
8.783346541536119 5.48419035750989 0.0
9.38074895894124 5.65076274999803 0.0
9.513658728876734 7.193620441323493 0.0
6.396040948797887 6.776064256962667 0.0
5.389661780244388 4.89715084345563 0.0
4.473247649068957 5.85935163892416 0.0
9.249586607512612 8.37680799459232 0.0
9.103796366487646 8.379197231055114 0.0
6.274057301184156 4.87985402946409 0.0
9.259628836118232 3.561431822636308 0.0
4.037922477011971 5.489409780163391 0.0
5.62712958624254 4.893925433488392 0.0
8.806426003347967 6.133410188141932 0.0
9.53304466499349 9.59279975429444 0.0
9.542890959420024 1.966631379116419 0.0
7.459736176874619 5.863847835420528 0.0
5.937613117200432 4.89232797168023 0.0
6.171611131472617 4.879541833448487 0.0
6.100695199816815 2.291172318314745 0.0
2.315194906726768 8.081958163666464 0.0
6.878489987598286 5.148099521847569 0.0
9.105264414399338 8.639184652727645 0.0
9.20047261316883 3.457820810661327 0.0
9.895329010385955 7.55944047105717 0.0
9.912742873006831 7.76210330502246 0.0
9.37761459375249 3.168397068877758 0.0
8.946121261512507 6.345629828835438 0.0
9.918632496443566 4.449809517365367 0.0
6.848211525651934 5.945010613369067 0.0
9.915721525903255 2.047407395915179 0.0
6.117255841708726 5.163321965161054 0.0
7.276595248786602 5.347247322210079 0.0
6.32682869954104 5.23674259421017 0.0
8.785886448438022 5.692775375342819 0.0
9.099994401883361 6.776698531382792 0.0
9.913397459621638 0.2499999999998165 0.0
9.910352525643928 0.4481571029410266 0.0
9.907850422008579 0.5479735220323012 0.0
9.911983631350465 9.24778487019403 0.0
9.917634740384067 0.7514684821956668 0.0
9.195214232985496 3.254172408378337 0.0
5.000896927376288 1.846006038077654 0.0
9.917172478547403 8.250155740683276 0.0
9.908120476950126 1.742986232208194 0.0
9.914524635720774 1.949567899316728 0.0
9.907358878377153 9.145625165175748 0.0
9.917695944922635 8.949999999998397 0.0
7.648387553139914 5.325741673607362 0.0
9.605343588986079 4.130627398479715 0.0
6.648113233057817 6.774798386229164 0.0
9.910347203087213 8.446729917003672 0.0
9.913623694530468 8.548470085896316 0.0
9.9201245863254 1.536225488581779 0.0
9.906538426683255 1.059019360781604 0.0
9.912867352010919 8.74999999999809 0.0
9.799662981388353 8.79550485462418 0.0
9.831828680383174 5.99966894118311 0.0
9.91414179906643 1.263025320602998 0.0
9.920690092699912 7.240982963665807 0.0
9.385889285950551 2.235126904097426 0.0
9.28133998925606 8.00415195851526 0.0
9.817074723108401 3.172398890123306 0.0
9.482030285089927 7.512954023388035 0.0
6.682432918504054 7.233889573028878 0.0
8.528699633246763 3.260502457553277 0.0
8.91699963742029 2.327016692708648 0.0
9.267676068834481 3.954520684561369 0.0
8.70811637467455 4.974101624783084 0.0
8.18184214270768 7.816666208279135 0.0
9.690393137288163 5.264344933127836 0.0
6.937111790104696 5.245184991960528 0.0
5.895846026722989 5.174232967273284 0.0
8.281683356622615 6.400073017261236 0.0
9.150883172924027 7.444273543454419 0.0
5.430406600793122 3.390815886517273 0.0
5.049583827974758 5.697634876048387 0.0
8.3966710383105 3.495813899905868 0.0
9.007538428392454 8.046563579784266 0.0
4.645155158868719 2.637132843684674 0.0
4.887444326771336 2.30020425915506 0.0
6.483736782775559 4.522536327482678 0.0
7.843169154548308 8.2116075844056 0.0
5.06295551628385 4.901632590583318 0.0
7.201400991012747 5.138239336380897 0.0
8.519791031104612 8.848807089071627 0.0
8.658623737989732 3.031313729049854 0.0
7.585566208322493 3.629882964874684 0.0
8.411818469596405 6.834326722716643 0.0
9.172363528634236 7.669230647622864 0.0
8.85455683341768 2.682483055215344 0.0
9.359398739738925 1.631421337140716 0.0
9.071793864444992 7.337030604117359 0.0
6.968394563521436 3.712808894519514 0.0
7.899236117684646 7.094583340182754 0.0
9.54362864504834 9.781852543872333 0.0
7.151298729743687 7.644795130415299 0.0
5.452218361466201 5.186873761308322 0.0
5.517642289161902 5.293540933999446 0.0
7.802500357665464 5.978295671754199 0.0
6.594850839687122 8.491429270558893 0.0
6.029132431949566 8.294997405201931 0.0
9.31286590869111 0.5672913838331921 0.0
9.25238720319541 0.4415953739444106 0.0
9.550589523211062 4.228044955453704 0.0
8.748611832783206 6.250900951984038 0.0
7.566980108995873 3.995148257893202 0.0
7.426142759241261 3.996743578498081 0.0
6.478912513785404 4.000296412419969 0.0
9.30435638148753 5.168210982711592 0.0
7.542154188520517 5.752525075248498 0.0
7.219033852073297 2.139582470800704 0.0
7.370913620388047 6.545121498197235 0.0
5.226731036024996 5.187572666585561 0.0
8.515591031124366 4.462223215179979 0.0
6.762864307079274 0.3078036604979366 0.0
8.587432696997471 4.977010533175154 0.0
8.703948448756302 8.815629076400704 0.0
8.081003990931544 7.370949680119862 0.0
7.424404567669909 6.949730915714445 0.0
8.578903262311433 8.377992954045473 0.0
7.301258690263783 6.106184350645308 0.0
5.991600556904204 3.99820087171043 0.0
8.203048538477193 1.601044215405025 0.0
7.289972483120081 4.572350254111052 0.0
7.714697186439165 5.420586967696794 0.0
8.918853780709807 1.841796898567452 0.0
9.919941345877513 4.749808449067644 0.0
7.245589454939737 5.94251251443003 0.0
9.258480524497795 3.358952871140391 0.0
3.705877615124628 5.574038727593425 0.0
8.287096858129765 7.962370605242409 0.0
6.799629860952143 3.705385600481528 0.0
4.146753450763018 6.544154457143895 0.0
7.413973555029582 5.545687501585183 0.0
8.466524978378082 4.980481756569235 0.0
7.336312153537934 2.337983522449311 0.0
7.695505222753409 3.747498713679684 0.0
4.898236813123799 4.795853653580084 0.0
4.59779105899602 1.896916774247134 0.0
8.560170375862322 7.072369101894893 0.0
8.386150468360862 2.449771437140704 0.0
8.41200018115259 5.084601315536367 0.0
5.102189912301071 7.621598618277815 0.0
8.336320418935243 6.71651223072348 0.0
5.081745734883095 3.977838926197614 0.0
7.63590698378166 0.9500570055008507 0.0
7.743369677149255 3.051233984704873 0.0
5.357527459690566 0.3809996753407537 0.0
5.967373112873382 0.7731113464301924 0.0
8.169449265206127 6.666271947462212 0.0
5.95122726745053 5.55758205410881 0.0
9.922289489207834 3.53923011719877 0.0
9.39154684476555 2.659037023454942 0.0
7.701415639167884 7.690060291860976 0.0
9.819179654793023 1.329863870021845 0.0
8.358229579054417 6.506108206863729 0.0
9.269720555169467 5.657096143475924 0.0
4.473187658045934 7.435037860084884 0.0
9.65807158077373 3.255496360750368 0.0
9.605155446454205 8.713645566904637 0.0
7.097383547728313 5.141197376985936 0.0
9.812212483832656 1.89920712759492 0.0
9.83875570675407 6.81603549325055 0.0
8.926246869879279 2.079976511571457 0.0
9.166785856141402 9.169070814302419 0.0
8.763479010228052 1.587152667342957 0.0
5.957377924852992 6.404530806530254 0.0
7.14506854375872 6.10342416684208 0.0
5.672595070581394 5.164323323112049 0.0
4.899782787268781 0.3801727265981219 0.0
4.447133848117348 4.673614099606824 0.0
7.044865074789195 3.253639989243549 0.0
9.818461337102992 7.819456450952447 0.0
9.925334577033155 7.954012377173311 0.0
6.352907898232792 1.173665225954276 0.0
7.351721385581032 5.660361289755705 0.0
9.337367583861807 2.76534436379692 0.0
8.693118347802024 4.360254099729149 0.0
9.476812970101324 0.3524826622168163 0.0
7.109868985890334 0.9024224571333925 0.0
7.899106846231403 5.511805431542581 0.0
8.352799544476607 5.187887629361129 0.0
6.957483547582747 0.6176251309213842 0.0
8.099559500483094 1.412323841044818 0.0
9.913030944540278 0.8542404645334569 0.0
9.143075088381442 8.022165366829135 0.0
8.819861450593166 6.356592599428041 0.0
9.319444417409162 1.49938505915629 0.0
6.490262520326714 7.118204362551877 0.0
6.490874470087819 6.582907761235813 0.0
9.82506653058937 0.6146757679104559 0.0
6.803129818897624 4.419048038171804 0.0
9.840901379354312 0.08198751964190581 0.0
9.839740374244226 9.918356239418472 0.0
8.551927134544655 9.449788917425456 0.0
9.92097857388158 3.249999999993177 0.0
5.797087413057367 7.077351493358238 0.0
9.255412859987286 6.433984412022419 0.0
8.668174522249984 1.740767926084485 0.0
9.920991430240607 6.25262219124529 0.0
7.57275248448898 1.94367954756322 0.0
8.052865444445507 8.19900054463639 0.0
8.748697149245206 4.25201068974208 0.0
9.158270227735827 0.5542256343091421 0.0
5.997487767477439 4.787924707603557 0.0
6.119759900601896 4.78043793682227 0.0
4.353034750397793 8.619182743639561 0.0
8.721093521611476 5.588932824583312 0.0
5.717101151444983 1.123034066822819 0.0
9.825602081347064 8.68753399402474 0.0
8.005502510832988 8.7824052910506 0.0
5.548184234622668 6.408009287230429 0.0
5.77830300433981 6.598697187164234 0.0
9.613093825495433 4.50282172481406 0.0
9.928981132641653 9.74928475696928 0.0
6.613628176297015 4.515513362596662 0.0
1.822126723816303 1.297795131355289 0.0
9.514164594137375 1.43081427463862 0.0
4.735494753432723 3.698541604583975 0.0
9.52844959749262 8.615213629960298 0.0
4.660704511759056 0.7947595073298008 0.0
6.82340845160293 5.239926830264399 0.0
7.885938077030673 7.380147032865134 0.0
7.884599891021201 6.09005968568029 0.0
8.846834820720167 9.653276456345532 0.0
8.457777199486827 0.3851010632068662 0.0
6.66485224572131 8.771510767670392 0.0
9.091499342133352 9.708315832477556 0.0
9.824286725109655 4.976315293637262 0.0
7.848197684391786 5.632217046637356 0.0
3.88430598115417 4.225391362015386 0.0
8.776890759183289 2.809688928468134 0.0
7.393884285023409 3.59397875231041 0.0
6.927568893329758 4.396788356869783 0.0
4.96854327720728 2.662368428358774 0.0
9.1480130720193 3.951479613991279 0.0
7.071049729490975 2.38092990636632 0.0
3.40193058782919 1.686321186206593 0.0
7.612042194200681 4.815904436723407 0.0
9.043395868401339 6.888481825015849 0.0
9.098933057562759 8.152197681006806 0.0
6.058682303253315 3.857501492181965 0.0
3.707092669281355 2.986685502034343 0.0
5.113272509841263 5.189455016444592 0.0
6.960565857079232 3.416349532571279 0.0
8.755151527375476 7.649255597361291 0.0
3.393680865444538 3.679982303262531 0.0
3.117424600120088 3.35605258976247 0.0
8.530814041264104 5.488376426140491 0.0
4.820719767306654 5.106646490188182 0.0
9.918899263509473 4.144927088739744 0.0
9.918194630017027 7.447268230913605 0.0
8.461970084137805 3.144844565847669 0.0
9.924415919486059 6.949999999995354 0.0
7.184050152099684 2.72771667662237 0.0
8.834356715215904 7.801565642745232 0.0
8.689015446783005 4.145232831954543 0.0
8.490778532265319 8.234414357968106 0.0
8.63666290918932 2.83060276219705 0.0
4.61028976098935 4.741894230894578 0.0
6.314735925012879 4.003132559161639 0.0
9.20786580425652 4.67001723737971 0.0
7.141401229301469 4.873205425098625 0.0
6.235177809922153 4.774126344778935 0.0
9.12491895896937 3.145675090615719 0.0
9.255747684068178 3.162525801823036 0.0
8.312852272796098 2.290855459722148 0.0
1.449266720542303 3.363629101350872 0.0
9.525687840398492 4.800807314407045 0.0
4.829905263804087 8.14474456977717 0.0
9.09338914689732 7.563794106183232 0.0
5.389401689694107 5.283808684471545 0.0
8.530979415204587 3.029374286908943 0.0
7.901489077080633 6.535344047486632 0.0
9.218572924671975 5.760893551533255 0.0
8.562382833959296 4.143913974026883 0.0
8.62959127904665 8.974877485888243 0.0
9.408442441596518 9.62276529745719 0.0
7.5034765601713 3.869833107932387 0.0
9.842813436634783 6.600620949014236 0.0
9.826116984327193 8.911617279149695 0.0
7.529907780698261 0.7369111006685982 0.0
7.832164962480427 2.905293639437395 0.0
8.39517908433056 3.267417602291069 0.0
9.823014010107707 9.085319632577246 0.0
9.022314123618541 3.944559746338292 0.0
4.243701230676532 5.332574856090426 0.0
9.816740542566388 1.127839952679595 0.0
8.166775715766304 5.693916696568397 0.0
8.865374421689054 8.068986769641638 0.0
8.761145809863661 6.470583506581853 0.0
8.998345275919851 9.209303502026401 0.0
9.698477487436316 6.706902829754045 0.0
6.439032098063426 0.3109134377713525 0.0
7.562681994382136 4.643158005207056 0.0
9.03999088074715 0.2799354672273258 0.0
5.180741540467516 3.805018725608906 0.0
6.243990330956698 2.718077286244967 0.0
9.79416634023361 0.1815240178579244 0.0
9.926540005061975 2.847049370876555 0.0
9.826476210374608 2.670192168078066 0.0
6.365816673179121 4.536333049275508 0.0
5.546353765219417 4.618331215552614 0.0
9.820703096450293 2.000649418331399 0.0
6.884388790679166 3.561583980715254 0.0
7.431303395649604 5.747824222777201 0.0
8.849816832721245 2.19318290395604 0.0
4.185147517585975 5.697469360586313 0.0
9.165905238119013 5.873664931582344 0.0
7.70479478158537 1.788324620089049 0.0
9.627376046933474 0.9196091445437269 0.0
6.657687963328663 5.144792385996769 0.0
9.83245016645186 0.3925568446109945 0.0
7.483092985762584 9.253837199159435 0.0
5.445348362202234 3.977855663863651 0.0
7.476680532833337 4.837183287808616 0.0
9.572749890969304 8.505160319814301 0.0
9.915853314998252 9.437014513917465 0.0
7.679469018350979 7.390484878021194 0.0
9.418139053434402 4.790576000488359 0.0
8.096967733471567 5.865447162201908 0.0
9.829153508938724 8.378494945652118 0.0
9.926595955569645 5.157718300415699 0.0
8.774484245600224 7.939747459426853 0.0
8.629764448155779 6.481031318922794 0.0
8.961169458302376 3.839036702328818 0.0
4.617199205561317 5.256318959792646 0.0
8.480815774219478 4.031210317621497 0.0
9.708341592512763 3.401018043990571 0.0
7.183974816647467 4.77882314543966 0.0
9.821437962294304 7.659391965474772 0.0
8.150320284869602 2.286501016204562 0.0
9.828114434347311 1.684891358832554 0.0
5.349187766238684 6.538177907133678 0.0
8.076053471314525 2.76180604769483 0.0
4.907713691134565 5.29818629967416 0.0
0.6874399366049438 4.328593906714074 0.0
0.6980011780697519 5.702671170050627 0.0
8.263861466707834 8.182284285231713 0.0
5.838783785156478 4.913981390426639 0.0
7.807619472656604 7.235706382002089 0.0
9.388504256318683 6.022122644748753 0.0
9.929839894767033 6.436189192303577 0.0
8.3205848711706 3.39107920408397 0.0
3.240770542267401 4.019899919523968 0.0
8.059047070496568 2.468855909103855 0.0
9.932479519490421 2.449625056415224 0.0
7.737639000139152 4.580708137963557 0.0
8.26141077223695 0.3940397126348397 0.0
9.69568953371801 1.959951226402445 0.0
6.469120930453264 4.892267070266994 0.0
9.167223997255698 0.8102256463122337 0.0
6.236889648241256 0.9291076084031108 0.0
8.306379082772498 5.268830342852036 0.0
6.716089118890225 5.239344620507032 0.0
9.82511981852641 9.282822358664017 0.0
6.68375719572285 4.404998642130821 0.0
8.913754712375674 6.908138360584365 0.0
6.173250048857013 5.251634416326969 0.0
4.235907497612446 1.924052997345291 0.0
5.151007663981651 2.438629730660893 0.0
8.924254300637541 9.3764975797567 0.0
4.438612423541503 5.287968640901957 0.0
8.571203234299599 1.897009944569934 0.0
6.878800676380218 5.821332862798138 0.0
5.710626178601224 4.792560699857408 0.0
7.149510071621283 5.216310009157644 0.0
2.099966541549645 2.334742113488256 0.0
9.93396330620579 5.350566393301629 0.0
7.143046479323961 8.646955109387985 0.0
7.965747313080266 5.193641450105844 0.0
6.3314394693073 5.135050228240639 0.0
7.665821333021348 6.222698255001823 0.0
6.305321657053551 4.659816230868476 0.0
7.833020917089713 5.208837056143474 0.0
9.41455902676429 2.869725681199307 0.0
8.567151507735133 6.598605357295113 0.0
7.405527786978573 4.377085529441429 0.0
6.552969697053132 5.137148974085434 0.0
9.93630620742063 8.042778076596578 0.0
7.166743296019233 4.593171678848165 0.0
6.595561806063966 5.839366735225723 0.0
6.066152182102007 5.262519562574559 0.0
9.834694151277489 0.9093455747994099 0.0
8.98259191950674 7.579732466796592 0.0
6.465071238839505 5.25485771955322 0.0
9.759759896588413 3.236659507608532 0.0
4.775529448101694 5.224235675150505 0.0
9.935991245222917 7.153416415978829 0.0
0.6530736820718381 9.352299998916202 0.0
0.6449439415299687 0.6468300344151556 0.0
7.804690364869245 4.495816547678174 0.0
9.84503784553893 5.70620404704573 0.0
9.83525329400959 3.826992990746767 0.0
9.922964894244684 4.265000406933376 0.0
8.333767638401964 1.121219971446645 0.0
8.876012546033895 7.019147158538482 0.0
8.172413577824324 3.413096916572049 0.0
7.232233017296214 4.478957103028363 0.0
6.214597295185415 3.852860083673202 0.0
9.85013791746415 4.400709747289421 0.0
3.941627380932058 6.342995010255737 0.0
3.097271569675528 8.77391871286929 0.0
9.292917152323044 6.010976049411984 0.0
8.104342196673183 5.184165973282902 0.0
8.994300084006271 3.652611812846807 0.0
9.937157897030163 5.549999999993244 0.0
8.721368888525245 7.274540720770752 0.0
8.920003648712827 0.9516585309368178 0.0
7.910527456030004 8.536826514867816 0.0
9.846441288756814 4.60515911863952 0.0
9.584942233925151 4.712073182517884 0.0
9.642357858573972 6.805672051759494 0.0
9.797024725252207 9.838837222258014 0.0
9.842451438022124 4.018973836958878 0.0
6.112723137676118 3.704473949316424 0.0
7.574641969193845 3.765362276156904 0.0
7.826594968121701 6.200366572362263 0.0
7.762805366733504 9.34009502796868 0.0
9.56854033867856 1.012566255816665 0.0
7.71256563655353 5.219373702836014 0.0
9.68039392238282 8.786964504862018 0.0
5.910362452777086 9.277662068919813 0.0
7.418090653922814 3.326443419100716 0.0
9.857704179097952 4.697553149694669 0.0
8.452469674653342 8.996585816905599 0.0
9.522351366699843 2.057525484575908 0.0
7.802315574700843 9.548878971475935 0.0
9.938875656926385 3.449999999992592 0.0
8.425189037911712 6.608575180629274 0.0
5.925965231566842 2.523669697740033 0.0
6.654918072256329 5.95749128982984 0.0
9.826748589235729 9.631118448471485 0.0
8.6684585637523 7.39633999085442 0.0
9.844673843931567 3.090088625379724 0.0
9.93613850661301 2.250382721159617 0.0
9.218291993658738 2.892108990205171 0.0
9.83502846611296 8.212781989607324 0.0
7.754136409732265 7.104288507262783 0.0
8.510570542791681 2.036933285735889 0.0
7.757745059307245 4.315798612475442 0.0
7.989231770559189 6.201656630465583 0.0
8.068934521422738 4.198631572122605 0.0
4.957478134450373 9.038766150325067 0.0
7.208661142641733 6.501402463831379 0.0
7.299506095906239 4.363561999234681 0.0
8.250303873550486 2.105322217421675 0.0
8.678637541413377 7.053471135702286 0.0
9.761528395137384 6.163503990672834 0.0
9.84494857233395 8.59999999999775 0.0
9.83825138794677 3.672838954969637 0.0
5.121008544047756 5.808127183024784 0.0
8.343911550360986 4.043535893276861 0.0
9.85324441775315 5.899999999993774 0.0
9.51114465213134 8.41035540646284 0.0
6.505812179224195 6.93390566262983 0.0
6.15572847138365 9.023097246950844 0.0
3.352081892333425 3.024853379890529 0.0
6.433163283162099 8.675072413910678 0.0
8.825744236698243 3.624446391299867 0.0
4.883007294861279 7.819620905924936 0.0
5.876659170760434 5.638247433601083 0.0
6.859400040348503 6.510797998354633 0.0
7.946400945409184 3.500317276373196 0.0
7.496830255505493 6.653194511698024 0.0
9.852183479755313 4.891525833556942 0.0
9.77998778436291 2.922486526124376 0.0
6.774672660492365 5.324728659740495 0.0
5.717254072187427 6.824125962512845 0.0
9.713440940838062 4.63793103997539 0.0
8.859858662536796 0.2721395536350836 0.0
8.37556017530946 9.436653414116012 0.0
7.395237381047616 7.885576562773319 0.0
5.4709157802033 4.511152089197594 0.0
9.489749416979361 9.691840729914848 0.0
4.599216022837964 3.46438688931078 0.0
5.572287492757569 4.807021644849729 0.0
9.926499336309957 9.92730688390086 0.0
9.926499336310107 0.07269311609890093 0.0
9.338127766332573 0.3585313952168247 0.0
6.810761948165162 3.414693294319008 0.0
8.166274345037138 5.943611545564389 0.0
5.2892644736731 6.301081312912763 0.0
9.731911074791544 7.649313380659622 0.0
8.90251102352767 9.50983415326544 0.0
8.997881406541017 1.033666784655452 0.0
5.835124768755703 2.738139962594905 0.0
9.665357480775825 6.185331297099201 0.0
7.656532192558493 8.217157287499347 0.0
9.170463887605525 2.975444721032631 0.0
4.208158615905443 0.8648302238584886 0.0
6.97015686031129 5.933674629077266 0.0
6.181941366523793 3.565885175921835 0.0
3.30313590337911 6.393402837735046 0.0
6.447482061767014 4.816169316820496 0.0
8.185341428749446 4.169172087371246 0.0
4.552595724340015 8.298301336212145 0.0
9.84850676569699 8.999999999998423 0.0
9.846941514449377 7.393642828194986 0.0
7.924592433490734 2.788309934035703 0.0
8.154308714226714 8.853640122009672 0.0
8.876629743004642 1.96110242719995 0.0
7.228849192966834 8.90811350348676 0.0
9.852301635085423 8.296637825215246 0.0
5.219795195341889 5.547413133147649 0.0
9.861497117995457 6.901363010201344 0.0
2.953911258021604 6.136007283255669 0.0
6.93158841067062 4.77708273647784 0.0
9.67540418457871 2.912802891506324 0.0
4.194055958522277 4.437353127730132 0.0
6.133959559341536 0.406856611599261 0.0
8.29952795189331 9.309744645643846 0.0
9.843692337952948 1.209647690818311 0.0
5.164986286280336 6.671544079402435 0.0
9.838533350075606 2.081705440779448 0.0
8.301244777513975 6.604088853319459 0.0
5.471494771710784 2.714598185146428 0.0
8.86534684892311 1.208599471795828 0.0
9.940610684232212 1.451558535868664 0.0
9.40896208432968 1.428353940655538 0.0
2.329177605337097 4.238803555614174 0.0
5.980761651517799 7.182207186682233 0.0
9.66541573964336 0.1719254072074424 0.0
7.220979380229172 7.806128737674462 0.0
1.251721227904697 6.151932667911503 0.0
8.104967286191181 6.057912607875576 0.0
6.650768762224724 4.817922869198292 0.0
6.634976350437587 3.213339182992986 0.0
7.034320437500567 4.898219100342838 0.0
9.502772020064167 6.283064492634301 0.0
8.13187938667684 3.518506862055515 0.0
9.855471943454193 2.599999999994991 0.0
9.056747742708522 8.263936599935574 0.0
4.352645795441222 5.724453640019 0.0
3.744263984699181 1.488951698361357 0.0
5.175860134287045 3.6375726667098 0.0
7.736434712114619 6.400417475661193 0.0
9.857658576695343 6.316607183405179 0.0
7.876525261950537 4.304285002335559 0.0
9.856114384785611 7.914602773442983 0.0
9.848334119947063 0.7059644476295188 0.0
9.59694321995579 6.895814046141667 0.0
5.906465212962551 3.869023950643881 0.0
9.840676994268005 9.364956386459765 0.0
5.355015287544095 3.83518170601625 0.0
6.374090407153147 5.855743754257685 0.0
8.227401290513832 5.297819733684674 0.0
5.451235131977493 4.825706629991923 0.0
6.022070213762754 5.355923882747634 0.0
9.845674433677614 6.108401449483281 0.0
9.835067400944396 7.739582406783081 0.0
8.602026805792988 2.941372356914139 0.0
5.059869081004962 5.269480960018243 0.0
5.284714507903736 5.26496663762182 0.0
9.627110479149561 7.660076105040499 0.0
6.820001127809743 4.792514421153957 0.0
5.120512795059439 4.806607659110254 0.0
9.56933817216883 2.911464407429096 0.0
9.74091654291531 9.267545397628387 0.0
9.93006767325302 6.576784040838644 0.0
9.642486276936268 4.650227701598451 0.0
5.185183328569137 9.410919109238325 0.0
9.37052946854105 4.605636695802024 0.0
1.677077220416309 5.871167715901136 0.0
7.345783833404538 3.184020711886284 0.0
5.419239942654976 5.982692039856376 0.0
6.133318300188262 2.551919945731369 0.0
6.187291396343277 4.499077117404439 0.0
1.231465237822878 3.921479198315213 0.0
8.969849937139944 9.699215363213542 0.0
9.218303154263054 6.037447959776716 0.0
CELLS 4886 19544
3 1113 1356 1450
3 1402 231 1659
3 272 269 1414
3 396 394 1777
3 1451 945 1452
3 194 81 1801
3 1847 1501 2104
3 2024 2121 2479
3 1115 1113 1450
3 1124 1413 1844
3 1061 1955 2409
3 307 305 1645
3 1592 1369 1593
3 238 1501 1847
3 1955 1883 2409
3 1808 243 1910
3 1885 978 2362
3 1440 793 2092
3 189 1488 1608
3 353 350 1864
3 2007 2231 2232
3 307 1645 2493
3 1096 1760 2496
3 2178 874 2179
3 621 625 1595
3 1493 1480 1938
3 1655 1268 2137
3 1341 1410 2212
3 243 1808 2360
3 1902 1446 2516
3 1760 1096 1763
3 856 790 2180
3 2008 2046 2105
3 789 1809 2067
3 694 1543 1575
3 1127 1762 1953
3 1748 807 2228
3 1543 1308 1575
3 820 1872 2170
3 1417 954 1998
3 1369 1592 2386
3 272 1414 1787
3 329 333 1998
3 1544 1095 1545
3 2231 1490 2232
3 1342 1683 1790
3 374 377 1797
3 807 1678 2228
3 1665 198 2128
3 141 142 1620
3 325 322 1952
3 231 1402 1654
3 198 1665 2010
3 1890 1307 2387
3 208 1438 1619
3 2016 1970 2156
3 1436 212 2020
3 954 1417 2333
3 1736 1894 2244
3 1491 1750 2143
3 1677 1064 2146
3 1474 1258 1475
3 1500 233 1930
3 1446 2415 2516
3 1700 973 1800
3 2128 2270 2316
3 1316 1315 1593
3 1307 2341 2387
3 2258 1324 2328
3 1083 1507 1508
3 693 1095 1544
3 621 1595 1596
3 667 1571 1872
3 1932 1766 2061
3 393 391 2240
3 1342 1790 2400
3 252 1707 2234
3 931 978 1885
3 1430 1116 1704
3 1411 1109 1714
3 1478 1227 2440
3 1990 195 2297
3 1792 1167 1985
3 1682 444 1975
3 394 397 1777
3 1711 2028 2162
3 1574 856 2180
3 2008 1851 2046
3 736 1493 1938
3 1069 1060 1662
3 1458 455 1754
3 862 691 1705
3 1161 1642 2286
3 1699 1700 1800
3 447 516 1637
3 955 1482 1483
3 2024 206 2121
3 391 1773 2240
3 1072 1412 1893
3 212 1436 2350
3 1566 1365 1568
3 259 1441 1672
3 872 870 1764
3 330 328 1889
3 1539 1161 2286
3 1897 1898 2275
3 1434 1990 2297
3 1109 1411 1730
3 319 307 2493
3 1762 1761 1953
3 1369 1316 1593
3 1540 834 1832
3 1505 652 2442
3 1732 1655 2137
3 921 1712 2295
3 1872 1388 2170
3 1712 921 2125
3 2028 244 2162
3 1506 1570 1680
3 1569 368 1964
3 1571 667 2375
3 1587 2178 2179
3 196 1723 1737
3 524 2016 2156
3 1528 1250 1733
3 1115 1450 1973
3 1938 1480 1971
3 1809 1396 2067
3 1641 249 2299
3 1223 1258 1474
3 1365 1566 2120
3 1981 962 2316
3 1538 353 1864
3 455 1458 1756
3 152 233 1500
3 1116 1430 1703
3 817 652 1505
3 1347 2003 2004
3 1607 1958 2085
3 194 1801 2195
3 1410 1341 2351
3 223 1415 1710
3 197 1511 2346
3 2198 787 2225
3 81 82 1801
3 1438 208 1620
3 1444 522 1823
3 1511 197 1950
3 726 718 1567
3 1637 516 1739
3 1708 2337 2341
3 1280 1649 2124
3 2337 1395 2341
3 1327 1709 2315
3 1225 1227 1478
3 691 624 1705
3 476 2224 2305
3 830 832 2204
3 1750 1491 2403
3 1366 1897 2275
3 2345 1583 2352
3 2054 405 2110
3 1984 2172 2230
3 1846 2198 2225
3 1177 2042 2418
3 2121 1367 2479
3 1527 1531 1541
3 916 1039 1834
3 1413 1124 2467
3 1622 1503 1868
3 249 1641 2019
3 1805 405 2054
3 1761 1007 1953
3 1415 223 2395
3 960 1756 2203
3 368 1569 2135
3 1402 1659 2473
3 941 1433 2471
3 1267 1477 1501
3 260 2002 2265
3 1704 558 2077
3 2224 1886 2305
3 2053 1386 2199
3 1452 945 1952
3 1717 1611 1718
3 1682 1975 2230
3 1760 1762 2496
3 1481 203 2104
3 1264 1266 1670
3 142 236 1620
3 2133 1182 2179
3 1791 1602 2183
3 350 346 1864
3 1412 1072 2393
3 1281 1575 2255
3 1565 1948 2155
3 849 1449 1513
3 1958 396 2085
3 1339 1069 1662
3 834 1540 1917
3 269 267 1414
3 1268 1267 1501
3 1440 2092 2468
3 1399 1981 2316
3 1635 1636 2041
3 1454 252 2234
3 1451 1305 1890
3 1375 1883 1955
3 362 366 1786
3 1484 2410 2528
3 1449 849 1640
3 1267 1474 1477
3 200 1611 1717
3 1054 1581 1582
3 1350 1977 2253
3 190 1390 2118
3 788 1956 2193
3 1709 1327 1888
3 2233 2298 2413
3 1488 189 2355
3 478 1685 1714
3 230 1525 1690
3 1687 478 1688
3 427 429 1756
3 1570 1065 2476
3 1880 1133 1988
3 1649 656 2124
3 1537 209 1614
3 1134 1769 1986
3 1220 1268 1655
3 396 1777 2085
3 1167 1755 1985
3 2229 1744 2296
3 1575 1281 2287
3 127 240 1882
3 377 647 1797
3 954 329 1998
3 220 1697 1698
3 1342 1341 2212
3 1441 264 1672
3 1512 188 2433
3 763 2345 2352
3 1685 1411 1714
3 1805 1188 1951
3 1347 2004 2157
3 1054 1582 1667
3 1333 1617 1674
3 2217 73 2361
3 1539 1036 1917
3 1039 1292 1834
3 208 141 1620
3 1965 1964 2038
3 693 1544 1969
3 1453 239 2279
3 203 1481 2049
3 945 1451 1889
3 680 1459 2134
3 354 2147 2196
3 1405 1932 2061
3 1723 1722 1737
3 1748 1175 1927
3 1532 1528 1733
3 2057 1824 2154
3 1406 1659 1702
3 1948 1186 2155
3 210 1598 2114
3 1685 478 1687
3 1324 1325 2328
3 1526 1250 1527
3 165 166 1509
3 1493 736 2523
3 1526 1527 1541
3 1390 190 2417
3 522 1444 1998
3 1680 1570 1732
3 1017 1442 2525
3 374 1797 2430
3 1507 1083 2197
3 1756 960 2221
3 2270 1400 2316
3 2205 1452 2282
3 1074 1187 1888
3 2158 1245 2200
3 1442 1017 1684
3 864 1116 1703
3 1750 1751 2143
3 1456 516 1492
3 1677 2146 2149
3 2022 1339 2388
3 1602 258 2183
3 678 1594 1595
3 1245 1670 2200
3 972 830 2204
3 2143 983 2342
3 1268 1501 2226
3 1266 1461 1670
3 1487 222 2465
3 1382 2022 2388
3 58 59 1661
3 2147 1543 2196
3 1484 1485 2410
3 628 2053 2199
3 1906 1549 2259
3 364 362 1786
3 1339 2022 2247
3 1636 525 2041
3 625 678 1595
3 678 1593 1594
3 2212 1410 2222
3 1837 1865 2215
3 1699 1800 1801
3 866 864 1703
3 893 1472 1982
3 1735 1736 2244
3 1633 1255 1922
3 126 127 1882
3 681 867 1656
3 1351 1401 2363
3 11 228 1588
3 1127 1953 2454
3 265 266 267
3 1722 1122 1737
3 1389 1691 2069
3 1613 1610 1616
3 1227 1256 2440
3 429 455 1756
3 1535 1177 2418
3 322 324 1952
3 973 1700 1802
3 1964 368 2038
3 1176 1865 1866
3 1096 872 1764
3 1176 1866 1875
3 193 1839 1892
3 156 157 1441
3 615 617 1596
3 686 1520 2480
3 1409 2097 2305
3 2410 1151 2528
3 1427 2217 2361
3 440 1911 2314
3 1744 1743 2296
3 516 1456 1739
3 1939 589 2164
3 690 931 2150
3 1062 1579 1580
3 1054 1580 1581
3 955 1483 1716
3 1064 1677 2248
3 1956 1616 2193
3 1776 1893 2026
3 1398 1115 1973
3 2002 1453 2265
3 1541 1531 1542
3 216 2191 2536
3 1736 1326 1894
3 1065 994 1066
3 1598 2115 2175
3 2314 1911 2358
3 1433 941 2042
3 2115 1209 2175
3 717 1550 1551
3 188 1941 2433
3 267 1132 1414
3 771 1569 2064
3 1157 1545 1546
3 1231 1250 1526
3 1933 240 2181
3 222 1487 2025
3 1525 230 1765
3 1430 1704 2077
3 757 1744 2495
3 264 263 265
3 883 773 1917
3 739 2205 2282
3 1667 1582 2434
3 1744 757 2474
3 239 1453 2002
3 1441 259 2356
3 2005 1443 2012
3 254 1766 1932
3 1509 166 1679
3 1477 1475 1481
3 793 1440 2165
3 1385 1523 2377
3 1481 1475 2523
3 156 1441 2356
3 1066 1220 1655
3 945 325 1952
3 2094 2087 2134
3 1747 1175 1748
3 253 262 263
3 1327 1074 1888
3 718 715 1567
3 2046 1043 2105
3 240 1933 2399
3 1305 1307 1890
3 224 58 1661
3 1195 1566 2285
3 1590 1393 1749
3 1255 1230 1922
3 353 1538 2073
3 358 1999 2325
3 882 1802 2036
3 1024 1020 1604
3 333 522 1998
3 1401 1351 2414
3 1475 1258 1476
3 2310 786 2364
3 328 945 1889
3 807 1748 1927
3 825 724 1912
3 1742 263 2491
3 267 266 1132
3 2077 2102 2203
3 1431 1432 1860
3 1212 1957 2312
3 2097 476 2305
3 1132 1402 2473
3 717 713 1550
3 1746 693 1969
3 1372 1124 1844
3 1256 1541 2269
3 1977 1350 2274
3 2332 1978 2443
3 874 2133 2179
3 1983 1534 2171
3 1157 1544 1545
3 1230 1228 1922
3 1580 1579 1581
3 1565 806 1948
3 1416 1363 2413
3 1287 1995 2398
3 265 263 266
3 1534 1529 2171
3 1604 1834 2428
3 1255 1633 2509
3 1344 1643 1644
3 1332 1388 1571
3 1423 217 2217
3 2191 1057 2451
3 458 447 1637
3 1250 1233 1733
3 472 2212 2222
3 1175 1747 1840
3 1652 256 1653
3 1073 1347 1572
3 200 145 1609
3 683 640 1585
3 1116 862 1705
3 1221 1223 1474
3 1778 801 1803
3 1503 1622 2471
3 1475 1493 2523
3 464 680 2134
3 14 210 2114
3 579 1880 1988
3 1434 1435 1990
3 1447 2310 2364
3 275 274 276
3 2294 1871 2419
3 814 1068 1684
3 1172 1439 2273
3 273 272 274
3 1363 1416 2406
3 1220 1219 1221
3 1060 1656 1662
3 1099 1792 1985
3 2048 1198 2168
3 1241 1245 2323
3 699 723 1753
3 1640 1862 2070
3 910 1018 1584
3 1586 1067 1587
3 1656 867 1662
3 1067 686 2480
3 654 2242 2294
3 1593 1315 1594
3 1880 553 1974
3 236 1717 1718
3 617 621 1596
3 1723 196 2313
3 402 1877 2116
3 273 274 275
3 2202 1869 2252
3 1510 1358 1767
3 193 1892 2373
3 1188 1805 2054
3 1220 1221 1267
3 1066 1218 1219
3 1517 1097 1518
3 1677 1676 1858
3 686 277 1520
3 268 267 269
3 697 857 1592
3 220 1698 1699
3 1802 1700 2036
3 1612 1537 1614
3 929 817 994
3 228 12 2136
3 2110 2116 2482
3 1659 1658 1702
3 1611 1613 2280
3 1344 991 1643
3 683 1585 1604
3 1638 1358 2404
3 1485 1034 2410
3 2214 833 2424
3 271 272 273
3 1482 955 1962
3 1066 1219 1220
3 931 1885 2150
3 1613 1891 2280
3 1189 1589 2204
3 1566 1195 2120
3 726 1567 2490
3 1122 1722 1874
3 1494 319 2493
3 1671 259 1672
3 1267 1221 1474
3 603 528 1591
3 1664 2128 2316
3 1817 1924 2174
3 1626 1660 2111
3 1474 1475 1477
3 1023 1062 1580
3 1957 1599 2312
3 1764 1939 2164
3 1358 1950 2404
3 200 1609 1610
3 1431 1082 1432
3 1778 1803 2521
3 1830 1832 2075
3 1930 233 2369
3 1329 1482 1650
3 757 1959 2522
3 1239 1247 1597
3 758 1978 2332
3 1569 1290 2064
3 216 1694 2191
3 1453 1420 2265
3 1549 1906 2129
3 24 215 1674
3 19 235 1676
3 1621 1057 2191
3 1691 1389 2262
3 1617 1333 2192
3 929 994 1065
3 1769 1672 1986
3 1893 1412 2026
3 1609 1537 1612
3 271 269 272
3 1373 1438 1620
3 217 1423 2381
3 517 330 1889
3 1322 1055 1667
3 1974 553 2499
3 228 2136 2187
3 1589 1189 1788
3 1999 1577 2325
3 2110 405 2116
3 189 1608 1842
3 1055 1050 1667
3 739 1455 2205
3 1865 1176 2215
3 319 1494 2522
3 2474 757 2522
3 1484 227 1485
3 10 11 1588
3 723 809 1753
3 27 230 1689
3 1550 806 1565
3 1179 1180 1217
3 207 1617 2192
3 1433 1217 1502
3 1562 1556 1606
3 1379 2017 2018
3 1245 2158 2323
3 675 1097 1517
3 884 501 1599
3 1020 683 1604
3 1603 1095 1848
3 1001 2057 2154
3 1604 1585 1834
3 1610 1612 1616
3 1764 870 1939
3 2242 1871 2294
3 1669 1264 1670
3 1658 213 1702
3 1995 1646 2398
3 631 539 1600
3 1491 2143 2342
3 1801 1800 2195
3 1200 1199 1693
3 1535 940 1861
3 1534 758 2332
3 914 2258 2328
3 1588 228 2457
3 216 138 1694
3 151 152 1500
3 1133 1880 1974
3 1677 1858 2248
3 1294 1622 1868
3 875 1010 1767
3 1379 2018 2416
3 1279 2202 2252
3 182 256 1652
3 1592 857 2386
3 672 681 1656
3 615 1596 1824
3 1093 1487 1623
3 1823 522 2100
3 1245 1242 1669
3 1582 1581 1583
3 758 1534 2306
3 1975 1984 2230
3 1358 1510 1950
3 1663 1336 1665
3 2102 960 2203
3 366 1087 1786
3 1740 1490 2231
3 21 207 1709
3 145 146 1609
3 2339 765 2384
3 603 1591 1668
3 2081 199 2149
3 1540 1832 1879
3 1721 1723 1947
3 1754 455 1793
3 1751 1753 2119
3 882 1701 1807
3 1540 1539 1917
3 242 1695 1697
3 1521 354 2091
3 1363 2233 2413
3 1584 1018 1925
3 703 1067 1586
3 1177 1178 1179
3 795 916 1834
3 277 276 607
3 1571 1388 1872
3 22 23 1617
3 1097 823 1177
3 25 26 1624
3 419 418 1790
3 1728 1906 2259
3 440 1455 2261
3 1877 1318 2116
3 1488 1156 1608
3 1439 2130 2273
3 1889 1451 1890
3 1614 209 2389
3 1472 893 2094
3 675 821 823
3 23 24 1674
3 1788 1190 2183
3 917 941 1622
3 1763 1096 1764
3 1068 1442 1684
3 1034 1485 2173
3 2172 1533 2230
3 138 139 1694
3 1065 1570 2197
3 607 674 675
3 1536 1248 2268
3 229 135 1734
3 1437 1925 1926
3 680 510 1646
3 147 209 1537
3 26 27 1689
3 1627 705 2163
3 206 1651 2121
3 2409 1785 2462
3 1492 682 2447
3 1223 1225 1258
3 889 1772 2374
3 253 263 264
3 275 276 277
3 1455 739 2261
3 2022 1382 2176
3 150 227 1484
3 639 1019 1591
3 1449 1640 2070
3 1082 833 2214
3 1503 1502 1504
3 144 200 1717
3 1643 991 1713
3 1190 1791 2183
3 1538 1804 2073
3 1256 2269 2440
3 18 19 1676
3 521 531 2000
3 790 849 2180
3 1075 1329 1650
3 1087 1782 1785
3 1066 994 1218
3 270 269 271
3 682 1492 2494
3 185 252 1454
3 253 158 262
3 1629 1632 1633
3 200 1610 1611
3 1477 1481 2104
3 1623 1487 2465
3 1518 1097 1535
3 1414 1132 2460
3 1179 1217 1433
3 177 1506 1680
3 1392 1017 2525
3 1832 834 2075
3 675 823 1097
3 1459 2094 2134
3 1782 1087 1795
3 1838 1730 2372
3 1639 149 2528
3 1617 23 1674
3 2265 1420 2489
3 180 232 1859
3 1527 1250 1528
3 20 21 1709
3 1083 1508 2311
3 903 866 1703
3 1455 440 2314
3 1187 1858 1888
3 1659 1406 2473
3 1446 1902 2166
3 421 1951 2106
3 1598 210 2115
3 154 259 1671
3 1288 1835 2080
3 1832 1831 1879
3 1258 1225 1478
3 1024 1604 2117
3 1263 1429 1739
3 706 705 1627
3 1583 1581 2352
3 407 1805 1951
3 856 1574 2527
3 1701 882 2036
3 1624 26 1689
3 717 1551 1552
3 1385 2377 2391
3 2302 1745 2354
3 1572 1347 2157
3 1036 883 1917
3 1689 1690 1691
3 1664 1665 2128
3 1476 1479 1480
3 1751 2119 2143
3 815 814 1684
3 1790 889 2400
3 1606 1607 2085
3 265 267 268
3 418 889 1790
3 1522 1521 2091
3 135 136 1734
3 1726 1445 1729
3 647 1796 1797
3 1346 1453 2279
3 1293 1827 2117
3 1242 1244 1669
3 1853 1852 1854
3 889 2374 2400
3 1039 1038 1290
3 1524 628 2199
3 1331 1332 1571
3 1291 1290 1569
3 1475 1476 1493
3 1850 1852 1853
3 1490 1740 2456
3 1689 230 1690
3 1256 1526 1541
3 1704 1705 2167
3 1465 1470 1675
3 956 1073 1572
3 1613 1616 1956
3 916 917 1038
3 2014 1522 2091
3 1221 1222 1223
3 1999 763 2352
3 234 10 1588
3 1697 220 2335
3 1527 1528 1529
3 2298 1600 2413
3 1436 2020 2254
3 1642 1161 1678
3 1523 1385 2436
3 1730 1838 2426
3 795 796 916
3 713 711 1550
3 1456 1263 1739
3 999 1336 1663
3 1785 1784 2462
3 409 415 1783
3 607 675 1517
3 1229 1231 1526
3 1958 1855 2078
3 1589 1588 1590
3 1933 261 2380
3 762 1965 2038
3 1756 1458 2203
3 1776 597 1893
3 1794 1072 1893
3 188 1512 2266
3 1774 2339 2384
3 188 1908 1941
3 1010 1510 1767
3 2189 2285 2307
3 773 834 1917
3 1245 1669 1670
3 1248 1597 2268
3 146 1537 1609
3 818 910 1584
3 1641 1313 1651
3 1217 1745 2302
3 1065 1066 1655
3 1597 1247 2047
3 1360 2177 2376
3 1612 1615 1616
3 2126 867 2186
3 1019 683 1020
3 1747 892 1840
3 1092 1093 1623
3 261 1933 2181
3 400 424 1666
3 1516 1903 2377
3 1100 1392 1605
3 247 1738 1881
3 268 1134 1986
3 1177 823 1178
3 884 1599 1957
3 263 262 2491
3 806 1627 1948
3 1227 1229 1256
3 191 1729 2504
3 1636 1635 2502
3 1480 1479 1601
3 1721 1947 2498
3 1924 1146 2174
3 229 1734 1735
3 175 204 1725
3 1179 1178 1180
3 354 1521 2147
3 665 697 1592
3 640 646 1585
3 627 545 1636
3 1882 240 2399
3 1556 1555 1606
3 1373 1620 2394
3 1871 1071 2419
3 548 1628 1629
3 455 436 1793
3 974 1831 1841
3 1844 1413 2392
3 1612 1614 1615
3 209 1639 1937
3 1329 1330 1331
3 1823 2100 2142
3 1097 1177 1535
3 1021 1020 1022
3 825 1912 2455
3 913 1122 1874
3 400 1666 2113
3 1256 1229 1526
3 1419 1418 2450
3 1552 1551 1553
3 1850 1099 1852
3 1629 1631 1632
3 801 685 2029
3 1618 1619 1621
3 265 268 1986
3 1715 2165 2330
3 1531 1529 1534
3 1022 1024 1576
3 658 693 1746
3 703 686 1067
3 1062 1576 1577
3 1023 1022 1062
3 236 1718 2394
3 1688 502 1740
3 1501 1477 2104
3 213 165 1509
3 646 795 1585
3 196 1737 1738
3 379 679 1795
3 639 640 683
3 924 875 1767
3 1752 699 1753
3 207 2192 2315
3 627 1636 1660
3 1217 1180 1745
3 730 728 1833
3 528 561 1591
3 1444 1417 1998
3 252 186 1602
3 1729 1445 2504
3 460 502 1688
3 1418 946 1778
3 1203 1200 1693
3 548 470 1628
3 849 668 1640
3 646 785 795
3 607 276 674
3 14 15 210
3 147 148 209
3 478 460 1688
3 1709 207 2315
3 1157 1546 1608
3 1155 1731 1899
3 1524 1934 2390
3 1775 921 1876
3 1433 1502 1503
3 470 458 1628
3 1223 1224 1225
3 1291 1569 1964
3 871 1056 1826
3 1781 1783 1915
3 1587 1067 2300
3 916 1038 1039
3 1388 1387 1389
3 1611 1610 1613
3 1075 1328 1329
3 1039 1290 1291
3 1538 1265 1804
3 1184 1185 2163
3 597 598 1794
3 1450 1356 2421
3 1835 576 2080
3 1629 1628 1631
3 1331 1330 1332
3 561 639 1591
3 1476 1480 1493
3 705 703 1586
3 639 683 1019
3 1951 1188 2106
3 436 446 1793
3 1472 1297 2142
3 1332 1387 1388
3 1345 984 1720
3 1329 1328 1330
3 1050 1048 1667
3 150 151 227
3 11 12 228
3 557 541 2256
3 1831 974 1879
3 134 229 1766
3 1357 1358 1638
3 1336 1641 2299
3 1650 1482 1962
3 1591 1019 2512
3 1506 1507 1570
3 1803 801 2029
3 1178 823 1972
3 1552 1553 1554
3 1290 1038 1294
3 1028 1313 1641
3 1237 1239 1597
3 993 1017 1100
3 893 2087 2094
3 149 1484 2528
3 1768 1142 1949
3 9 234 1673
3 1554 1553 1555
3 668 632 1640
3 711 806 1550
3 1628 458 1637
3 1098 1829 1830
3 1482 1331 1483
3 531 1818 2000
3 435 419 1790
3 1156 1157 1608
3 1182 1184 2179
3 510 512 1646
3 1231 1233 1250
3 946 841 1778
3 1483 1331 1571
3 1459 680 2458
3 1166 1040 1210
3 892 1657 1820
3 1042 1445 1726
3 1019 1020 1021
3 749 805 1810
3 234 1588 1589
3 1695 242 1892
3 556 1853 2483
3 1018 1572 1573
3 1529 1528 1530
3 1606 1558 1607
3 1761 1759 2308
3 1396 1032 1921
3 1018 956 1572
3 689 1150 1416
3 1827 1293 2515
3 149 150 1484
3 1647 656 1648
3 1543 694 2196
3 399 409 1783
3 545 525 1636
3 268 269 270
3 715 713 717
3 1100 1017 1392
3 1657 892 1747
3 207 22 1617
3 1666 884 2249
3 1671 1672 1769
3 1554 1555 1556
3 146 147 1537
3 1081 1444 1822
3 711 709 806
3 1443 2005 2322
3 660 658 1746
3 1166 1458 1754
3 916 796 917
3 1056 1728 1826
3 1068 1069 1275
3 184 185 1454
3 158 159 262
3 2007 1687 2231
3 805 1708 1810
3 1672 264 1986
3 1561 1562 1563
3 978 1075 1650
3 1590 1588 2457
3 215 25 1624
3 1551 1550 1565
3 1073 1346 1347
3 857 818 1584
3 1648 656 1649
3 675 674 821
3 561 594 639
3 1731 529 1899
3 2303 1454 2535
3 981 903 1040
3 1630 1629 1633
3 993 877 1017
3 724 718 726
3 512 603 1646
3 1676 235 1858
3 814 1060 1068
3 715 717 1567
3 1796 647 1870
3 1715 1171 2165
3 678 1592 1593
3 644 613 1824
3 1690 1525 2145
3 1297 1822 1823
3 271 656 1647
3 1704 1116 1705
3 1225 1226 1227
3 1275 1069 1338
3 910 956 1018
3 1824 1596 2154
3 1403 1100 1605
3 1221 1219 1222
3 1068 1060 1069
3 1901 245 1949
3 1081 1055 1321
3 1751 563 1752
3 1021 1022 1023
3 672 638 681
3 1095 657 1848
3 1235 1237 1248
3 1561 1556 1562
3 1265 1259 1804
3 524 1819 2016
3 978 1650 2362
3 1492 516 2494
3 229 1735 2061
3 185 186 252
3 157 158 253
3 152 153 233
3 9 10 234
3 1527 1529 1531
3 1808 1344 2360
3 1062 1577 1579
3 1509 1679 1977
3 424 454 1666
3 637 638 672
3 981 1040 1166
3 1555 1558 1606
3 751 749 1810
3 1166 1210 1458
3 1651 1313 2121
3 15 16 2260
3 1633 1632 2509
3 2167 1705 2276
3 551 602 2045
3 697 818 857
3 364 1786 1883
3 832 1189 2204
3 1476 1478 1479
3 678 665 1592
3 213 1509 2096
3 1015 888 1124
3 1062 1022 1576
3 679 1782 1795
3 680 1646 1995
3 1101 1100 1403
3 1109 433 1714
3 1248 1237 1597
3 733 730 1833
3 1702 213 2096
3 499 498 1828
3 1418 1778 2521
3 637 600 638
3 1048 1046 1054
3 1577 1576 1578
3 814 766 1060
3 1279 2252 2292
3 474 470 548
3 199 18 1676
3 157 253 1441
3 1048 1054 1667
3 471 472 2290
3 625 665 678
3 795 785 796
3 1264 1265 1266
3 1437 1926 2350
3 1362 2048 2168
3 1394 2337 2371
3 454 884 1666
3 1022 1020 1024
3 751 1810 1923
3 1046 1023 1580
3 1807 1701 1931
3 1618 208 1619
3 566 588 689
3 1828 498 1829
3 501 509 1599
3 1118 780 1775
3 878 817 929
3 1510 1511 1950
3 1618 1621 1694
3 1052 1081 1822
3 1416 1150 1715
3 1239 1241 1247
3 1396 1921 2067
3 1751 1752 1753
3 1264 1259 1265
3 539 566 1600
3 1762 1127 2496
3 1673 1788 2183
3 1555 1557 1558
3 1052 1050 1055
3 725 724 825
3 1142 1770 1771
3 681 853 867
3 454 501 884
3 1346 1420 1453
3 932 1147 1770
3 1546 1545 1547
3 533 582 1818
3 1266 1337 1460
3 1872 820 2318
3 1117 1119 1713
3 1081 1321 1417
3 1253 1259 1264
3 1569 771 2135
3 1052 1055 1081
3 1181 1178 1972
3 709 706 1627
3 1073 1076 1346
3 1098 1828 1829
3 1382 1380 2176
3 1442 1275 1443
3 919 999 1663
3 1789 828 1855
3 877 815 1684
3 509 539 631
3 992 877 993
3 1266 1265 1337
3 2268 1498 2340
3 1130 1032 1396
3 1095 1603 2508
3 886 826 887
3 531 533 1818
3 1131 1400 1881
3 447 437 516
3 2460 1132 2473
3 940 1535 2418
3 768 1873 2037
3 1813 1869 1954
3 1627 2163 2488
3 1497 1495 1645
3 1198 1409 2168
3 724 726 1912
3 1869 987 1954
3 763 1999 2338
3 1010 1170 1374
3 984 976 1720
3 1470 1743 1744
3 689 588 1150
3 1901 1949 2359
3 1640 632 1862
3 274 272 1787
3 563 564 1752
3 994 817 1505
3 737 1807 1931
3 1770 1147 1771
3 1233 1235 1733
3 2450 1418 2521
3 414 410 1821
3 908 1099 1850
3 1227 1228 1229
3 1692 1203 1693
3 1625 216 2194
3 512 528 603
3 1377 1357 1638
3 1465 1464 1470
3 1360 1359 2177
3 1686 2007 2095
3 1336 1028 1641
3 1857 751 1923
3 1758 572 1759
3 553 541 557
3 1171 1715 1811
3 956 1003 1073
3 1467 1465 1675
3 719 718 724
3 1509 1977 2096
3 1734 1625 1736
3 1503 1504 1868
3 592 597 1776
3 180 181 232
3 162 163 231
3 2308 1759 2370
3 1357 1114 1358
3 875 946 1010
3 509 631 1599
3 17 18 199
3 144 145 200
3 1099 906 1792
3 1469 1467 1494
3 605 589 1939
3 1208 1205 1211
3 354 344 2091
3 692 782 804
3 1010 946 1170
3 1463 1462 1464
3 716 715 718
3 714 713 715
3 271 273 656
3 139 1618 1694
3 549 277 686
3 673 672 766
3 1378 1377 1379
3 2007 868 2095
3 999 1028 1336
3 1208 1211 1447
3 601 545 627
3 1119 1643 1713
3 1332 1333 1387
3 910 912 956
3 520 521 2000
3 828 1789 1819
3 277 607 1520
3 1338 1339 2247
3 818 819 910
3 767 766 814
3 712 711 713
3 1494 1467 1675
3 639 594 640
3 2044 557 2256
3 235 20 1709
3 1620 236 2394
3 804 919 962
3 1862 702 2070
3 681 852 853
3 1559 1556 1561
3 1622 941 2471
3 2165 1440 2330
3 612 644 692
3 697 698 818
3 1903 1516 1994
3 371 379 1795
3 428 426 2138
3 1290 1294 2064
3 1384 1904 2432
3 566 689 1600
3 471 452 472
3 1092 1091 1093
3 1002 1131 1719
3 1090 1089 1091
3 875 841 946
3 1758 1760 1763
3 1562 1606 2085
3 1833 1830 2075
3 178 179 214
3 164 165 213
3 769 923 1815
3 692 644 782
3 804 782 919
3 182 183 256
3 160 161 257
3 1329 1331 1482
3 962 1663 1664
3 1177 1179 2042
3 403 405 1805
3 1461 1460 1462
3 140 208 1618
3 1859 232 1860
3 274 1787 2099
3 1381 2126 2186
3 1558 1560 1789
3 430 428 682
3 452 435 1683
3 1487 1156 1488
3 1470 1464 1743
3 597 1794 1893
3 1244 1253 1669
3 962 919 1663
3 258 8 1673
3 1087 1785 1786
3 970 1042 1726
3 199 1677 2149
3 1664 1663 1665
3 1229 1230 1231
3 991 827 1713
3 792 1603 1848
3 1822 1444 1823
3 665 666 697
3 19 20 235
3 142 143 236
3 728 1098 1833
3 532 530 1898
3 1015 1124 1372
3 1546 1547 1548
3 1851 1850 1853
3 1877 393 2240
3 923 1105 1815
3 1090 1091 1092
3 687 686 703
3 1683 435 1790
3 887 826 1961
3 684 663 1089
3 426 1934 2138
3 464 510 680
3 853 854 855
3 568 572 1758
3 1376 1357 1377
3 1205 1203 1692
3 1607 1789 1855
3 710 709 711
3 780 781 1775
3 1434 1103 1435
3 876 815 877
3 766 672 1656
3 1393 1590 2457
3 684 1089 1090
3 530 890 1898
3 926 1920 1943
3 696 414 1821
3 1563 1562 1777
3 1054 1046 1580
3 1398 1973 1974
3 137 216 1625
3 1210 1040 1430
3 1750 563 1751
3 2010 1665 2299
3 1510 1374 1511
3 1777 1562 2085
3 1707 252 1791
3 1932 1404 1933
3 459 438 1814
3 139 140 1618
3 1093 1156 1487
3 231 163 1658
3 699 722 723
3 1545 1095 2508
3 598 612 1794
3 579 554 1880
3 1941 1908 2401
3 1231 1232 1233
3 1831 1829 1841
3 1037 1383 1799
3 177 178 1506
3 636 600 637
3 1036 1539 2286
3 1356 1114 1357
3 1523 1516 2377
3 704 703 705
3 403 402 405
3 648 792 1848
3 723 756 808
3 1388 1389 2170
3 933 932 1770
3 223 1710 1711
3 1779 399 1783
3 1223 1222 1224
3 1028 1029 1313
3 257 161 1654
3 418 412 421
3 734 882 1807
3 693 657 1095
3 1368 1370 1436
3 136 137 1625
3 688 652 817
3 1075 1327 1328
3 540 479 1813
3 398 395 402
3 548 1629 1630
3 574 591 699
3 1469 1494 1495
3 1041 1598 2175
3 167 168 202
3 175 176 204
3 2045 2046 2201
3 186 187 1602
3 886 887 888
3 1253 1254 1259
3 8 9 1673
3 792 655 810
3 843 1145 1960
3 1180 1349 1745
3 1165 1345 1512
3 708 706 709
3 136 1625 1734
3 21 22 207
3 140 141 208
3 625 626 665
3 1093 1094 1156
3 1585 795 1834
3 1117 1713 1806
3 599 579 600
3 810 871 1826
3 1047 1046 1048
3 1292 1291 1293
3 161 162 1654
3 199 1676 1677
3 1260 1282 1804
3 1005 1142 1768
3 1233 1234 1235
3 792 810 922
3 1122 1719 1737
3 976 985 1720
3 1278 1279 2292
3 2390 1934 2531
3 1436 1437 2350
3 270 271 1647
3 1199 966 1846
3 1683 1342 2212
3 656 273 2124
3 699 591 722
3 1977 1139 2096
3 1738 1719 1881
3 1722 985 1874
3 1797 1448 1798
3 162 231 1654
3 632 604 1862
3 252 1602 1791
3 1051 1050 1052
3 1045 1023 1046
3 648 655 792
3 993 1100 1101
3 1321 1055 1322
3 806 709 1627
3 904 903 981
3 1220 1267 1268
3 648 605 655
3 1737 1719 1738
3 385 399 1779
3 506 499 1828
3 1132 266 1402
3 1170 1418 1419
3 1323 2302 2354
3 24 25 215
3 137 138 216
3 721 965 1919
3 1787 1414 2460
3 778 1117 1806
3 723 722 756
3 407 403 1805
3 564 574 1752
3 1049 1048 1050
3 842 841 875
3 1608 1546 1842
3 809 808 899
3 1517 1519 1520
3 1530 1532 1533
3 889 421 1772
3 913 1002 1122
3 1314 1316 1367
3 1017 877 1684
3 841 802 1778
3 1235 1236 1237
3 751 1857 1900
3 1114 924 1767
3 1344 1644 2360
3 1895 1394 2371
3 1518 1535 1861
3 1758 1759 1760
3 1122 1002 1719
3 546 563 1750
3 1056 1726 1727
3 663 660 1746
3 621 622 625
3 1720 985 1721
3 1857 1843 1900
3 808 756 913
3 1056 970 1726
3 27 28 230
3 134 135 229
3 908 906 1099
3 163 164 1658
3 1727 1726 1729
3 7 8 258
3 154 155 259
3 1101 1403 1404
3 808 913 1874
3 1260 1269 1282
3 1389 1387 2262
3 1297 1053 1822
3 1555 1553 1557
3 1463 1464 1465
3 230 28 1765
3 1237 1238 1239
3 554 553 1880
3 775 778 1806
3 985 899 1874
3 1270 1524 2199
3 489 1820 1936
3 692 1072 1794
3 1472 2142 2272
3 1845 496 1929
3 438 431 1814
3 613 615 1824
3 1241 1242 1245
3 1783 415 1915
3 1192 2081 2149
3 178 214 1506
3 1816 988 1817
3 1760 1759 1761
3 1103 1092 1623
3 1512 1345 1661
3 1876 921 2295
3 1165 984 1345
3 978 1074 1075
3 1239 1240 1241
3 542 541 553
3 813 988 1816
3 1148 984 1165
3 871 970 1056
3 472 452 1683
3 1207 1796 1870
3 1167 1166 1754
3 1296 1053 1297
3 966 964 1846
3 976 899 985
3 982 976 984
3 702 1815 2015
3 900 899 976
3 1143 995 1206
3 1576 1024 1827
3 1235 1248 1733
3 1558 1557 1560
3 943 995 1143
3 1920 1144 1943
3 1471 2115 2477
3 29 30 255
3 132 133 254
3 1630 1633 1634
3 1225 1224 1226
3 1925 1573 1926
3 1211 1205 1692
3 725 825 826
3 1113 924 1114
3 600 579 1988
3 717 1552 1567
3 1820 1657 1936
3 674 276 2099
3 395 393 1877
3 572 543 1897
3 1575 1308 2255
3 999 1000 1028
3 1118 1775 1876
3 1797 1798 2430
3 526 546 559
3 867 853 2186
3 1142 1771 1949
3 1068 1275 1442
3 679 385 1779
3 1607 1558 1789
3 580 568 1758
3 1244 1252 1253
3 1760 1761 1762
3 398 402 403
3 1476 1258 1478
3 418 421 889
3 1771 1147 1839
3 164 213 1658
3 1720 1721 2267
3 1668 1591 2512
3 1042 1128 1445
3 1098 1830 1833
3 1102 1092 1103
3 2249 884 2466
3 1104 1103 1434
3 410 416 1821
3 514 513 541
3 580 1758 1763
3 637 673 1741
3 1913 936 1914
3 1394 1395 2337
3 919 920 999
3 577 554 579
3 2111 1660 2263
3 231 1658 1659
3 612 613 644
3 568 543 572
3 770 775 1806
3 1445 1128 1446
3 1546 1548 1842
3 448 460 478
3 810 870 871
3 1789 1560 1819
3 1154 1082 1431
3 873 973 1802
3 379 385 679
3 837 850 921
3 1461 1462 1463
3 1346 1076 1420
3 1088 1344 1808
3 2125 1143 2353
3 931 977 978
3 882 772 1802
3 29 255 1765
3 849 1513 2180
3 1713 827 1806
3 1130 1396 1397
3 681 638 852
3 1417 1321 1873
3 1654 1402 2530
3 502 526 1740
3 1124 888 2177
3 1266 1460 1461
3 515 1175 1840
3 1253 1264 1669
3 479 466 1813
3 1727 1729 1757
3 379 380 385
3 1971 1480 2514
3 1637 1739 2459
3 1207 1205 1208
3 529 519 1899
3 1129 1845 1929
3 224 1661 2267
3 192 1856 2361
3 732 734 1807
3 1184 2163 2435
3 1119 1120 1353
3 415 414 431
3 719 724 725
3 559 546 1750
3 871 872 970
3 1038 917 1622
3 574 699 1752
3 166 167 1679
3 1117 1118 1119
3 1409 1196 2035
3 617 619 621
3 1172 1173 1439
3 1191 1005 1768
3 664 663 684
3 494 493 1841
3 890 529 1731
3 840 802 841
3 493 974 1841
3 385 386 399
3 679 1779 1780
3 371 376 379
3 416 433 1109
3 670 769 1815
3 902 866 903
3 1780 1779 1781
3 480 515 1840
3 970 971 1042
3 433 448 1714
3 28 29 1765
3 1005 949 1142
3 778 780 1117
3 959 1037 1799
3 1073 1003 1076
3 535 532 1898
3 1119 1118 1120
3 658 657 693
3 1378 1379 1380
3 1397 1396 1809
3 1610 1609 1612
3 1819 1560 2016
3 1837 952 1865
3 1719 1131 1881
3 1131 1399 1400
3 1352 1138 2058
3 399 406 409
3 548 1630 2041
3 1275 1338 2251
3 582 1816 1818
3 1835 1836 2144
3 993 1101 1980
3 1699 1698 1700
3 2407 364 2505
3 1189 1190 1788
3 1117 780 1118
3 1830 1829 1831
3 637 672 673
3 692 804 1072
3 1204 1203 1205
3 1374 1170 2139
3 612 692 1794
3 1642 1408 2286
3 723 808 809
3 450 459 1812
3 409 410 414
3 802 801 1778
3 1853 1854 2483
3 1042 1127 1128
3 1199 1846 2225
3 1147 990 1273
3 1383 1384 2432
3 432 431 438
3 1353 1120 1390
3 1093 1091 1094
3 2020 250 2254
3 148 149 1639
3 606 605 648
3 1970 2016 2422
3 2201 2046 2327
3 475 471 513
3 412 407 1951
3 1991 246 2139
3 727 695 728
3 1673 234 1788
3 1554 1556 1559
3 1089 663 1746
3 1846 964 2056
3 923 991 1088
3 409 406 410
3 729 728 730
3 1424 1427 1856
3 1473 1911 2407
3 1376 1377 1378
3 1010 1374 1510
3 853 852 854
3 366 369 1087
3 772 873 1802
3 1219 1218 1626
3 1766 229 2061
3 1088 991 1344
3 922 810 1826
3 518 506 695
3 405 402 2116
3 962 1664 2316
3 913 942 1002
3 932 990 1147
3 629 813 1816
3 876 877 992
3 399 386 406
3 932 845 990
3 1002 1123 1131
3 843 996 1145
3 781 837 1775
3 262 2304 2491
3 431 696 1814
3 1273 1695 1892
3 731 730 732
3 737 732 1807
3 439 438 450
3 1829 498 1841
3 800 685 801
3 767 814 815
3 1060 766 1656
3 673 766 767
3 1403 1605 1882
3 716 718 719
3 1338 1069 1339
3 847 752 1843
3 864 862 1116
3 2302 443 2519
3 923 827 991
3 526 559 1740
3 1911 1473 2358
3 1085 1310 1867
3 809 899 900
3 1227 1226 1228
3 729 730 731
3 1436 1370 1437
3 731 732 737
3 769 827 923
3 456 452 471
3 1433 1503 2471
3 1435 1103 1623
3 385 380 386
3 1141 1787 2460
3 1354 1088 1808
3 657 649 1848
3 415 431 432
3 484 892 1820
3 727 728 729
3 855 854 1450
3 1721 1722 1723
3 1643 1353 1644
3 1145 1916 1960
3 1421 1191 1422
3 466 1812 1813
3 943 944 995
3 1356 1357 1376
3 714 715 716
3 1156 1094 1157
3 598 611 612
3 631 1600 2298
3 590 589 605
3 965 969 1919
3 416 1109 1821
3 242 1697 2335
3 1548 1547 1549
3 550 573 584
3 584 604 632
3 409 414 415
3 712 713 714
3 642 670 702
3 818 698 819
3 1006 1005 1191
3 1624 1689 1691
3 169 170 237
3 173 174 238
3 956 912 1003
3 937 936 1913
3 1317 1025 1875
3 515 540 550
3 973 1799 1800
3 973 959 1799
3 518 695 727
3 910 819 912
3 584 573 604
3 1170 946 1418
3 173 238 1847
3 550 540 573
3 982 984 1148
3 900 976 982
3 441 435 452
3 448 478 1714
3 1849 1648 2173
3 1631 1628 1637
3 1830 1831 1832
3 1383 1216 1384
3 734 772 882
3 949 933 1770
3 1332 1330 1333
3 574 575 591
3 1105 1088 1354
3 702 670 1815
3 498 494 1841
3 827 770 1806
3 873 959 973
3 1390 1391 1415
3 450 438 459
3 950 949 1005
3 351 362 364
3 1313 1029 1314
3 432 438 439
3 837 838 850
3 1273 1274 1695
3 850 851 943
3 911 952 1837
3 1259 1260 1804
3 566 587 588
3 1037 1216 1383
3 1337 1265 1538
3 1087 369 1795
3 810 655 870
3 1559 1561 1566
3 1147 1273 1839
3 732 733 734
3 1662 867 2126
3 890 1731 2241
3 1854 1852 2397
3 515 479 540
3 451 450 466
3 697 666 698
3 1367 1316 1368
3 662 660 663
3 365 355 694
3 1358 1114 1767
3 379 376 380
3 1796 1448 1797
3 179 180 1859
3 790 668 849
3 569 568 580
3 690 860 931
3 466 450 1812
3 431 414 696
3 1973 1133 1974
3 651 649 657
3 467 466 479
3 1288 1289 1835
3 264 265 1986
3 1302 1303 1304
3 592 596 597
3 1873 1321 2037
3 544 543 568
3 275 277 549
3 209 1937 2389
3 539 565 566
3 1485 227 1486
3 2384 2190 2408
3 1781 1779 1783
3 480 479 515
3 689 1416 2413
3 1108 1161 1539
3 1867 1310 1895
3 1300 1301 1302
3 1695 1696 1697
3 633 632 668
3 1304 1451 1452
3 988 911 1837
3 168 169 1724
3 969 1012 1172
3 582 629 1816
3 1843 752 1900
3 629 812 813
3 710 711 712
3 1782 1780 1784
3 536 535 543
3 1089 1746 1969
3 1108 1107 1161
3 1514 1426 1856
3 486 484 1820
3 369 371 1795
3 1817 988 1924
3 493 609 974
3 1422 1191 2023
3 1426 1424 1856
3 842 875 924
3 922 1826 2259
3 989 1361 1886
3 928 1070 1288
3 669 668 790
3 1113 1114 1356
3 1027 847 1843
3 728 695 1098
3 734 735 772
3 975 1107 1108
3 955 859 1962
3 813 911 988
3 1208 1448 1796
3 1101 1405 1980
3 602 676 2045
3 586 581 589
3 546 547 563
3 493 491 609
3 628 1524 2390
3 348 344 354
3 1298 1299 1300
3 509 538 539
3 974 609 975
3 813 891 911
3 871 870 872
3 1355 1354 1423
3 489 486 1820
3 778 779 780
3 1025 1176 1875
3 772 773 873
3 803 1743 2347
3 167 202 1679
3 873 883 959
3 1483 1571 2375
3 427 1756 2221
3 540 1813 1954
3 1202 1200 1203
3 959 1035 1037
3 837 921 1775
3 1304 1305 1451
3 1799 1383 2195
3 604 642 1862
3 1470 1744 2474
3 1854 2397 2453
3 1282 1269 1386
3 1573 1572 2157
3 472 2222 2290
3 1307 1708 2341
3 769 770 827
3 1037 1215 1216
3 791 790 856
3 1053 1052 1822
3 1056 1727 1728
3 1341 1138 1352
3 1300 1299 1301
3 1814 696 1838
3 1198 1196 1409
3 492 491 493
3 439 450 451
3 1171 858 2132
3 1259 1254 1260
3 665 626 666
3 970 872 971
3 258 1602 2357
3 1296 1297 1472
3 490 489 491
3 516 437 2494
3 1298 1027 1299
3 846 845 932
3 501 508 509
3 460 461 502
3 448 449 460
3 482 480 1840
3 1229 1228 1230
3 604 641 642
3 1424 1423 1427
3 502 503 526
3 1028 1000 1029
3 935 933 949
3 1084 1085 1867
3 2028 1711 2353
3 1513 1426 1514
3 892 482 1840
3 852 638 1988
3 402 395 1877
3 738 737 845
3 413 412 418
3 1119 1353 1643
3 526 527 546
3 280 279 281
3 1731 1155 2123
3 1042 971 1127
3 1208 1447 1448
3 433 434 448
3 262 159 2304
3 184 1454 2303
3 1051 1052 1053
3 1816 1817 1818
3 1081 1417 1444
3 781 836 837
3 911 951 952
3 1090 1092 1102
3 202 168 1724
3 1085 1309 1310
3 408 407 412
3 1337 1538 1864
3 1515 1514 1516
3 530 529 890
3 1517 1518 1519
3 549 686 687
3 923 1088 1105
3 404 403 407
3 1835 1289 1836
3 1314 1367 2121
3 1380 1379 2416
3 670 671 769
3 899 808 1874
3 1040 903 1703
3 1596 1595 2154
3 1496 1495 1497
3 636 637 1741
3 1377 1638 2288
3 1288 1070 1289
3 1072 804 1981
3 1129 1334 1845
3 1865 1084 1866
3 792 922 1603
3 1253 1252 1254
3 981 1167 1792
3 1302 1301 1303
3 1641 1651 2019
3 952 953 1084
3 1813 1812 1869
3 732 730 733
3 975 1106 1107
3 1142 949 1770
3 981 1166 1167
3 840 841 842
3 451 466 467
3 1273 990 1274
3 1049 1050 1051
3 1473 2407 2505
3 968 966 1199
3 642 643 670
3 1310 1309 1311
3 422 419 435
3 1063 833 1082
3 919 782 920
3 911 891 951
3 1084 953 1085
3 1763 1764 2164
3 1498 1497 1682
3 515 550 1175
3 1079 937 1913
3 642 702 1862
3 845 737 1931
3 1394 1311 1395
3 1395 1521 1522
3 467 479 480
3 1755 1754 1793
3 1231 1230 1232
3 1557 1553 2030
3 1624 1691 2262
3 584 632 633
3 1094 1091 1969
3 708 709 710
3 1948 1627 2488
3 952 951 953
3 1102 1103 1104
3 1047 1048 1049
3 1310 1311 1394
3 1852 1099 1985
3 143 144 1717
3 813 812 891
3 1944 1044 1945
3 1105 1354 1355
3 1300 1302 1455
3 1914 936 1940
3 1415 1391 1710
3 1299 1027 1843
3 952 1084 1865
3 1695 1274 1696
3 776 774 1928
3 282 281 283
3 2003 1347 2279
3 1206 995 1499
3 1164 1685 1686
3 1551 1565 2030
3 969 1172 1919
3 633 668 669
3 734 733 735
3 1373 1372 1438
3 599 600 636
3 1431 1860 2487
3 1579 1577 1999
3 484 482 892
3 917 940 941
3 2144 1836 2169
3 1866 1084 1867
3 1110 1747 1748
3 998 1171 1811
3 1390 1120 1391
3 644 1824 2057
3 1362 1961 2048
3 944 1283 1825
3 1086 1027 1298
3 679 1780 1782
3 974 975 1879
3 507 506 518
3 1121 1079 1401
3 775 777 778
3 1965 762 2349
3 1045 1046 1047
3 1772 421 2106
3 16 17 2081
3 416 417 433
3 921 850 2125
3 1607 1855 1958
3 649 648 1848
3 1241 1240 1242
3 2012 1443 2251
3 926 928 1920
3 1487 1488 2025
3 1006 1191 1421
3 1355 1423 1424
3 1133 852 1988
3 591 592 1776
3 1299 1843 1857
3 1085 1308 1309
3 490 491 492
3 958 694 1575
3 1384 1216 1385
3 741 915 1878
3 1233 1232 1234
3 669 790 791
3 481 480 482
3 687 703 704
3 492 493 494
3 1634 1633 1922
3 1697 1696 1698
3 1721 985 1722
3 1839 1273 1892
3 772 735 773
3 488 486 489
3 950 1005 1006
3 1513 1514 1515
3 454 500 501
3 873 773 883
3 284 283 285
3 2185 1505 2442
3 959 883 1035
3 543 535 1897
3 1904 1384 2093
3 800 801 802
3 1037 1035 1215
3 1293 1964 1965
3 1239 1238 1240
3 943 1143 2125
3 1782 1784 1785
3 913 756 942
3 488 490 1884
3 1590 1749 2501
3 1235 1234 1236
3 791 856 1408
3 702 2015 2070
3 1108 1539 1540
3 1021 1023 1045
3 695 506 1828
3 1530 1528 1532
3 488 489 490
3 1621 1619 2161
3 704 705 706
3 1304 1303 1305
3 558 1704 2167
3 625 622 626
3 542 553 554
3 604 573 641
3 664 684 685
3 564 571 574
3 1108 1540 1879
3 1856 1427 2361
3 880 1025 1129
3 1395 1311 1521
3 1466 1465 1467
3 915 495 1884
3 1515 1516 1523
3 1237 1236 1238
3 606 648 649
3 999 920 1000
3 676 829 1043
3 2100 794 2142
3 227 151 1500
3 577 579 599
3 153 154 1671
3 1175 550 1927
3 1014 888 1015
3 286 285 287
3 1649 1280 2427
3 1725 204 2137
3 975 609 1106
3 1129 1317 1334
3 1109 1730 2426
3 1468 1467 1469
3 1131 1123 1399
3 1215 2235 2378
3 1976 1149 1989
3 397 395 398
3 746 743 1878
3 1041 1343 1598
3 975 1108 1879
3 741 495 915
3 1167 1754 1755
3 288 287 289
3 743 741 1878
3 1274 990 1931
3 1506 214 1507
3 857 1584 2277
3 2341 1522 2387
3 846 932 933
3 1107 1106 1110
3 584 633 1927
3 290 289 291
3 722 591 1776
3 1544 1094 1969
3 1135 270 1647
3 935 949 950
3 1920 1288 2080
3 754 1896 2108
3 1693 1199 2225
3 292 291 293
3 394 393 395
3 745 743 746
3 1002 942 1123
3 731 737 738
3 294 293 295
3 1018 1573 1925
3 296 295 297
3 298 297 299
3 321 322 325
3 317 320 321
3 314 315 317
3 312 313 314
3 310 311 312
3 308 309 310
3 1898 890 2275
3 306 307 308
3 304 305 306
3 1401 1079 1913
3 300 299 301
3 302 303 304
3 300 301 302
3 302 301 303
3 491 489 1936
3 298 299 300
3 304 303 305
3 306 305 307
3 308 307 309
3 310 309 311
3 312 311 313
3 314 313 315
3 317 315 320
3 321 320 322
3 1301 1299 1857
3 514 541 542
3 296 297 298
3 850 838 851
3 1310 1394 1895
3 294 295 296
3 590 605 606
3 292 293 294
3 651 657 658
3 290 291 292
3 1207 1208 1796
3 835 1976 1989
3 621 619 622
3 746 1878 1896
3 481 482 483
3 1026 847 1027
3 1335 1207 1870
3 1661 59 2266
3 727 729 1155
3 288 289 290
3 1058 776 1928
3 662 663 664
3 495 488 1884
3 1959 319 2522
3 943 851 944
3 1293 1291 1964
3 534 532 535
3 640 645 646
3 2280 1014 2385
3 286 287 288
3 591 575 592
3 521 519 529
3 13 14 2114
3 780 779 781
3 918 908 1850
3 837 836 838
3 209 148 1639
3 754 748 1896
3 745 746 747
3 769 671 770
3 929 1065 2197
3 1278 1058 1279
3 483 482 484
3 1564 1557 2030
3 633 807 1927
3 392 391 393
3 1057 1621 2161
3 569 580 581
3 284 285 286
3 876 992 1894
3 497 494 498
3 1630 1635 2041
3 982 1148 1918
3 612 611 613
3 700 634 1044
3 822 674 2099
3 880 1129 1929
3 432 439 654
3 1039 1291 1292
3 1164 1686 1989
3 1129 1025 1317
3 738 845 846
3 582 583 629
3 278 6 279
3 544 568 569
3 1701 1274 1931
3 747 749 751
3 1085 953 1308
3 928 930 1070
3 747 748 749
3 1421 1422 2415
3 902 903 904
3 1309 1308 1543
3 642 641 643
3 904 981 1792
3 646 784 785
3 536 543 544
3 1204 1205 1207
3 365 694 958
3 71 72 217
3 88 89 1901
3 87 88 193
3 101 102 189
3 85 86 242
3 99 100 241
3 74 75 192
3 91 92 219
3 94 95 191
3 83 84 220
3 97 98 221
3 77 78 218
3 80 81 194
3 89 90 245
3 62 63 244
3 60 61 188
3 64 65 223
3 67 68 190
3 90 91 1909
3 98 99 1905
3 61 62 1908
3 69 70 243
3 68 69 1907
3 70 71 1910
3 410 411 416
3 586 589 590
3 685 684 2029
3 390 389 391
3 1715 1150 1811
3 1924 1837 2215
3 282 283 284
3 496 497 1929
3 233 1671 1769
3 627 2185 2442
3 1567 1552 2062
3 629 630 812
3 424 453 454
3 583 562 1942
3 749 750 805
3 744 743 745
3 1897 535 1898
3 467 480 481
3 504 759 880
3 670 643 671
3 89 245 1901
3 193 88 1901
3 221 98 1905
3 245 90 1909
3 91 219 1909
3 62 244 1908
3 188 61 1908
3 99 241 1905
3 190 68 1907
3 71 217 1910
3 69 243 1907
3 243 70 1910
3 505 499 506
3 475 513 514
3 1945 1044 2071
3 1712 2125 2353
3 339 343 440
3 989 1360 1361
3 764 869 1152
3 778 777 779
3 1686 1685 1687
3 742 741 743
3 979 989 1886
3 729 731 1887
3 926 927 928
3 1305 1306 1307
3 1838 1278 2292
3 747 746 748
3 181 182 1652
3 1886 1361 2305
3 1595 1594 2486
3 597 596 598
3 928 1288 1920
3 1970 824 2156
3 1425 1424 1426
3 497 504 1929
3 748 746 1896
3 745 747 1900
3 998 858 1171
3 563 547 564
3 1155 729 1887
3 634 583 1942
3 1439 1173 1440
3 1026 1027 1086
3 79 80 1904
3 1533 1532 1536
3 1449 1426 1513
3 1106 609 1936
3 1318 1013 1319
3 1098 695 1828
3 492 494 496
3 750 748 754
3 731 738 1887
3 2415 1422 2516
3 533 562 582
3 988 1837 1924
3 1216 1215 1863
3 534 535 536
3 747 751 1900
3 1753 809 2119
3 1183 824 1970
3 740 495 741
3 80 194 1904
3 893 383 2087
3 655 605 1939
3 1884 2034 2082
3 1301 1857 1923
3 1307 1306 1708
3 752 745 1900
3 750 754 755
3 76 77 1903
3 2090 2347 2365
3 255 30 2159
3 132 254 2160
3 448 434 449
3 753 848 926
3 1075 1074 1327
3 487 488 495
3 377 381 647
3 483 484 485
3 755 754 2148
3 1584 1925 2277
3 1186 1183 1970
3 951 891 1281
3 485 484 486
3 546 527 547
3 133 134 1766
3 1786 1785 2409
3 280 281 282
3 460 449 461
3 744 745 752
3 77 218 1903
3 983 1918 2342
3 1708 1306 1810
3 1389 2069 2170
3 487 486 488
3 641 573 1954
3 507 518 519
3 502 461 503
3 519 518 1899
3 1202 1203 1204
3 821 897 1972
3 92 93 1902
3 521 529 530
3 749 748 750
3 2176 1380 2416
3 885 826 886
3 485 486 487
3 371 372 376
3 1289 1070 1871
3 1110 1657 1747
3 753 926 1943
3 700 1044 1944
3 880 881 1025
3 496 1845 2034
3 1072 1981 2393
3 462 464 2134
3 1949 1771 2359
3 1044 634 1942
3 550 584 1927
3 1390 1415 2118
3 526 503 527
3 990 845 1931
3 1009 1213 1214
3 740 742 1144
3 219 92 1902
3 727 1155 1899
3 369 370 371
3 623 690 2150
3 1279 1058 1928
3 1408 2235 2286
3 487 495 740
3 979 1886 2086
3 1305 1303 1306
3 421 412 1951
3 843 844 996
3 633 669 807
3 518 727 1899
3 826 825 1961
3 1657 1106 1936
3 1172 1012 1173
3 740 741 742
3 433 417 434
3 505 506 507
3 1333 1674 2437
3 742 743 744
3 469 458 470
3 1381 1380 1382
3 1293 1965 2515
3 1554 1559 2062
3 553 557 2499
3 1774 389 2339
3 497 498 499
3 483 485 576
3 740 1144 1935
3 773 735 834
3 366 367 369
3 1120 1118 1876
3 1515 1523 1574
3 1319 1013 2039
3 1303 1301 1923
3 457 447 458
3 561 593 594
3 1355 1424 1425
3 609 491 1936
3 204 1732 2137
3 791 1408 1642
3 995 944 1825
3 456 471 475
3 1692 1693 2239
3 580 1763 2164
3 1292 1293 2117
3 441 452 456
3 388 384 389
3 823 821 1972
3 504 880 1929
3 176 177 1680
3 1070 1071 1871
3 15 2260 2477
3 362 363 366
3 2178 2300 2449
3 1035 883 1036
3 2285 1563 2307
3 978 977 1074
3 1090 1102 2029
3 1810 1306 1923
3 496 494 497
3 1306 1303 1923
3 432 654 1915
3 934 933 935
3 356 355 365
3 398 403 404
3 635 701 843
3 1110 1106 1657
3 574 571 575
3 1025 881 1176
3 386 380 786
3 415 432 1915
3 343 347 1911
3 1070 930 1071
3 1688 1740 2231
3 1385 1216 1863
3 1696 1274 1701
3 1645 305 2317
3 880 759 881
3 926 848 927
3 1427 1423 2217
3 1339 1662 2388
3 770 774 775
3 1263 1257 1428
3 1337 1864 2412
3 349 348 355
3 2267 1721 2498
3 753 752 847
3 1375 1086 1473
3 900 982 983
3 332 335 739
3 429 428 430
3 744 752 753
3 1171 2132 2165
3 1425 1426 1449
3 987 641 1954
3 1883 1786 2409
3 427 426 428
3 928 927 930
3 1815 1105 2015
3 1206 1499 1941
3 410 406 411
3 573 540 1954
3 497 499 504
3 528 560 561
3 1933 1404 2399
3 1091 1089 1969
3 1804 1282 2073
3 504 505 759
3 963 924 1113
3 1711 1710 1712
3 881 759 1146
3 968 1199 1200
3 351 352 362
3 848 847 1026
3 521 530 531
3 1884 490 2034
3 1277 957 1966
3 1349 1350 2329
3 676 1043 2045
3 997 1159 1286
3 517 1889 1890
3 781 835 836
3 944 948 1283
3 722 1776 2026
3 507 519 520
3 2040 1352 2058
3 1276 957 1277
3 446 437 447
3 931 860 977
3 361 359 765
3 1248 1536 2534
3 512 523 528
3 408 412 413
3 1368 1369 1370
3 451 2169 2223
3 192 75 1994
3 942 756 2026
3 345 344 348
3 764 1152 1963
3 413 418 419
3 1286 1773 1774
3 770 671 774
3 275 549 2124
3 1497 1645 2461
3 1982 1472 2272
3 422 435 441
3 281 279 736
3 1134 270 1135
3 582 562 583
3 1421 2415 2454
3 485 487 1935
3 2300 1067 2480
3 1578 1576 1827
3 930 927 1061
3 1026 1086 1375
3 922 2259 2379
3 1391 1120 1876
3 1495 1494 2493
3 404 407 408
3 879 2178 2449
3 1700 1698 2036
3 607 1517 1520
3 753 847 848
3 416 411 417
3 1144 742 1943
3 775 776 777
3 754 2108 2148
3 1006 1421 1953
3 585 581 586
3 531 530 532
3 235 1709 1888
3 520 519 521
3 1180 1181 1349
3 1146 759 1967
3 708 710 1921
3 1350 2253 2329
3 436 430 437
3 504 499 505
3 643 641 987
3 336 330 517
3 811 1059 1149
3 1164 1411 1685
3 846 933 934
3 635 843 1960
3 983 982 1918
3 971 872 1096
3 1149 1163 1164
3 169 237 1724
3 1314 1315 1316
3 629 583 630
3 891 812 1916
3 462 463 464
3 487 740 1935
3 798 2084 2189
3 1814 1838 2292
3 1284 1489 1491
3 340 336 2014
3 1670 1461 2200
3 920 782 2057
3 890 2241 2275
3 510 511 512
3 278 279 280
3 839 802 840
3 1858 235 1888
3 1698 1696 2036
3 104 105 222
3 57 58 224
3 1185 1183 1186
3 588 587 623
3 638 600 1988
3 1282 1386 2245
3 811 776 1058
3 816 815 876
3 2034 1845 2082
3 761 636 1741
3 566 565 587
3 174 175 1725
3 347 350 351
3 1469 1495 1496
3 1059 1058 1278
3 811 1149 1976
3 576 485 1935
3 659 658 660
3 859 1153 1962
3 76 1903 1994
3 1821 1109 2426
3 1294 1038 1622
3 733 1833 2075
3 992 993 1980
3 1566 1561 2285
3 525 474 2041
3 464 465 510
3 343 346 347
3 360 893 1982
3 650 649 651
3 896 608 936
3 950 1006 1007
3 1508 1859 1860
3 539 538 565
3 440 343 1911
3 341 340 344
3 221 1905 1906
3 1297 1823 2142
3 759 505 1967
3 1295 1053 1296
3 473 470 474
3 1463 1465 1466
3 1143 1206 2028
3 799 685 800
3 1210 2077 2203
3 509 508 538
3 492 496 2034
3 1553 1551 2030
3 1260 1261 1269
3 1430 1040 1703
3 586 590 1940
3 838 836 868
3 1705 624 2276
3 1749 972 2501
3 742 744 1943
3 804 962 1981
3 1367 1368 2254
3 531 532 533
3 337 336 340
3 1157 1094 1544
3 536 544 1158
3 812 630 1960
3 781 779 835
3 56 57 1947
3 630 583 634
3 1405 1404 1932
3 1281 891 1916
3 339 342 343
3 1411 1163 1730
3 322 323 324
3 344 340 2091
3 1735 1734 1736
3 75 76 1994
3 430 682 2494
3 1907 243 2360
3 589 581 2164
3 694 355 2196
3 744 753 1943
3 775 774 776
3 1210 1430 2077
3 335 338 339
3 1102 1803 2029
3 1078 937 1079
3 870 655 1939
3 505 507 1967
3 357 360 1982
3 1896 1878 2101
3 326 325 328
3 934 935 957
3 585 608 895
3 333 330 336
3 1270 1272 1524
3 688 817 878
3 507 520 1967
3 1428 1257 2074
3 1818 1817 2000
3 896 937 1077
3 934 957 1111
3 329 328 330
3 1499 995 1825
3 944 851 948
3 387 445 462
3 1678 1161 2228
3 777 776 811
3 313 311 757
3 324 331 332
3 848 1026 1955
3 1312 998 1811
3 1321 1322 2037
3 1080 1079 1121
3 1105 1355 2015
3 1645 2317 2461
3 1559 1568 2062
3 332 334 335
3 501 500 508
3 321 325 326
3 394 395 397
3 322 320 323
3 1529 1530 2171
3 1137 797 1138
3 811 1058 1059
3 661 660 662
3 569 581 585
3 183 4 2303
3 5 160 2304
3 1340 1138 1341
3 1660 1626 2185
3 1743 1464 2347
3 1026 1375 1955
3 1149 1059 1163
3 1736 1625 2194
3 1322 1667 2434
3 311 309 1959
3 309 307 319
3 894 700 1944
3 533 534 562
3 1276 1277 1366
3 2190 1706 2408
3 533 532 534
3 1214 1213 1410
3 1164 1163 1411
3 843 701 844
3 1009 1214 2055
3 234 1589 1788
3 2000 1817 2174
3 317 321 2050
3 328 325 945
3 392 393 394
3 588 623 2089
3 1162 958 1681
3 1078 1080 1136
3 927 848 1955
3 1496 1497 1498
3 390 391 392
3 1061 927 1955
3 1283 948 1284
3 635 634 700
3 1244 1251 1252
3 218 78 2093
3 756 722 2026
3 1071 1784 2419
3 1218 1505 2185
3 1284 948 1285
3 1489 1285 1490
3 918 1850 1851
3 684 1090 2029
3 1759 572 2537
3 1691 1690 2446
3 1979 1158 2071
3 606 649 650
3 2045 1043 2046
3 103 104 2025
3 630 634 635
3 360 383 893
3 406 386 2043
3 1909 219 2023
3 1111 957 1276
3 1925 1437 2277
3 1536 2268 2340
3 854 852 1133
3 233 153 1671
3 651 658 659
3 2099 1787 2368
3 1033 1032 1130
3 1015 1372 1373
3 1412 942 2026
3 253 264 1441
3 1531 1534 2332
3 701 700 894
3 106 107 1990
3 2048 1961 2455
3 276 274 2099
3 738 846 1968
3 1325 925 1326
3 896 936 937
3 585 586 608
3 1450 854 1973
3 1361 1360 1362
3 1045 1668 2512
3 303 301 444
3 996 844 997
3 79 1904 2093
3 1989 1686 2095
3 1928 774 2033
3 1942 562 1979
3 287 285 316
3 935 950 1966
3 1466 1467 1468
3 1242 1243 1244
3 1887 738 1968
3 2115 210 2477
3 878 929 1083
3 1326 1736 2194
3 886 888 1014
3 895 608 896
3 289 287 1978
3 821 822 897
3 936 608 1940
3 613 614 615
3 51 52 1996
3 417 411 1160
3 1149 1164 1989
3 386 786 2043
3 285 283 1971
3 1309 1543 2147
3 375 373 2053
3 371 370 372
3 779 777 1976
3 1286 1159 1773
3 2177 887 2376
3 1560 1557 1564
3 1403 1882 2399
3 1727 1757 2246
3 279 6 2049
3 1619 1438 2438
3 291 289 758
3 1781 1915 2294
3 425 401 426
3 349 355 356
3 66 67 2118
3 474 548 2041
3 1686 1687 2007
3 1262 1456 1457
3 1123 942 1412
3 1916 812 1960
3 1355 1425 2015
3 735 733 2075
3 1861 879 2449
3 1284 1285 1489
3 490 492 2034
3 366 363 367
3 980 578 2051
3 906 904 1792
3 534 536 1979
3 842 924 963
3 2051 578 2083
3 1077 937 1078
3 1102 1104 1803
3 894 1944 1946
3 398 404 2060
3 1007 1006 1953
3 369 367 370
3 348 354 2196
3 1078 1079 1080
3 1378 1380 1381
3 1568 1365 2439
3 608 586 1940
3 598 610 611
3 760 636 761
3 869 1137 1351
3 671 643 2033
3 1661 1345 2267
3 938 914 1057
3 783 761 914
3 576 1835 2144
3 388 389 390
3 297 295 318
3 454 453 500
3 1906 1728 2246
3 1439 1440 2468
3 1159 1013 1318
3 764 797 869
3 236 143 1717
3 782 644 2057
3 592 595 596
3 1542 2332 2443
3 1521 1311 2147
3 345 348 349
3 1304 1452 2205
3 1644 1907 2360
3 2146 1125 2149
3 997 844 1013
3 628 375 2053
3 299 297 1984
3 957 935 1966
3 664 685 799
3 301 299 1975
3 362 352 363
3 777 811 1976
3 1942 1979 2071
3 1001 920 2057
3 312 314 768
3 1552 1554 2062
3 615 616 617
3 357 1982 2076
3 800 802 839
3 774 671 2033
3 1749 1169 2105
3 365 958 1162
3 617 618 619
3 283 281 1938
3 1351 1772 2414
3 1525 1765 2489
3 846 934 1968
3 635 700 701
3 555 554 577
3 536 1158 1979
3 1101 1404 1405
3 630 635 1960
3 1811 1150 2089
3 2113 1666 2249
3 172 173 1847
3 107 108 195
3 54 55 196
3 1191 1768 2023
3 1455 1302 2205
3 115 116 2017
3 1387 1333 2437
3 659 661 764
3 1080 1121 1188
3 50 51 2011
3 411 406 2043
3 295 293 1983
3 643 987 2033
3 707 706 708
3 129 130 261
3 32 33 260
3 2159 260 2265
3 449 434 567
3 1314 1029 1315
3 917 796 940
3 378 375 628
3 108 109 1991
3 2370 1759 2537
3 341 344 345
3 997 1013 1159
3 544 569 1993
3 950 1007 1966
3 477 474 525
3 351 350 352
3 1696 1701 2036
3 334 331 803
3 1137 1138 1340
3 562 534 1979
3 109 110 246
3 52 53 247
3 1368 1316 1369
3 659 660 661
3 33 34 2002
3 123 124 2005
3 835 779 1976
3 851 838 1992
3 1530 1533 2172
3 1668 1045 2348
3 1162 1681 1706
3 342 338 468
3 298 300 358
3 765 359 2065
3 725 826 885
3 35 36 2003
3 46 47 2019
3 38 39 2006
3 336 517 2014
3 934 1111 1968
3 116 117 2018
3 650 651 1963
3 223 1711 2162
3 640 594 645
3 1333 1330 2192
3 104 222 2025
3 1603 922 2379
3 963 1113 1115
3 2084 1193 2189
3 564 570 571
3 36 37 2004
3 57 224 1947
3 1542 1601 2269
3 122 123 2012
3 1000 920 1001
3 127 128 240
3 34 35 239
3 383 387 2087
3 1161 1107 2228
3 1781 2294 2419
3 1201 1200 1202
3 124 125 225
3 37 38 226
3 1340 1341 1342
3 869 797 1137
3 839 840 1008
3 1158 544 1993
3 1326 925 1894
3 352 350 353
3 326 329 954
3 1864 2344 2412
3 836 835 2095
3 1051 1053 1295
3 1031 720 1032
3 503 461 787
3 1407 1112 2044
3 661 662 2058
3 838 868 1992
3 112 113 197
3 49 50 198
3 1359 980 1413
3 121 122 211
3 40 41 212
3 48 49 2010
3 113 114 2009
3 1741 673 2131
3 41 42 2020
3 120 121 2013
3 1409 2035 2097
3 1511 1374 2506
3 114 115 248
3 47 48 249
3 42 43 250
3 119 120 251
3 171 6 201
3 6 172 203
3 585 895 1993
3 43 44 2024
3 118 119 2021
3 905 904 906
3 764 661 797
3 337 340 341
3 1413 980 2051
3 117 118 205
3 44 45 206
3 347 346 350
3 1420 1076 1525
3 324 323 331
3 434 417 2031
3 965 967 969
3 716 719 788
3 1260 1254 1261
3 2053 373 2103
3 2069 2068 2170
3 326 328 329
3 1706 996 2408
3 273 275 2124
3 969 1011 1012
3 590 606 2001
3 1718 1611 2280
3 1914 1940 2001
3 915 1884 2082
3 329 330 333
3 620 859 955
3 2168 1409 2305
3 296 298 1997
3 915 2082 2101
3 339 338 342
3 1218 994 1505
3 333 336 337
3 266 263 1742
3 1873 768 2127
3 244 63 2162
3 64 223 2162
3 343 342 346
3 914 761 2258
3 310 312 1987
3 799 800 2055
3 302 304 763
3 1559 1566 1568
3 1598 1343 2114
3 592 575 595
3 341 345 794
3 189 1842 2220
3 767 815 816
3 1003 912 1004
3 839 1008 1009
3 1263 1428 1429
3 564 547 570
3 1845 1334 2082
3 332 331 334
3 901 866 902
3 651 659 1963
3 1009 1112 1213
3 335 334 338
3 569 585 1993
3 1665 1336 2299
3 1945 2071 2153
3 863 862 864
3 907 906 908
3 1849 1486 1930
3 1935 1144 2080
3 967 966 968
3 809 900 2119
3 865 864 866
3 835 1989 2095
3 190 1907 2417
3 333 337 522
3 1110 1748 2228
3 1193 1194 1195
3 94 191 2166
3 473 1854 2453
3 1769 1134 2369
3 948 851 1992
3 237 170 2216
3 420 419 422
3 1448 1447 2364
3 483 576 2144
3 721 1919 2032
3 885 886 1891
3 613 611 614
3 886 1014 1891
3 1160 411 2043
3 1918 1283 2342
3 1651 206 2485
3 1242 1240 1243
3 598 596 610
3 1295 1296 1459
3 1185 1186 1948
3 1425 1449 2070
3 294 296 762
3 1285 948 1992
3 925 876 1894
3 712 714 789
3 603 1668 2398
3 1940 590 2001
3 721 570 964
3 834 735 2075
3 1144 1920 2080
3 2263 1635 2511
3 1204 1207 1335
3 2235 1408 2378
3 965 964 966
3 1990 1435 2218
3 397 398 2060
3 1138 797 2058
3 1787 1141 2368
3 2068 820 2170
3 360 359 361
3 387 462 2087
3 1524 1272 1934
3 819 698 820
3 1197 1196 1198
3 1662 2126 2388
3 78 79 2093
3 1150 588 2089
3 1269 1261 1270
3 1878 915 2101
3 451 467 2169
3 2262 1387 2437
3 1009 1008 1112
3 757 311 1959
3 897 898 1139
3 1854 473 2483
3 2015 1425 2070
3 2082 1334 2101
3 963 1115 1174
3 1047 1049 1287
3 1194 423 1196
3 321 326 2050
3 417 1160 2031
3 854 1133 1973
3 1201 1212 1348
3 705 1586 2163
3 309 319 1959
3 1353 1390 2417
3 427 428 429
3 357 356 359
3 606 650 2001
3 549 1280 2124
3 1213 1112 1407
3 256 2303 2535
3 356 365 2065
3 662 664 2040
3 701 894 2039
3 1325 1371 2451
3 666 626 667
3 1902 93 2166
3 1236 1234 1246
3 800 839 2055
3 1869 1812 2252
3 1197 1364 1365
3 576 1935 2080
3 404 408 798
3 1678 807 2529
3 1560 1564 2016
3 1319 2039 2122
3 425 426 427
3 349 356 357
3 308 310 327
3 1716 622 2484
3 1801 82 2289
3 1768 1949 2420
3 2006 1926 2507
3 351 364 2407
3 420 423 1193
3 659 764 1963
3 292 294 2038
3 840 842 2027
3 736 279 2049
3 372 373 374
3 461 449 2052
3 2189 1195 2285
3 1174 1115 1398
3 367 363 961
3 909 908 918
3 1738 247 2402
3 1007 1761 2308
3 288 290 2135
3 422 441 2035
3 623 624 690
3 537 525 545
3 1953 1421 2454
3 1887 1968 2123
3 861 691 862
3 654 439 2223
3 1136 1080 2054
3 1312 1811 2089
3 575 571 2032
3 383 361 384
3 968 1200 1201
3 797 661 2058
3 1423 1354 2381
3 1180 1178 1181
3 1513 1515 2180
3 72 73 2217
3 462 445 463
3 12 13 2136
3 457 458 469
3 542 554 555
3 599 636 760
3 254 133 1766
3 1130 1397 1937
3 404 798 2060
3 1044 1942 2071
3 690 691 860
3 357 359 360
3 1008 2027 2152
3 1232 1230 1255
3 372 370 373
3 850 943 2125
3 1457 1456 1492
3 1952 324 2282
3 155 2 2356
3 0 7 2357
3 2017 1379 2288
3 918 1851 2008
3 195 1991 2517
3 2090 803 2347
3 1244 1243 1251
3 290 292 368
3 1432 1082 2214
3 1008 840 2027
3 1743 803 2296
3 1013 844 2039
3 365 1162 2065
3 1594 1315 2184
3 387 384 388
3 1508 1860 2311
3 547 527 2056
3 2005 225 2322
3 314 317 2127
3 1853 556 2327
3 201 6 278
3 1907 1644 2417
3 1896 2101 2108
3 646 645 784
3 538 508 558
3 374 375 377
3 1630 1634 1635
3 1579 1999 2352
3 1647 1648 1849
3 1313 1314 2121
3 1179 1433 2042
3 844 701 2039
3 1252 1251 2098
3 816 876 925
3 1922 1228 2281
3 392 394 396
3 1915 654 2294
3 1652 1653 2487
3 429 430 436
3 456 475 476
3 1605 1392 2510
3 126 1882 2284
3 1784 1780 2419
3 500 453 960
3 377 378 381
3 2178 1587 2300
3 1222 1219 1626
3 413 419 420
3 381 382 400
3 2169 1836 2223
3 1906 1905 2129
3 616 614 793
3 1170 1419 2139
3 101 189 2220
3 241 100 2220
3 1968 1111 2123
3 567 434 2031
3 615 614 616
3 1032 720 1921
3 682 428 2138
3 469 470 473
3 339 440 2261
3 1501 238 2226
3 1154 1431 1653
3 446 447 457
3 1251 1243 1257
3 2229 315 2495
3 1201 1202 1212
3 785 784 879
3 464 463 465
3 66 2118 2395
3 324 332 2282
3 286 288 771
3 17 199 2081
3 571 570 721
3 611 610 2092
3 617 616 618
3 1542 1531 2332
3 400 401 424
3 1325 1326 1371
3 1140 1406 1702
3 1323 443 2302
3 1926 1573 2507
3 436 437 446
3 1262 1457 2098
3 67 190 2118
3 1518 1861 2449
3 989 1359 1360
3 1063 1082 1154
3 1757 96 2526
3 969 967 1011
3 868 836 2095
3 1215 1035 2235
3 96 1757 2309
3 261 2160 2380
3 1381 1382 2126
3 1468 1469 2182
3 1334 1317 2108
3 861 863 1064
3 1270 1261 1271
3 360 361 383
3 287 316 1978
3 1856 192 2367
3 1905 241 2129
3 1615 1809 2425
3 528 523 560
3 979 980 989
3 662 2040 2058
3 721 964 965
3 170 171 2216
3 664 799 2040
3 512 511 523
3 1201 1348 2107
3 620 618 858
3 758 289 1978
3 859 858 998
3 424 425 453
3 1616 1615 2193
3 444 301 1975
3 561 560 593
3 965 966 967
3 1798 376 2430
3 340 2014 2091
3 510 465 511
3 107 195 1990
3 1080 1188 2054
3 1153 998 1312
3 1226 1224 1249
3 1012 1011 1363
3 902 904 905
3 842 963 2027
3 268 270 1134
3 865 901 1125
3 2077 558 2102
3 282 284 442
3 1977 1679 2253
3 1496 1498 2047
3 284 286 2063
3 281 736 1938
3 2132 793 2165
3 1674 215 2437
3 2078 1855 2411
3 839 1009 2055
3 1182 824 1183
3 1168 947 1169
3 1289 1871 2242
3 316 285 1971
3 1270 1271 1272
3 1755 1793 2264
3 51 1996 2011
3 383 384 387
3 1146 1924 2215
3 1279 1928 2202
3 619 618 620
3 1194 1196 1197
3 555 578 979
3 1937 1639 2528
3 1262 1257 1263
3 389 384 2339
3 2251 1338 2464
3 1155 1887 2123
3 1151 1937 2528
3 465 463 828
3 1318 1319 2116
3 1687 1688 2231
3 326 954 2050
3 297 318 1984
3 1308 953 2255
3 1846 2056 2198
3 320 315 2229
3 1254 1252 2059
3 760 761 783
3 951 1281 2255
3 1459 1296 2094
3 2288 1638 2470
3 1975 299 1984
3 52 247 1996
3 468 338 2090
3 2140 1511 2506
3 1125 1126 1192
3 593 824 1182
3 720 708 1921
3 704 706 707
3 623 587 624
3 2044 1112 2152
3 1393 1169 1749
3 900 983 2119
3 783 914 938
3 255 2265 2489
3 2039 894 2122
3 317 2050 2127
3 1866 1867 2513
3 374 373 375
3 429 436 455
3 387 388 445
3 1193 423 1194
3 555 577 578
3 1074 977 1187
3 449 567 2052
3 1197 1198 1364
3 2154 1595 2486
3 1486 1849 2173
3 318 295 1983
3 939 1016 1844
3 131 132 2160
3 30 31 2159
3 881 1146 2215
3 1294 1868 2238
3 1300 1455 2314
3 1365 1364 1912
3 783 938 939
3 2061 1735 2441
3 551 545 601
3 2194 216 2536
3 1251 1257 1262
3 888 887 2177
3 1364 1198 2048
3 1498 1682 2340
3 1589 1590 2501
3 60 188 2266
3 1401 1913 2324
3 195 108 1991
3 420 422 423
3 1675 1470 2474
3 258 1673 2183
3 2161 1619 2438
3 1296 1472 2094
3 1808 1910 2381
3 334 803 2090
3 1490 1285 2232
3 523 511 524
3 1240 1238 2074
3 1184 1183 1185
3 39 40 2151
3 473 474 477
3 1461 1463 2200
3 2072 353 2073
3 861 862 863
3 1206 1941 2401
3 958 1575 2287
3 614 611 2092
3 110 111 2140
3 1136 2054 2110
3 645 594 2133
3 260 33 2002
3 673 767 2131
3 989 980 1359
3 1741 2131 2258
3 1317 1875 2148
3 894 1946 2122
3 863 864 865
3 787 461 2052
3 857 2277 2386
3 109 246 1991
3 2017 116 2018
3 1182 1183 1184
3 377 375 378
3 816 925 1324
3 865 866 901
3 1262 1263 1456
3 359 356 2065
3 2129 241 2472
3 283 1938 1971
3 1458 1210 2203
3 1076 1003 2145
3 196 1738 2402
3 1033 1130 1151
3 1188 1121 2106
3 1140 1702 2096
3 549 687 1280
3 1694 1621 2191
3 861 1064 2112
3 1548 1549 2129
3 1784 1071 2462
3 714 716 2066
3 1961 825 2455
3 1447 1211 2250
3 979 578 980
3 905 907 1209
3 381 378 382
3 457 469 552
3 595 575 2032
3 408 413 2084
3 481 483 2144
3 1745 1349 2293
3 1980 1405 2441
3 198 50 2011
3 248 115 2017
3 912 819 2068
3 620 858 859
3 707 708 720
3 821 674 822
3 514 542 2086
3 400 382 401
3 123 2005 2012
3 1772 1351 2374
3 34 239 2002
3 768 314 2127
3 2003 36 2004
3 280 282 2079
3 124 225 2005
3 596 595 2130
3 593 560 824
3 1504 1502 2519
3 239 35 2003
3 1311 1309 2147
3 1318 1877 2240
3 1860 1432 2311
3 1416 1715 2330
3 859 998 1153
3 352 353 2072
3 312 768 1987
3 2027 1174 2152
3 226 38 2006
3 1827 1024 2117
3 1710 1391 2295
3 690 624 691
3 37 226 2004
3 1153 1312 1885
3 853 855 2186
3 1892 242 2373
3 1967 520 2174
3 939 938 1016
3 47 249 2019
3 388 390 2078
3 1991 2139 2517
3 905 906 907
3 571 721 2032
3 1196 423 2035
3 1324 925 1325
3 1151 1130 1937
3 363 352 2072
3 345 349 2076
3 1031 1032 1033
3 214 179 1859
3 211 122 2012
3 602 601 652
3 117 205 2018
3 710 712 2067
3 1602 187 2357
3 520 2000 2174
3 85 242 2335
3 220 84 2335
3 381 400 2113
3 1586 1587 2435
3 424 401 425
3 963 1174 2027
3 860 691 861
3 610 596 2130
3 1958 2078 2431
3 570 547 2056
3 237 2216 2354
3 1211 1692 2219
3 298 358 1997
3 909 947 1041
3 441 456 2097
3 1135 1647 1849
3 1601 1542 2443
3 197 113 2009
3 49 198 2010
3 1911 347 2407
3 1729 191 2309
3 212 41 2020
3 121 211 2013
3 222 105 2218
3 1125 901 1126
3 114 248 2009
3 249 48 2010
3 42 250 2020
3 251 120 2013
3 233 1769 2369
3 1870 647 2113
3 794 345 2076
3 250 43 2024
3 119 251 2021
3 901 902 2141
3 964 570 2056
3 739 335 2261
3 2108 1317 2148
3 577 599 2083
3 205 118 2021
3 44 206 2024
3 1247 1241 2323
3 1894 992 2244
3 6 203 2049
3 1642 1678 2529
3 1417 1873 2333
3 1422 2023 2516
3 341 794 2100
3 73 74 2361
3 1234 1232 2088
3 1261 1254 2059
3 896 1077 2257
3 1921 710 2067
3 125 126 2284
3 220 1699 2289
3 159 5 2304
3 4 184 2303
3 2059 1252 2098
3 1003 1004 2145
3 2328 1325 2451
3 1486 227 1500
3 63 64 2162
3 2081 1192 2260
3 508 500 2102
3 667 1872 2318
3 338 334 2090
3 423 422 2035
3 1192 1126 1471
3 907 908 909
3 1330 1328 2192
3 1972 897 2500
3 2443 316 2514
3 242 86 2373
3 87 193 2373
3 420 1193 2084
3 1473 1086 2358
3 1987 768 2037
3 522 337 2100
3 627 1660 2185
3 1793 446 2264
3 1405 2061 2441
3 1502 1217 2302
3 171 201 2216
3 1158 1993 2153
3 1197 1365 2120
3 1712 1710 2295
3 1121 1401 2414
3 93 94 2166
3 653 652 688
3 622 1716 2452
3 1345 1720 2267
3 477 537 556
3 128 129 2181
3 2331 1295 2458
3 784 645 874
3 1269 1270 2199
3 189 102 2355
3 1041 1168 1343
3 246 110 2140
3 477 525 537
3 755 1895 2371
3 1947 1723 2313
3 1134 1135 2369
3 223 65 2395
3 968 1201 2107
3 1577 1578 2325
3 210 15 2477
3 961 363 2072
3 1581 1579 2352
3 349 357 2076
3 337 341 2100
3 305 303 2317
3 370 367 2103
3 762 296 1997
3 581 580 2164
3 1278 1838 2372
3 1548 2129 2472
3 594 593 2133
3 2021 251 2022
3 2047 1247 2182
3 967 968 2107
3 1169 947 2008
3 481 2144 2169
3 793 614 2092
3 1910 217 2381
3 1251 1262 2098
3 716 788 2066
3 2101 1334 2108
3 2006 39 2151
3 1603 2379 2508
3 1926 2006 2151
3 96 97 2526
3 750 755 2371
3 789 714 2066
3 909 918 947
3 1993 895 2153
3 106 1990 2218
3 1243 1240 2074
3 832 986 1189
3 1283 1284 2342
3 2297 195 2517
3 1043 829 2326
3 767 816 2131
3 602 653 676
3 1004 912 2068
3 2086 1886 2224
3 1124 2177 2467
3 426 401 2531
3 707 720 1030
3 1000 1001 2184
3 1315 1029 2184
3 467 481 2169
3 541 513 2256
3 647 381 2113
3 225 2284 2510
3 2 156 2356
3 187 0 2357
3 40 212 2151
3 2245 1386 2383
3 676 677 829
3 1004 2068 2069
3 1860 232 2487
3 1031 1033 1034
3 829 830 972
3 996 997 2408
3 1195 1194 2120
3 987 1869 2202
3 1410 1213 2222
3 819 820 2068
3 1485 1486 2173
3 1564 2030 2155
3 807 669 2529
3 129 261 2181
3 1525 1076 2145
3 578 577 2083
3 327 310 1987
3 1083 929 2197
3 2131 1324 2258
3 798 408 2084
3 1838 696 2426
3 1486 1500 1930
3 1946 1944 2291
3 2257 1077 2291
3 1512 1661 2266
3 445 388 2078
3 1192 1471 2260
3 2118 1415 2395
3 1466 1468 2158
3 830 677 831
3 211 2012 2251
3 652 601 2442
3 537 545 551
3 558 508 2102
3 198 2011 2128
3 1718 2280 2385
3 500 960 2102
3 1168 1169 1393
3 1127 971 2496
3 95 96 2309
3 2030 1565 2155
3 1919 1172 2273
3 977 860 2112
3 240 128 2181
3 294 762 2038
3 1800 1799 2195
3 712 789 2067
3 972 1749 2326
3 472 1683 2212
3 874 645 2133
3 551 2045 2201
3 2105 1043 2326
3 1957 1212 2301
3 1514 1856 2367
3 565 538 2167
3 373 370 2103
3 355 348 2196
3 1934 1272 2138
3 1934 426 2531
3 1881 1400 2481
3 2046 1851 2327
3 367 961 2103
3 1963 1152 2206
3 201 278 443
3 3 131 2444
3 31 1 2445
3 2035 441 2097
3 503 787 2198
3 1135 1849 1930
3 1534 1983 2306
3 2089 623 2150
3 687 704 2109
3 869 1351 2363
3 1302 1304 2205
3 955 1716 2484
3 1030 720 1031
3 1159 1318 2240
3 1228 1226 2281
3 947 918 2008
3 413 420 2084
3 785 879 2532
3 1041 947 1168
3 1468 2182 2323
3 1246 1234 2088
3 1730 1163 2372
3 542 555 2086
3 1599 631 2312
3 1146 1967 2174
3 1078 1136 2343
3 1515 1574 2180
3 2336 885 2469
3 1257 1243 2074
3 1347 1346 2279
3 2001 650 2206
3 1480 1601 2514
3 1029 1000 2184
3 1956 788 2336
3 1271 1261 2059
3 130 3 2444
3 1 32 2445
3 1570 1507 2197
3 1232 1255 2088
3 791 1642 2529
3 1601 1479 2269
3 1361 1362 2168
3 1634 1922 2281
3 765 2065 2190
3 2071 1158 2153
3 1699 1801 2289
3 832 831 833
3 1864 346 2344
3 456 476 2097
3 1855 828 2411
3 2065 1162 2190
3 1125 1192 2149
3 599 760 2083
3 361 765 2339
3 1731 2123 2241
3 1349 1181 1350
3 1443 1275 2251
3 1819 524 2429
3 1021 1045 2512
3 858 618 2132
3 1999 358 2338
3 368 292 2038
3 290 368 2135
3 803 331 2296
3 1112 1008 2152
3 56 1947 2313
3 555 979 2086
3 1469 1496 2182
3 1011 967 2107
3 248 2017 2288
3 1809 789 2425
3 960 453 2221
3 538 558 2167
3 1858 1187 2248
3 2246 1757 2526
3 902 905 2141
3 1851 1853 2327
3 1224 1222 2111
3 771 288 2135
3 1945 2153 2257
3 1420 1525 2489
3 1399 1123 2393
3 103 2025 2355
3 897 822 898
3 1861 940 2532
3 865 1125 2146
3 1675 2474 2522
3 1573 2157 2507
3 1632 1631 2382
3 551 601 602
3 527 503 2198
3 1708 805 2337
3 1059 1278 2372
3 2056 527 2198
3 860 861 2112
3 1668 2348 2398
3 255 2159 2265
3 1541 1542 2269
3 1428 2074 2227
3 1582 1583 2321
3 389 1774 2503
3 2004 226 2157
3 1777 397 2405
3 1368 1436 2254
3 1061 2409 2462
3 1071 930 2462
3 1126 901 2141
3 1194 1197 2120
3 1452 1952 2282
3 2116 1319 2482
3 105 106 2218
3 1981 1399 2393
3 2119 983 2143
3 444 1682 2461
3 2173 1648 2463
3 616 793 2132
3 1791 1190 2334
3 1826 1728 2259
3 602 652 653
3 1834 1292 2428
3 556 2201 2327
3 1014 1015 2385
3 1995 1287 2331
3 1193 1195 2189
3 816 1324 2131
3 879 1861 2532
3 593 1182 2133
3 1402 266 1742
3 2216 1323 2354
3 1660 1636 2502
3 620 955 2484
3 1162 1706 2190
3 1870 2113 2249
3 204 1680 1732
3 1909 2023 2420
3 217 72 2217
3 376 372 2430
3 905 1209 2141
3 1378 1381 2283
3 1236 1246 2227
3 286 771 2063
3 1635 2263 2502
3 100 101 2220
3 1139 898 1140
3 2114 1343 2136
3 442 284 2063
3 1772 2106 2414
3 1985 1755 2533
3 2192 1328 2315
3 1064 863 2146
3 1631 1637 2459
3 736 2049 2523
3 221 1906 2246
3 318 1983 2171
3 1496 2047 2182
3 1374 2139 2506
3 196 55 2313
3 2087 462 2134
3 676 653 677
3 2304 257 2491
3 1401 2324 2363
3 829 677 830
3 654 2223 2242
3 1187 977 2112
3 1463 1466 2200
3 2023 219 2516
3 1176 881 2215
3 513 471 2290
3 1812 459 2252
3 1386 1269 2199
3 291 758 2306
3 618 616 2132
3 278 280 2210
3 83 220 2289
3 82 83 2289
3 938 1057 2161
3 1189 986 1190
3 788 719 2336
3 1914 2001 2206
3 232 181 1652
3 1567 2062 2490
3 313 757 2495
3 622 619 2484
3 688 878 1320
3 1222 1626 2111
3 282 442 2079
3 1169 2008 2105
3 1966 1007 2308
3 2040 799 2237
3 1744 2229 2495
3 986 833 1063
3 2284 1605 2510
3 887 1961 2376
3 215 1624 2262
3 830 831 832
3 476 475 2224
3 439 451 2223
3 1932 1933 2380
3 2227 1246 2366
3 1212 1202 2301
3 1107 1110 2228
3 249 2010 2299
3 1983 293 2306
3 2055 1214 2237
3 1438 1372 2478
3 824 560 2156
3 2320 1866 2513
3 1351 1137 2374
3 868 2007 2232
3 2063 771 2064
3 1507 214 1508
3 1728 1727 2246
3 1045 1047 2348
3 1139 1140 2096
3 1648 1649 2463
3 1502 2302 2519
3 704 707 2109
3 2343 1136 2396
3 650 1963 2206
3 2153 895 2257
3 396 1958 2431
3 1379 1377 2288
3 2115 1471 2319
3 2033 987 2202
3 2239 1693 2518
3 2025 1488 2355
3 1209 2115 2319
3 523 524 2156
3 783 939 2243
3 376 1798 2497
3 2066 788 2193
3 1984 318 2172
3 425 427 2221
3 203 172 1847
3 446 457 2264
3 1312 2089 2150
3 2138 1272 2211
3 897 1139 2274
3 828 1819 2429
3 1249 1224 2111
3 666 667 2318
3 1371 1326 2194
3 2433 1499 2475
3 1272 1271 2211
3 1367 2254 2479
3 1386 2053 2383
3 2074 1238 2227
3 755 2148 2320
3 2117 1604 2428
3 475 514 2224
3 228 2187 2457
3 1868 1504 2520
3 1626 1218 2185
3 2123 1111 2241
3 1287 1049 2331
3 1280 687 2109
3 459 1814 2292
3 54 196 2402
3 863 865 2146
3 204 176 1680
3 514 2086 2224
3 1646 603 2398
3 112 197 2346
3 358 300 2338
3 1140 898 1141
3 1204 1335 2301
3 1016 2161 2438
3 909 1041 2175
3 1681 2448 2492
3 2252 459 2292
3 1992 868 2232
3 1035 1036 2235
3 1051 1295 2331
3 1836 1289 2242
3 1508 214 1859
3 247 53 2402
3 1016 938 2161
3 1408 856 2378
3 1466 2158 2200
3 725 885 2336
3 855 1450 2421
3 2023 1768 2420
3 1238 1236 2227
3 1679 202 2253
3 2107 1348 2233
3 1653 1431 2487
3 1946 2291 2343
3 2253 202 2329
3 1885 1312 2150
3 378 628 2390
3 2195 1383 2432
3 1520 1519 2480
3 1532 1733 2534
3 308 327 2278
3 953 951 2255
3 1213 1407 2222
3 1561 1563 2285
3 302 763 2338
3 1928 2033 2202
3 763 304 2345
3 832 833 986
3 1352 2040 2237
3 247 1881 2481
3 560 523 2156
3 335 339 2261
3 346 342 2344
3 201 443 1323
3 2301 1335 2466
3 323 320 2229
3 1136 2110 2396
3 1139 1977 2274
3 1809 1615 2423
3 1707 1791 2334
3 46 2019 2485
3 2064 1294 2238
3 1950 197 2404
3 2021 2022 2176
3 1949 245 2420
3 2044 2152 2207
3 1063 1154 1707
3 1012 1363 2406
3 280 2079 2210
3 2237 1214 2351
3 820 698 2318
3 1140 1141 1406
3 205 2021 2176
3 2043 786 2310
3 2145 1004 2446
3 707 1030 2109
3 1406 2460 2473
3 2137 1268 2226
3 16 2081 2260
3 567 2031 2219
3 2112 1064 2248
3 206 45 2485
3 2347 1462 2365
3 1650 1962 2362
3 453 425 2221
3 1209 907 2175
3 1111 1276 2241
3 2448 1145 2492
3 2051 2083 2243
3 59 60 2266
3 1402 1742 2530
3 831 677 2209
3 624 587 2276
3 238 174 1725
3 1011 2107 2233
3 468 2365 2412
3 2337 805 2371
3 254 1932 2380
3 1174 1398 2207
3 2140 111 2346
3 1381 2186 2283
3 1987 2037 2188
3 1740 559 2456
3 1773 391 2503
3 1335 1870 2249
3 1945 2257 2291
3 828 463 2411
3 1246 2088 2208
3 2060 798 2307
3 1773 1159 2240
3 1187 2112 2248
3 1352 2237 2351
3 2037 1322 2188
3 1941 1499 2433
3 2322 225 2510
3 1031 1034 2236
3 327 2188 2321
3 595 2032 2273
3 1464 1462 2347
3 1285 1992 2232
3 799 2055 2237
3 443 278 2210
3 784 874 2178
3 392 396 2431
3 191 95 2309
3 879 784 2178
3 524 511 2429
3 2128 2011 2270
3 895 896 2257
3 2206 1152 2324
3 318 2171 2172
3 2259 1549 2379
3 1214 1410 2351
3 306 308 2278
3 2022 251 2247
3 1757 1729 2309
3 1283 1918 2524
3 996 1706 2492
3 557 2044 2207
3 1798 1448 2364
3 1447 2250 2310
3 559 1750 2403
3 1363 1011 2233
3 1343 1168 2187
3 1407 2044 2256
3 1462 1460 2365
3 1995 2331 2458
3 327 1987 2188
3 2160 254 2380
3 1681 958 2287
3 2031 1160 2250
3 1600 689 2413
3 2219 1692 2239
3 1494 1675 2522
3 1281 1916 2448
3 907 909 2175
3 565 2167 2276
3 2241 1276 2275
3 1978 316 2443
3 2151 212 2350
3 203 1847 2104
3 2049 1481 2523
3 1961 1362 2376
3 2187 1393 2457
3 940 796 2532
3 2293 1349 2329
3 572 1897 2537
3 332 739 2282
3 2052 567 2239
3 1437 1370 2277
3 567 2219 2239
3 667 626 2452
3 1914 2206 2324
3 2243 939 2392
3 2136 1343 2187
3 257 1654 2530
3 1376 1378 2283
3 2076 1982 2272
3 2083 760 2243
3 1944 1945 2291
3 1771 1839 2359
3 1404 1403 2399
3 1875 1866 2320
3 1460 1337 2412
3 760 783 2243
3 1276 1366 2275
3 1428 2227 2366
3 1882 1605 2284
3 1739 1429 2459
3 2321 2188 2434
3 1328 1327 2315
3 798 2189 2307
3 2152 1174 2207
3 2182 1247 2323
3 1516 1514 2367
3 293 291 2306
3 556 537 2201
3 1298 1300 2314
3 1400 1399 2316
3 1649 2236 2463
3 833 831 2424
3 2127 2050 2333
3 1057 914 2328
3 1839 193 2359
3 761 1741 2258
3 1186 1970 2422
3 1429 2366 2382
3 2211 1271 2271
3 1733 1248 2534
3 13 2114 2136
3 2078 390 2431
3 1533 1536 2340
3 1690 2145 2446
3 1277 2308 2370
3 1168 1393 2187
3 1597 2047 2268
3 587 565 2276
3 1908 244 2401
3 225 125 2284
3 610 2130 2468
3 1749 2105 2326
3 1913 1914 2324
3 2366 2208 2382
3 1391 1876 2295
3 457 552 2264
3 653 688 2209
3 1601 2443 2514
3 682 2138 2211
3 992 1980 2244
3 55 56 2313
3 1645 1495 2493
3 473 477 2483
3 202 1724 2329
3 465 828 2429
3 1277 1966 2308
3 1416 2330 2406
3 1912 1364 2455
3 1716 1483 2375
3 2019 1651 2485
3 1725 2137 2226
3 201 1323 2216
3 878 1083 2213
3 2072 2073 2245
3 1563 1777 2405
3 244 2028 2401
3 2016 1564 2422
3 1682 1497 2461
3 1962 1153 2362
3 1298 2314 2358
3 1384 1385 2391
3 688 1320 2209
3 1587 2179 2435
3 786 380 2497
3 1395 1522 2341
3 2032 1919 2273
3 251 2013 2247
3 2219 2031 2250
3 2397 552 2453
3 1765 255 2489
3 2475 1825 2524
3 1202 1204 2301
3 445 2078 2411
3 323 2229 2296
3 1286 2384 2408
3 537 551 2201
3 1724 237 2293
3 84 85 2335
3 1471 1126 2319
3 1635 1634 2511
3 300 302 2338
3 698 666 2318
3 1030 1031 2236
3 2098 1457 2271
3 696 1821 2426
3 1457 1492 2447
3 1956 2336 2469
3 331 323 2296
3 1284 1491 2342
3 2011 1996 2270
3 256 183 2303
3 160 257 2304
3 2204 1589 2501
3 1891 1014 2280
3 719 725 2336
3 1354 1808 2381
3 437 430 2494
3 2377 218 2391
3 2211 2271 2447
3 1407 2256 2290
3 2365 1460 2412
3 2047 1498 2268
3 1825 1283 2524
3 1499 1825 2475
3 1226 1249 2281
3 2051 2243 2392
3 2250 1160 2310
3 111 112 2346
3 304 306 2345
3 1341 1352 2351
3 2166 191 2504
3 2223 1836 2242
3 1996 247 2481
3 1049 1051 2331
3 1086 1298 2358
3 2130 595 2273
3 1249 2111 2263
3 680 1995 2458
3 1511 2140 2346
3 102 103 2355
3 469 473 2453
3 961 2072 2245
3 2073 1282 2245
3 1442 1443 2525
3 74 192 2361
3 2163 1586 2435
3 1519 1518 2449
3 897 2274 2500
3 303 444 2317
3 1615 1614 2423
3 197 2009 2404
3 1634 2281 2511
3 1780 1781 2419
3 1435 1623 2465
3 1286 1774 2384
3 384 361 2339
3 193 1901 2359
3 1165 2433 2475
3 2277 1370 2386
3 677 653 2209
3 1994 1516 2367
3 1479 1478 2440
3 1165 1512 2433
3 1644 1353 2417
3 1711 1712 2353
3 2193 1615 2425
3 1613 1956 2469
3 1440 1173 2330
3 2269 1479 2440
3 222 2218 2465
3 391 389 2503
3 306 2278 2345
3 468 2090 2365
3 221 2246 2526
3 1445 1446 2504
3 939 1844 2392
3 86 87 2373
3 1429 1428 2366
3 2053 2103 2383
3 1348 1212 2312
3 805 750 2371
3 997 1286 2408
3 1152 869 2363
3 2063 2064 2238
3 192 1994 2367
3 1160 2043 2310
3 1926 2151 2350
3 2059 2098 2271
3 1897 1366 2537
3 215 2262 2437
3 1655 1732 2476
3 2415 1128 2454
3 1320 2213 2214
3 7 258 2357
3 259 155 2356
3 2171 1530 2172
3 347 351 2407
3 1077 1078 2343
3 239 2003 2279
3 1446 1128 2415
3 1034 1033 2410
3 601 627 2442
3 1154 1653 2234
3 397 2060 2405
3 2142 794 2272
3 442 2063 2238
3 1863 1215 2378
3 794 2076 2272
3 1883 1375 2505
3 1320 878 2213
3 342 468 2344
3 1903 218 2377
3 380 376 2497
3 1549 1547 2379
3 1148 1165 2475
3 2157 226 2507
3 829 972 2326
3 884 1957 2466
3 2291 1077 2343
3 65 66 2395
3 787 2052 2518
3 2298 1348 2312
3 1946 2343 2396
3 1653 256 2535
3 1842 1548 2472
3 1957 2301 2466
3 1366 1277 2370
3 2213 1432 2214
3 961 2245 2383
3 218 2093 2391
3 1376 2283 2421
3 1873 2127 2333
3 1019 1021 2512
3 1128 1127 2454
3 1104 1434 2450
3 2130 1439 2468
3 2396 2110 2482
3 2186 855 2283
3 1724 2293 2329
3 1163 1059 2372
3 1614 2389 2423
3 53 54 2402
3 1063 1707 2334
3 2283 855 2421
3 1385 1863 2436
3 364 1883 2505
3 517 1890 2387
3 1145 996 2492
3 1047 1287 2348
3 2148 1875 2320
3 205 2176 2416
3 1372 1844 2478
3 1211 2219 2250
3 1141 898 2368
3 245 1909 2420
3 2278 327 2321
3 2389 1397 2423
3 2256 513 2290
3 559 2403 2456
3 1137 1340 2374
3 2093 1384 2391
3 1918 1148 2524
3 1030 2236 2427
3 1867 1895 2513
3 2014 517 2387
3 2271 1457 2447
3 1143 2028 2353
3 1904 194 2432
3 1148 2475 2524
3 1574 1523 2436
3 2213 1083 2311
3 1997 358 2325
3 2139 246 2506
3 1370 1369 2386
3 1271 2059 2271
3 1034 2173 2463
3 1123 1412 2393
3 1578 1827 2515
3 2209 1320 2424
3 2079 1504 2210
3 1361 2168 2305
3 1491 1489 2403
3 238 1725 2226
3 1190 986 2334
3 1547 1545 2508
3 1891 1613 2469
3 1153 1885 2362
3 2208 1632 2382
3 2287 1281 2448
3 1356 1376 2421
3 1965 2349 2515
3 2155 1186 2422
3 1522 2014 2387
3 2158 1468 2323
3 2050 954 2333
3 1397 1809 2423
3 1362 1360 2376
3 1852 1985 2397
3 2069 1691 2446
3 789 2066 2425
3 1895 755 2513
3 1707 1154 2234
3 372 374 2430
3 2225 787 2518
3 2028 1206 2401
3 986 1063 2334
3 1912 726 2439
3 1340 1342 2400
3 1916 1145 2448
3 2236 1649 2427
3 2374 1340 2400
3 2222 1407 2290
3 2324 1152 2363
3 241 2220 2472
3 765 2190 2384
3 2375 667 2452
3 2330 1173 2406
3 1181 1972 2500
3 2126 1382 2388
3 1173 1012 2406
3 315 313 2495
3 1015 1373 2385
3 97 221 2526
3 1937 1397 2389
3 930 1061 2462
3 971 1096 2496
3 45 46 2485
3 669 791 2529
3 1104 2450 2521
3 382 378 2390
3 2191 1371 2536
3 2235 1036 2286
3 831 2209 2424
3 762 1997 2349
3 2379 1547 2508
3 2177 1359 2467
3 2403 1489 2456
3 796 785 2532
3 219 1902 2516
3 1519 2300 2480
3 1065 1655 2476
3 1375 1473 2505
3 1489 1490 2456
3 390 392 2431
3 2247 2013 2464
3 1135 1930 2369
3 2278 1583 2345
3 626 622 2452
3 631 2298 2312
3 2233 1348 2298
3 1398 1974 2499
3 1706 1681 2492
3 261 130 2444
3 32 260 2445
3 822 2099 2368
3 1365 1912 2439
3 941 940 2418
3 1446 2166 2504
3 2106 1121 2414
3 2300 1519 2449
3 1803 1104 2521
3 1732 1570 2476
3 1413 2051 2392
3 2122 1946 2396
3 2238 1868 2520
3 477 556 2483
3 2397 1985 2533
3 463 445 2411
3 2163 1185 2488
3 1126 2141 2319
3 1755 2264 2533
3 972 2204 2501
3 2230 1533 2340
3 1774 1773 2503
3 1997 2325 2349
3 1004 2069 2446
3 2159 31 2445
3 131 2160 2444
3 1371 2191 2451
3 1001 2154 2486
3 1682 2230 2340
3 2103 961 2383
3 1033 1151 2410
3 382 2390 2531
3 1504 2079 2520
3 1583 2278 2321
3 511 465 2429
3 250 2024 2479
3 2208 2088 2509
3 619 620 2484
3 1246 2208 2366
3 2141 1209 2319
3 1359 1413 2467
3 1295 1459 2458
3 2218 1435 2465
3 2281 1249 2511
3 2293 237 2354
3 2207 1398 2499
3 1564 2155 2422
3 552 469 2453
3 1947 224 2498
3 2062 1568 2490
3 2018 205 2416
3 260 2159 2445
3 2160 261 2444
3 2092 610 2468
3 194 2195 2432
3 1432 2213 2311
3 211 2251 2464
3 2378 856 2527
3 1536 1532 2534
3 2364 786 2497
3 2438 1438 2478
3 1185 1948 2488
3 2042 941 2418
3 1582 2321 2434
3 885 1891 2469
3 1364 2048 2455
3 1693 2225 2518
3 401 382 2531
3 1338 2247 2464
3 442 2238 2520
3 1292 2117 2428
3 2274 1350 2500
3 2066 2193 2425
3 2179 1184 2435
3 898 822 2368
3 2436 1863 2527
3 1844 1016 2478
3 2184 1001 2486
3 557 2207 2499
3 2013 211 2464
3 2254 250 2479
3 1350 1181 2500
3 2009 248 2470
3 246 2140 2506
3 1574 2436 2527
3 2139 1419 2517
3 316 1971 2514
3 1319 2122 2482
3 226 2006 2507
3 1400 2270 2481
3 1681 2287 2448
3 2325 1578 2349
3 232 1652 2487
3 1320 2214 2424
3 1632 2208 2509
3 248 2288 2470
3 1406 1141 2460
3 2188 1322 2434
3 2244 1980 2441
3 2088 1255 2509
3 1280 2109 2427
3 2060 2307 2405
3 2236 1034 2463
3 1745 2293 2354
3 2122 2396 2482
3 2109 1030 2427
3 2307 1563 2405
3 1429 2382 2459
3 224 2267 2498
3 682 2211 2447
3 2079 442 2520
3 2348 1287 2398
3 2220 1842 2472
3 1335 2249 2466
3 1249 2263 2511
3 443 2210 2519
3 2385 1373 2394
3 1594 2184 2486
3 2052 2239 2518
3 1568 2439 2490
3 2349 1578 2515
3 2344 468 2412
3 2270 1996 2481
3 1735 2244 2441
3 2260 1471 2477
3 2210 1504 2519
3 1434 2297 2450
3 2297 1419 2450
3 2263 1660 2502
3 2404 2009 2470
3 1718 2385 2394
3 1371 2194 2536
3 2317 444 2461
3 1443 2322 2525
3 1716 2375 2452
3 1863 2378 2527
3 2439 726 2490
3 1057 2328 2451
3 1638 2404 2470
3 1454 2234 2535
3 755 2320 2513
3 2234 1653 2535
3 2264 552 2533
3 1419 2297 2517
3 1392 2322 2510
3 552 2397 2533
3 1798 2364 2497
3 2322 1392 2525
3 2382 1631 2459
3 1016 2438 2478
3 1366 2370 2537
3 1742 2491 2530
3 2491 257 2530
CELL_TYPES 4886
5
5
5
5
5
5
5
5
5
5
5
5
5
5
5
5
5
5
5
5
5
5
5
5
5
5
5
5
5
5
5
5
5
5
5
5
5
5
5
5
5
5
5
5
5
5
5
5
5
5
5
5
5
5
5
5
5
5
5
5
5
5
5
5
5
5
5
5
5
5
5
5
5
5
5
5
5
5
5
5
5
5
5
5
5
5
5
5
5
5
5
5
5
5
5
5
5
5
5
5
5
5
5
5
5
5
5
5
5
5
5
5
5
5
5
5
5
5
5
5
5
5
5
5
5
5
5
5
5
5
5
5
5
5
5
5
5
5
5
5
5
5
5
5
5
5
5
5
5
5
5
5
5
5
5
5
5
5
5
5
5
5
5
5
5
5
5
5
5
5
5
5
5
5
5
5
5
5
5
5
5
5
5
5
5
5
5
5
5
5
5
5
5
5
5
5
5
5
5
5
5
5
5
5
5
5
5
5
5
5
5
5
5
5
5
5
5
5
5
5
5
5
5
5
5
5
5
5
5
5
5
5
5
5
5
5
5
5
5
5
5
5
5
5
5
5
5
5
5
5
5
5
5
5
5
5
5
5
5
5
5
5
5
5
5
5
5
5
5
5
5
5
5
5
5
5
5
5
5
5
5
5
5
5
5
5
5
5
5
5
5
5
5
5
5
5
5
5
5
5
5
5
5
5
5
5
5
5
5
5
5
5
5
5
5
5
5
5
5
5
5
5
5
5
5
5
5
5
5
5
5
5
5
5
5
5
5
5
5
5
5
5
5
5
5
5
5
5
5
5
5
5
5
5
5
5
5
5
5
5
5
5
5
5
5
5
5
5
5
5
5
5
5
5
5
5
5
5
5
5
5
5
5
5
5
5
5
5
5
5
5
5
5
5
5
5
5
5
5
5
5
5
5
5
5
5
5
5
5
5
5
5
5
5
5
5
5
5
5
5
5
5
5
5
5
5
5
5
5
5
5
5
5
5
5
5
5
5
5
5
5
5
5
5
5
5
5
5
5
5
5
5
5
5
5
5
5
5
5
5
5
5
5
5
5
5
5
5
5
5
5
5
5
5
5
5
5
5
5
5
5
5
5
5
5
5
5
5
5
5
5
5
5
5
5
5
5
5
5
5
5
5
5
5
5
5
5
5
5
5
5
5
5
5
5
5
5
5
5
5
5
5
5
5
5
5
5
5
5
5
5
5
5
5
5
5
5
5
5
5
5
5
5
5
5
5
5
5
5
5
5
5
5
5
5
5
5
5
5
5
5
5
5
5
5
5
5
5
5
5
5
5
5
5
5
5
5
5
5
5
5
5
5
5
5
5
5
5
5
5
5
5
5
5
5
5
5
5
5
5
5
5
5
5
5
5
5
5
5
5
5
5
5
5
5
5
5
5
5
5
5
5
5
5
5
5
5
5
5
5
5
5
5
5
5
5
5
5
5
5
5
5
5
5
5
5
5
5
5
5
5
5
5
5
5
5
5
5
5
5
5
5
5
5
5
5
5
5
5
5
5
5
5
5
5
5
5
5
5
5
5
5
5
5
5
5
5
5
5
5
5
5
5
5
5
5
5
5
5
5
5
5
5
5
5
5
5
5
5
5
5
5
5
5
5
5
5
5
5
5
5
5
5
5
5
5
5
5
5
5
5
5
5
5
5
5
5
5
5
5
5
5
5
5
5
5
5
5
5
5
5
5
5
5
5
5
5
5
5
5
5
5
5
5
5
5
5
5
5
5
5
5
5
5
5
5
5
5
5
5
5
5
5
5
5
5
5
5
5
5
5
5
5
5
5
5
5
5
5
5
5
5
5
5
5
5
5
5
5
5
5
5
5
5
5
5
5
5
5
5
5
5
5
5
5
5
5
5
5
5
5
5
5
5
5
5
5
5
5
5
5
5
5
5
5
5
5
5
5
5
5
5
5
5
5
5
5
5
5
5
5
5
5
5
5
5
5
5
5
5
5
5
5
5
5
5
5
5
5
5
5
5
5
5
5
5
5
5
5
5
5
5
5
5
5
5
5
5
5
5
5
5
5
5
5
5
5
5
5
5
5
5
5
5
5
5
5
5
5
5
5
5
5
5
5
5
5
5
5
5
5
5
5
5
5
5
5
5
5
5
5
5
5
5
5
5
5
5
5
5
5
5
5
5
5
5
5
5
5
5
5
5
5
5
5
5
5
5
5
5
5
5
5
5
5
5
5
5
5
5
5
5
5
5
5
5
5
5
5
5
5
5
5
5
5
5
5
5
5
5
5
5
5
5
5
5
5
5
5
5
5
5
5
5
5
5
5
5
5
5
5
5
5
5
5
5
5
5
5
5
5
5
5
5
5
5
5
5
5
5
5
5
5
5
5
5
5
5
5
5
5
5
5
5
5
5
5
5
5
5
5
5
5
5
5
5
5
5
5
5
5
5
5
5
5
5
5
5
5
5
5
5
5
5
5
5
5
5
5
5
5
5
5
5
5
5
5
5
5
5
5
5
5
5
5
5
5
5
5
5
5
5
5
5
5
5
5
5
5
5
5
5
5
5
5
5
5
5
5
5
5
5
5
5
5
5
5
5
5
5
5
5
5
5
5
5
5
5
5
5
5
5
5
5
5
5
5
5
5
5
5
5
5
5
5
5
5
5
5
5
5
5
5
5
5
5
5
5
5
5
5
5
5
5
5
5
5
5
5
5
5
5
5
5
5
5
5
5
5
5
5
5
5
5
5
5
5
5
5
5
5
5
5
5
5
5
5
5
5
5
5
5
5
5
5
5
5
5
5
5
5
5
5
5
5
5
5
5
5
5
5
5
5
5
5
5
5
5
5
5
5
5
5
5
5
5
5
5
5
5
5
5
5
5
5
5
5
5
5
5
5
5
5
5
5
5
5
5
5
5
5
5
5
5
5
5
5
5
5
5
5
5
5
5
5
5
5
5
5
5
5
5
5
5
5
5
5
5
5
5
5
5
5
5
5
5
5
5
5
5
5
5
5
5
5
5
5
5
5
5
5
5
5
5
5
5
5
5
5
5
5
5
5
5
5
5
5
5
5
5
5
5
5
5
5
5
5
5
5
5
5
5
5
5
5
5
5
5
5
5
5
5
5
5
5
5
5
5
5
5
5
5
5
5
5
5
5
5
5
5
5
5
5
5
5
5
5
5
5
5
5
5
5
5
5
5
5
5
5
5
5
5
5
5
5
5
5
5
5
5
5
5
5
5
5
5
5
5
5
5
5
5
5
5
5
5
5
5
5
5
5
5
5
5
5
5
5
5
5
5
5
5
5
5
5
5
5
5
5
5
5
5
5
5
5
5
5
5
5
5
5
5
5
5
5
5
5
5
5
5
5
5
5
5
5
5
5
5
5
5
5
5
5
5
5
5
5
5
5
5
5
5
5
5
5
5
5
5
5
5
5
5
5
5
5
5
5
5
5
5
5
5
5
5
5
5
5
5
5
5
5
5
5
5
5
5
5
5
5
5
5
5
5
5
5
5
5
5
5
5
5
5
5
5
5
5
5
5
5
5
5
5
5
5
5
5
5
5
5
5
5
5
5
5
5
5
5
5
5
5
5
5
5
5
5
5
5
5
5
5
5
5
5
5
5
5
5
5
5
5
5
5
5
5
5
5
5
5
5
5
5
5
5
5
5
5
5
5
5
5
5
5
5
5
5
5
5
5
5
5
5
5
5
5
5
5
5
5
5
5
5
5
5
5
5
5
5
5
5
5
5
5
5
5
5
5
5
5
5
5
5
5
5
5
5
5
5
5
5
5
5
5
5
5
5
5
5
5
5
5
5
5
5
5
5
5
5
5
5
5
5
5
5
5
5
5
5
5
5
5
5
5
5
5
5
5
5
5
5
5
5
5
5
5
5
5
5
5
5
5
5
5
5
5
5
5
5
5
5
5
5
5
5
5
5
5
5
5
5
5
5
5
5
5
5
5
5
5
5
5
5
5
5
5
5
5
5
5
5
5
5
5
5
5
5
5
5
5
5
5
5
5
5
5
5
5
5
5
5
5
5
5
5
5
5
5
5
5
5
5
5
5
5
5
5
5
5
5
5
5
5
5
5
5
5
5
5
5
5
5
5
5
5
5
5
5
5
5
5
5
5
5
5
5
5
5
5
5
5
5
5
5
5
5
5
5
5
5
5
5
5
5
5
5
5
5
5
5
5
5
5
5
5
5
5
5
5
5
5
5
5
5
5
5
5
5
5
5
5
5
5
5
5
5
5
5
5
5
5
5
5
5
5
5
5
5
5
5
5
5
5
5
5
5
5
5
5
5
5
5
5
5
5
5
5
5
5
5
5
5
5
5
5
5
5
5
5
5
5
5
5
5
5
5
5
5
5
5
5
5
5
5
5
5
5
5
5
5
5
5
5
5
5
5
5
5
5
5
5
5
5
5
5
5
5
5
5
5
5
5
5
5
5
5
5
5
5
5
5
5
5
5
5
5
5
5
5
5
5
5
5
5
5
5
5
5
5
5
5
5
5
5
5
5
5
5
5
5
5
5
5
5
5
5
5
5
5
5
5
5
5
5
5
5
5
5
5
5
5
5
5
5
5
5
5
5
5
5
5
5
5
5
5
5
5
5
5
5
5
5
5
5
5
5
5
5
5
5
5
5
5
5
5
5
5
5
5
5
5
5
5
5
5
5
5
5
5
5
5
5
5
5
5
5
5
5
5
5
5
5
5
5
5
5
5
5
5
5
5
5
5
5
5
5
5
5
5
5
5
5
5
5
5
5
5
5
5
5
5
5
5
5
5
5
5
5
5
5
5
5
5
5
5
5
5
5
5
5
5
5
5
5
5
5
5
5
5
5
5
5
5
5
5
5
5
5
5
5
5
5
5
5
5
5
5
5
5
5
5
5
5
5
5
5
5
5
5
5
5
5
5
5
5
5
5
5
5
5
5
5
5
5
5
5
5
5
5
5
5
5
5
5
5
5
5
5
5
5
5
5
5
5
5
5
5
5
5
5
5
5
5
5
5
5
5
5
5
5
5
5
5
5
5
5
5
5
5
5
5
5
5
5
5
5
5
5
5
5
5
5
5
5
5
5
5
5
5
5
5
5
5
5
5
5
5
5
5
5
5
5
5
5
5
5
5
5
5
5
5
5
5
5
5
5
5
5
5
5
5
5
5
5
5
5
5
5
5
5
5
5
5
5
5
5
5
5
5
5
5
5
5
5
5
5
5
5
5
5
5
5
5
5
5
5
5
5
5
5
5
5
5
5
5
5
5
5
5
5
5
5
5
5
5
5
5
5
5
5
5
5
5
5
5
5
5
5
5
5
5
5
5
5
5
5
5
5
5
5
5
5
5
5
5
5
5
5
5
5
5
5
5
5
5
5
5
5
5
5
5
5
5
5
5
5
5
5
5
5
5
5
5
5
5
5
5
5
5
5
5
5
5
5
5
5
5
5
5
5
5
5
5
5
5
5
5
5
5
5
5
5
5
5
5
5
5
5
5
5
5
5
5
5
5
5
5
5
5
5
5
5
5
5
5
5
5
5
5
5
5
5
5
5
5
5
5
5
5
5
5
5
5
5
5
5
5
5
5
5
5
5
5
5
5
5
5
5
5
5
5
5
5
5
5
5
5
5
5
5
5
5
5
5
5
5
5
5
5
5
5
5
5
5
5
5
5
5
5
5
5
5
5
5
5
5
5
5
5
5
5
5
5
5
5
5
5
5
5
5
5
5
5
5
5
5
5
5
5
5
5
5
5
5
5
5
5
5
5
5
5
5
5
5
5
5
5
5
5
5
5
5
5
5
5
5
5
5
5
5
5
5
5
5
5
5
5
5
5
5
5
5
5
5
5
5
5
5
5
5
5
5
5
5
5
5
5
5
5
5
5
5
5
5
5
5
5
5
5
5
5
5
5
5
5
5
5
5
5
5
5
5
5
5
5
5
5
5
5
5
5
5
5
5
5
5
5
5
5
5
5
5
5
5
5
5
5
5
5
5
5
5
5
5
5
5
5
5
5
5
5
5
5
5
5
5
5
5
5
5
5
5
5
5
5
5
5
5
5
5
5
5
5
5
5
5
5
5
5
5
5
5
5
5
5
5
5
5
5
5
5
5
5
5
5
5
5
5
5
5
5
5
5
5
5
5
5
5
5
5
5
5
5
5
5
5
5
5
5
5
5
5
5
5
5
5
5
5
5
5
5
5
5
5
5
5
5
5
5
5
5
5
5
5
5
5
5
5
5
5
5
5
5
5
5
5
5
5
5
5
5
5
5
5
5
5
5
5
5
5
5
5
5
5
5
5
5
5
5
5
5
5
5
5
5
5
5
5
5
5
5
5
5
5
5
5
5
5
5
5
5
5
5
5
5
5
5
5
5
5
5
5
5
5
5
5
5
5
5
5
5
5
5
5
5
5
5
5
5
5
5
5
5
5
5
5
5
5
5
5
5
5
5
5
5
5
5
5
5
5
5
5
5
5
5
5
5
5
5
5
5
5
5
5
5
5
5
5
5
5
5
5
5
5
5
5
5
5
5
5
5
5
5
5
5
5
5
5
5
5
5
5
5
5
5
5
5
5
5
5
5
5
5
5
5
5
5
5
5
5
5
5
5
5
5
5
5
5
5
5
5
5
5
5
5
5
5
5
5
5
5
5
5
5
5
5
5
5
5
5
5
5
5
5
5
5
5
5
5
5
5
5
5
5
5
5
5
5
5
5
5
5
5
5
5
5
5
5
5
5
5
5
5
5
5
5
5
5
5
5
5
5
5
5
5
5
5
5
5
5
5
5
5
5
5
5
5
5
5
5
5
5
5
5
5
5
5
5
5
5
5
5
5
5
5
5
5
5
5
5
5
5
5
5
5
5
5
5
5
5
5
5
5
5
5
5
5
5
5
5
5
5
5
5
5
5
5
5
5
5
5
5
5
5
5
5
5
5
5
5
5
5
5
5
5
5
5
5
5
5
5
5
5
5
5
5
5
5
5
5
5
5
5
5
5
5
5
5
5
5
5
5
5
5
5
5
5
5
5
5
5
5
5
5
5
5
5
5
5
5
5
5
5
5
5
5
5
5
5
5
5
5
5
5
5
5
5
5
5
5
5
5
5
5
5
5
5
5
5
5
5
5
5
5
5
5
5
5
5
5
5
5
5
5
5
5
5
5
5
5
5
5
5
5
5
5
5
5
5
5
5
5
5
5
5
5
5
5
5
5
5
5
5
5
5
5
5
5
5
5
5
5
5
5
5
5
5
5
5
5
5
5
5
5
5
5
5
5
5
5
5
5
5
5
5
5
5
5
5
5
5
5
5
5
5
5
5
5
5
5
5
5
5
5
5
5
5
5
5
5
5
5
5
5
5
5
5
5
5
5
5
5
5
5
5
5
5
5
5
5
5
5
5
5
5
5
5
5
5
5
5
5
5
5
5
5
5
5
5
5
5
5
5
5
5
5
5
5
5
5
5
5
5
5
5
5
5
5
5
5
5
5
5
5
5
5
5
5
5
5
5
5
5
5
5
5
5
5
5
5
5
5
5
5
5
5
5
5
5
5
5
5
5
5
5
5
5
5
5
5
5
5
5
5
5
5
5
5
5
5
5
5
5
5
5
5
5
5
5
5
5
5
5
5
5
5
5
5
5
5
5
5
5
5
5
5
5
5
5
5
5
5
5
5
5
5
5
5
5
5
5
5
5
5
5
5
5
5
5
5
5
5
5
5
5
5
5
5
5
5
5
5
5
5
5
5
5
5
5
5
5
5
5
5
5
5
5
5
5
5
5
5
5
5
5
5
5
5
5
5
5
5
5
5
5
5
5
5
5
5
5
5
5
5
5
5
5
5
5
5
5
5
5
5
5
5
5
5
5
5
5
5
5
5
5
5
5
5
5
5
5
5
5
5
5
5
5
5
5
5
5
5
5
5
5
5
5
5
5
5
5
5
5
5
5
5
5
5
5
5
5
5
5
5
5
5
5
5
5
5
5
5
5
5
5
5
5
5
5
5
5
5
5
5
5
5
5
5
5
5
5
5
5
5
5
5
5
5
5
5
5
5
5
5
5
5
5
5
5
5
5
5
5
5
5
5
5
5
5
5
5
5
5
5
5
5
5
5
5
5
5
5
5
5
5
5
5
5
5
5
5
5
5
5
5
5
5
5
5
5
5
5
5
5
5
5
5
5
5
5
5
5
5
5
5
5
5
5
5
5
5
5
5
5
5
5
5
5
5
5
5
5
5
5
5
5
5
5
5
5
5
5
5
5
5
5
5
5
5
5
5
5
5
5
5
5
5
5
5
5
5
5
5
5
5
5
5
5
5
5
5
5
5
5
5
5
5
5
5
5
5
5
5
5
5
5
5
5
5
5
5
5
5
5
5
5
5
5
5
5
5
5
5
5
5
5
5
5
5
5
5
5
5
5
5
5
5
5
5
5
5
5
5
5
5
5
5
5
5
5
5
5
5
5
5
5
5
5
5
5
5
5
5
5
5
5
5
5
5
5
5
5
5
5
5
5
5
5
5
5
5
5
5
5
5
5
5
5
5
5
5
5
5
5
5
5
5
5
5
5
5
5
5
5
5
5
5
5
5
5
5
5
5
5
5
5
5
5
5
5
5
5
5
5
5
5
5
5
5
5
5
5
5
5
5
5
5
5
5
5
5
5
5
5
5
5
5
5
5
5
5
5
5
5
5
5
5
5
5
5
5
5
5
5
5
5
5
5
5
5
5
5
5
5
5
5
5
5
5
5
5
5
5
5
5
5
5
5
5
5
5
5
5
5
5
5
5
5
5
5
5
5
5
5
5
5
5
5
5
5
5
5
5
5
5
5
5
5
5
5
5
5
5
5
5
5
5
5
5
5
5
5
5
5
5
5
5
5
5
5
5
5
5
5
5
5
5
5
5
5
5
5
5
5
5
5
5
5
5
5
5
5
5
5
5
5
5
5
5
5
5
5
5
5
5
5
5
5
5
5
5
5
5
5
5
5
5
5
5
5
5
5
5
5
5
5
5
5
5
5
5
5
5
5
5
5
5
5
5
5
5
5
5
5
5
5
5
5
5
5
5
5
5
5
5
5
5
5
5
5
5
5
5
5
5
5
5
5
5
5
5
5
5
5
5
5
5
5
5
5
5
5
5
5
5
5
5
5
5
5
5
5
5
5
5
5
5
5
5
5
5
5
5
5
5
5
5
5
5
5
5
5
5
5
5
5
5
5
5
5
5
5
5
5
5
5
5
5
5
5
5
5
5
5
5
5
5
5
5
5
5
5
5
5
5
5
5
5
5
5
5
5
5
5
5
5
5
5
5
5
5
5
5
5
5
5
5
5
5
5
5
5
5
5
5
5
5
5
5
5
5
5
5
5
5
5
5
5
5
5
5
5
5
5
5
5
5
5
5
5
5
5
5
5
5
5
5
5
5
5
5
5
5
5
5
5
5
5
5
5
5
5
5
5
5
5
5
5
5
5
5
5
5
5
5
5
5
5
5
5
5
5
5
5
5
5
5
5
5
5
5
5
5
5
5
5
5
5
5
5
5
5
5
5
5
5
5
5
5
5
5
5
5
5
5
5
5
5
5
5
5
5
5
5
5
5
5
5
5
5
5
5
5
5
5
5
5
5
5
5
5
5
5
5
5
5
5
5
5
5
5
5
5
5
5
5
5
5
5
5
5
5
5
5
5
5
5
5
5
5
5
5
5
5
5
5
5
5
5
5
5
5
5
5
5
5
5
5
5
5
5
5
5
5
5
5
5
5
5
5
5
5
5
5
5
5
5
5
5
5
5
5
5
5
5
5
5
5
5
5
5
5
5
5
5
5
5
5
5
5
5
5
5
5
5
5
5
5
5
5
5
5
5
5
5
5
5
5
5
5
5
5
5
5
5
5
5
5
5
5
5
5
5
5
5
5
5
5
5
5
5
5
5
5
5
5
5
5
5
5
5
5
5
5
5
5
5
5
5
5
5
5
5
5
5
5
5
5
5
5
5
5
5
5
5
5
5
5
5
5
5
5
5
5
5
5
5
5
5
5
5
5
5
5
5
5
5
5
5
5
5
5
5
5
5
5
5
5
5
5
5
5
5
5
5
5
5
5
5
5
5
5
5
5
5
5
5
5
5
5
5
5
5
5
5
5
5
5
5
5
5
5
5
5
5
5
5
5
5
5
5
5
5
5
5
5
5
5
5
5
5
5
5
5
5
5
5
5
5
5
5
5
5
5
5
5
5
5
5
5
5
5
5
5
5
5
5
5
5
5
5
5
5
5
5
5
5
5
5
5
5
5
5
5
5
5
5
5
5
5
5
5
5
5
5
5
5
5
5
5
5
5
5
5
5
5
5
5
5
5
5
5
5
5
5
5
5
5
5
5
5
5
5
5
5
5
5
5
5
5
5
5
5
5
5
5
5
5
5
5
5
5
5
5
5
5
5
5
5
5
5
5
5
5
5
5
5
5
5
5
5
5
5
5
5
5
5
5
5
5
5
5
5
5
5
5
5
5
5
5
5
5
5
5
5
5
5
5
5
5
5
5
5
5
5
5
5
5
5
5
5
5
5
5
5
5
5
5
5
5
5
5
5
5
5
5
5
5
5
5
5
5
5
5
5
5
5
5
5
5
5
5
5
5
5
5
5
5
5
5
5
5
5
5
5
5
5
5
5
5
5
5
5
5
5
5
5
5
5
5
5
5
5
5
5
5
5
5
5
5
5
5
5
5
5
5
5
5
5
5
5
5
5
5
5
5
5
5
5
5
5
5
5
5
5
5
5
5
5
5
5
5
5
5
5
5
5
5
5
5
5
5
5
5
5
5
5
5
5
5
5
5
5
5
5
5
5
5
5
5
5
5
5
5
5
5
5
5
5
5
5
5
5
5
5
5
5
5
5
5
5
5
5
5
5
5
5
5
5
5
5
5
5
5
5
5
5
5
5
5
5
5
5
5
5
5
5
5
5
5
5
5
5
5
5
5
5
5
5
5
5
5
5
5
5
5
5
5
5
5
5
5
5
5
5
5
5
5
5
5
5
5
5
5
5
5
5
5
POINT_DATA 2538
VECTORS disp float
1.4690142856488304e-12 1.4711801479495078e-12 0.0
3.167002932072579e-13 -9.96738783316407e-13 0.0
0.0003000000000774395 3.024956744275388e-13 0.0
0.0002999999932656643 -6.563048180785528e-12 0.0
0.00015128513496239786 5.6177644476438146e-5 0.0
0.00020851411896943313 4.301983835220076e-6 0.0
0.00018233675783887196 -1.3648070936244715e-6 0.0
-2.2759331778031253e-13 -1.937245747051379e-13 0.0
9.495382948753283e-14 1.0217558804161794e-13 0.0
7.646870736366228e-14 -6.258308104130443e-14 0.0
7.018280865330814e-14 1.2602680370599073e-14 0.0
4.01369621309733e-14 -1.0127801084415789e-13 0.0
3.808537478818914e-14 -2.2888168048959397e-13 0.0
8.819634773861611e-15 -2.8779827903866346e-13 0.0
1.1727286916255038e-15 -2.5970075091152857e-13 0.0
3.955546577592065e-14 -2.544519200524111e-13 0.0
-1.3171048102303805e-15 -2.8744711734544243e-13 0.0
3.925128679460489e-15 -2.9496826338970496e-13 0.0
-2.0395937879043253e-15 -2.969015818679897e-13 0.0
2.1260902235529472e-15 -2.963567381037736e-13 0.0
-7.613573073139828e-15 -3.3264410904307523e-13 0.0
1.8356675797883836e-14 -3.6817973515686466e-13 0.0
5.790469387079958e-15 -3.544502994265134e-13 0.0
7.023423476389838e-15 -3.304214850619712e-13 0.0
4.228419476172766e-14 -2.6387240563795333e-13 0.0
9.290156108834937e-15 -2.4926636903925324e-13 0.0
1.069826807420028e-14 -2.583167601047181e-13 0.0
2.3889641405529373e-14 -2.480324248728882e-13 0.0
2.41712505873995e-14 -2.433094298172803e-13 0.0
-8.899180982062333e-16 -2.6111532114094206e-13 0.0
6.44996626088395e-14 -2.5505223202088895e-13 0.0
-7.719664596664526e-14 -8.216719065096981e-15 0.0
5.418825976875563e-6 -1.331448791088415e-6 0.0
8.35646728975068e-6 -2.4469373738113514e-6 0.0
1.1072375860794953e-5 -3.3458824482502892e-6 0.0
1.3447144359696863e-5 -4.2521850958473976e-6 0.0
1.5543672143154106e-5 -5.179023754592112e-6 0.0
1.752731859763662e-5 -6.171021361840665e-6 0.0
1.949191472586979e-5 -7.16342707544475e-6 0.0
2.1389458812923897e-5 -8.189759795818305e-6 0.0
2.3270309720192234e-5 -9.253533486025326e-6 0.0
2.5147921595524838e-5 -1.0324010163092478e-5 0.0
2.703272178484999e-5 -1.142600688195519e-5 0.0
2.894081978470024e-5 -1.2539719072521172e-5 0.0
3.085015247573664e-5 -1.3664229253751667e-5 0.0
3.28110528012325e-5 -1.4826280865939362e-5 0.0
3.4811328879257746e-5 -1.6012652421957044e-5 0.0
3.682168441988678e-5 -1.720938246919754e-5 0.0
3.8885557902777976e-5 -1.8402377020650564e-5 0.0
4.097843877353274e-5 -1.957722041100851e-5 0.0
4.310733763868374e-5 -2.0760673247000803e-5 0.0
4.53057609519707e-5 -2.1949434806594615e-5 0.0
4.756084309896287e-5 -2.3138259223521427e-5 0.0
4.986256941211027e-5 -2.433280978699673e-5 0.0
5.222348816234131e-5 -2.555286540211808e-5 0.0
5.4636511037411834e-5 -2.6748021560442e-5 0.0
5.7141552741941655e-5 -2.7945115106550154e-5 0.0
5.968629751662118e-5 -2.9111515166563732e-5 0.0
6.227892298871785e-5 -3.0257123679278162e-5 0.0
6.49543376634614e-5 -3.135861725340322e-5 0.0
6.77073251116364e-5 -3.248054003860168e-5 0.0
7.051299031362079e-5 -3.3565770149854204e-5 0.0
7.342280251762553e-5 -3.461290887275102e-5 0.0
7.635374460730777e-5 -3.561912088133592e-5 0.0
7.935082506785876e-5 -3.658708750160501e-5 0.0
8.246332339392312e-5 -3.752306519948948e-5 0.0
8.565333739234605e-5 -3.849163603488893e-5 0.0
8.887289726821914e-5 -3.9429854003717154e-5 0.0
9.2196758270987e-5 -4.034411034723662e-5 0.0
9.557639140842522e-5 -4.125735132234716e-5 0.0
9.900869559915676e-5 -4.2159420173032124e-5 0.0
0.00010258675297015404 -4.31349902074303e-5 0.0
0.00010629462578509426 -4.4060902107904024e-5 0.0
0.00011034871546257793 -4.49112761610499e-5 0.0
0.00011521999156053078 -4.53107850556418e-5 0.0
0.00012051126115387743 -4.648989323923097e-5 0.0
0.00012588166971113507 -4.757529615325357e-5 0.0
0.00013158438667243324 -4.830750587274504e-5 0.0
0.00013745727733604788 -4.859041194958133e-5 0.0
0.0001433036598063633 -4.837219218107737e-5 0.0
0.00014904245553576392 -4.8119156311428636e-5 0.0
0.00015435091915517676 -4.774822225343067e-5 0.0
0.00015887963420554264 -4.7223102072567756e-5 0.0
0.00016303373698397394 -4.642013031944946e-5 0.0
0.00016681957186307075 -4.571544116233344e-5 0.0
0.00017049171289909947 -4.4998664048820006e-5 0.0
0.00017404773010571084 -4.439653822714505e-5 0.0
0.00017745538368858218 -4.385686244018191e-5 0.0
0.00018083437486226216 -4.3404195581285765e-5 0.0
0.0001840692990629969 -4.3012829487358447e-5 0.0
0.00018716839521761163 -4.265576560061391e-5 0.0
0.00019015945468290105 -4.2328002448588165e-5 0.0
0.00019303129215863127 -4.205345294282428e-5 0.0
0.0001958116682316363 -4.1858872916132306e-5 0.0
0.0001984790649773723 -4.173854739555984e-5 0.0
0.00020104266982463474 -4.169240387759058e-5 0.0
0.00020349449976745092 -4.170668497801852e-5 0.0
0.00020586342313577406 -4.179332481766839e-5 0.0
0.00020819770347123176 -4.193141771176817e-5 0.0
0.0002105631285019664 -4.209998721942841e-5 0.0
0.0002129862360842144 -4.2277188353763076e-5 0.0
0.0002154512973331631 -4.244639725912068e-5 0.0
0.0002179399600023568 -4.2594484051991895e-5 0.0
0.00022045933554888203 -4.272906163364646e-5 0.0
0.00022294191197221134 -4.2831829753439565e-5 0.0
0.000225408667089614 -4.290329167303606e-5 0.0
0.000227847457287854 -4.293540725784788e-5 0.0
0.0002302007835061107 -4.292082991679072e-5 0.0
0.0002325347116760706 -4.286799925552156e-5 0.0
0.0002348031794298944 -4.276843400745054e-5 0.0
0.00023704438239709774 -4.2635706864872476e-5 0.0
0.00023920078915764384 -4.240885043929481e-5 0.0
0.00024134066820898043 -4.214479005805698e-5 0.0
0.0002433900524874938 -4.1818940771745376e-5 0.0
0.00024541634981740446 -4.143644919627024e-5 0.0
0.00024742241190468995 -4.097743815151375e-5 0.0
0.00024936233978768653 -4.0435235755499895e-5 0.0
0.00025126941969191467 -3.982702110560652e-5 0.0
0.0002531688328441778 -3.910023617960309e-5 0.0
0.00025500025477167887 -3.828518216184397e-5 0.0
0.00025686120090968607 -3.738335471368631e-5 0.0
0.00025877533757044435 -3.63533486477675e-5 0.0
0.00026067952869865136 -3.514447942050004e-5 0.0
0.0002625019886252663 -3.376254489603309e-5 0.0
0.00026441935756579154 -3.23129184722941e-5 0.0
0.00026642827194454976 -3.0803232667752174e-5 0.0
0.0002686311986627956 -2.9167837520804845e-5 0.0
0.0002710811412798605 -2.6958494426853688e-5 0.0
0.0002741028587140401 -2.374406508559859e-5 0.0
0.0002790916108504682 -1.996925565075973e-5 0.0
0.00028527586262131214 -1.3144494891437605e-5 0.0
0.0003000000015989949 7.230268706139718e-13 0.0
0.00029999999920411844 -6.996708421531184e-13 0.0
0.0002999999998183401 -1.7817096984508877e-13 0.0
0.0002999999996919747 -3.4239149000817557e-13 0.0
0.00029999999978963987 -2.482904911925751e-13 0.0
0.00029999999979746114 -1.7101906729237334e-13 0.0
0.0002999999998278665 -8.930791708941971e-14 0.0
0.00029999999986502114 2.4006852761359272e-14 0.0
0.00029999999988700415 1.444857787136114e-13 0.0
0.00029999999990449765 2.7235881844923027e-13 0.0
0.0002999999999779479 3.291148291885848e-13 0.0
0.0002999999999378803 3.6083164005228216e-13 0.0
0.0002999999999858606 3.243390049278831e-13 0.0
0.0002999999999835617 3.058492072588071e-13 0.0
0.00029999999998662965 2.921625221965316e-13 0.0
0.00029999999998718546 2.9132023130635344e-13 0.0
0.00029999999998353913 2.845106277736504e-13 0.0
0.0002999999999753132 2.9783959097400644e-13 0.0
0.00029999999995341674 2.560376089964527e-13 0.0
0.0002999999999517795 1.8035247518283266e-13 0.0
0.0002999999999539365 9.26328790167788e-14 0.0
0.0002999999999430407 5.852013431327759e-14 0.0
0.0002999999999701049 7.552664602181734e-14 0.0
0.0002999999999485079 8.166622788371658e-14 0.0
0.00029999999993040677 2.0669194019747405e-14 0.0
0.00027558665423621466 4.717477537907996e-6 0.0
0.0002500576739613054 6.5826436924796485e-6 0.0
0.00022744961916736778 6.545869575327007e-6 0.0
0.00021569661559671033 4.603948165555662e-6 0.0
0.00020939487414145492 -9.83455556724519e-7 0.0
0.00020942310751749347 -3.82982712814569e-6 0.0
0.0002090229391783318 -7.483369950286956e-6 0.0
0.00020790836579652827 -1.00244281114421e-5 0.0
0.0002065991820920192 -1.1328414649384107e-5 0.0
0.000204986328202723 -1.1804188061519368e-5 0.0
0.00020338308813715509 -1.115755003142811e-5 0.0
0.00020222920915896646 -8.595643140102418e-6 0.0
0.00020030872576341427 -6.150627713768143e-6 0.0
0.00019766339798886788 -3.739486454787897e-6 0.0
0.0001946896276803028 -2.026486119753639e-6 0.0
0.0001897600336534956 -1.851903940126774e-6 0.0
0.0001784471674136748 9.108126612160755e-8 0.0
0.00017447132561644694 1.744918416958322e-6 0.0
0.0001700150268223401 3.198782348363641e-6 0.0
0.0001655375370181581 4.966922662797283e-6 0.0
0.00016092055874909527 6.853351403053692e-6 0.0
0.00015676163054705153 8.991827864009617e-6 0.0
0.00015271395548347295 1.0850376249069125e-5 0.0
0.00014931216196454594 1.1515133734966444e-5 0.0
0.0001474561409675393 1.2431917960809823e-5 0.0
0.0001469038884624798 1.3623718784165087e-5 0.0
0.0001482059150533107 1.8973382692302292e-5 0.0
0.00015000035840142983 3.351980228550798e-5 0.0
0.00012100604706742746 5.964369771903464e-5 0.0
8.858948331372888e-5 5.701221032931212e-5 0.0
6.327723662826003e-5 5.023510672695463e-5 0.0
3.996071274270034e-5 3.403916631977501e-5 0.0
6.771716589486625e-5 -3.072230285638575e-5 0.0
0.00021688723682885934 -4.004706812266233e-5 0.0
8.951570030020682e-5 -3.7381460858246097e-5 0.0
0.00019990813297744416 -3.958626736910787e-5 0.0
0.00011734661613812202 -4.183401350693913e-5 0.0
0.00017907961334110684 -4.0384703947930876e-5 0.0
0.00015196617457441166 -4.3012068044576254e-5 0.0
0.00023182699070874144 -4.061727955124232e-5 0.0
5.2516199863985954e-5 -2.465499914357117e-5 0.0
0.00024240472258916897 -3.964011054005021e-5 0.0
4.113973048415068e-5 -1.8964001870635967e-5 0.0
5.83893909972545e-6 -8.181957687785762e-7 0.0
0.000293134409257693 7.706851037742976e-7 0.0
0.00018817958803001033 2.6470966715437413e-6 0.0
0.00019877431838117259 -5.925229411994918e-6 0.0
0.00017196661710718993 1.1326217428258527e-6 0.0
0.00015879235876984897 8.745335785378982e-6 0.0
0.00025276503505668445 -3.738783666327774e-5 0.0
3.138520966157964e-5 -1.3524420798932752e-5 0.0
4.779952981696114e-6 -7.501428661414472e-7 0.0
0.0002960876074411977 4.6803666372650717e-7 0.0
0.00028961136800152335 9.933835439452443e-7 0.0
6.4653451849890255e-6 -8.717157955290495e-7 0.0
0.00026066341895291745 -3.348228852010211e-5 0.0
2.3483155796789524e-5 -8.867610091325698e-6 0.0
0.0002055147267774311 -9.999453448212301e-6 0.0
0.00014782961386396718 1.3305788923798965e-5 0.0
4.206183495686609e-6 -4.3498314671334587e-7 0.0
0.0002970433219064328 -2.9983489198078846e-7 0.0
0.00010407336110384648 -4.065033759530246e-5 0.0
0.00013431719860335043 -4.341922286272396e-5 0.0
0.0001917732245980731 -3.971765009422407e-5 0.0
0.0001657734566039268 -4.193277188942985e-5 0.0
0.00020711969691293436 -3.975916839551868e-5 0.0
0.00022400561059408695 -4.059733742306535e-5 0.0
8.056526334537941e-5 -3.499547632170882e-5 0.0
6.00443976610896e-5 -2.8039432285876254e-5 0.0
0.0002663629818086595 -2.928360171440249e-5 0.0
1.7794737797083667e-5 -5.73335992374437e-6 0.0
0.000287270819873436 3.6024309324172166e-7 0.0
6.383237407122582e-6 -4.12692245305944e-7 0.0
0.000297183593276686 -6.437553517095371e-7 0.0
4.438578951139458e-6 -3.7088453239923826e-7 0.0
0.00021019856617194308 -7.719235790190777e-6 0.0
0.00014243088467022936 1.3704544502838959e-5 0.0
0.0002834736529020185 -6.442195913047643e-8 0.0
8.89068386544222e-6 6.024554417427244e-7 0.0
5.339978207794437e-6 -7.546415239202358e-7 0.0
0.0002947052788468126 7.063405934313368e-7 0.0
0.0001942603076609785 -8.783600913151722e-7 0.0
0.00016649234548163258 4.866480608326064e-6 0.0
1.1458060773268672e-5 -2.544351961233958e-6 0.0
0.0002757694635991083 -2.0945225137817653e-5 0.0
0.00021173791206698371 -4.015835382604682e-5 0.0
0.0001726678403389365 -4.122592790392871e-5 0.0
9.704178718130878e-5 -3.9149036816663664e-5 0.0
7.397759938258523e-5 -3.315815186617921e-5 0.0
0.00018587043926865182 -3.994765291127678e-5 0.0
0.00023604045053188098 -4.045533712453574e-5 0.0
4.7825293520550933e-5 -2.2340017748284745e-5 0.0
0.00024677799151155894 -3.904372916135529e-5 0.0
3.67046376411638e-5 -1.6507577884983203e-5 0.0
2.7201855852524565e-5 -1.1048956892182151e-5 0.0
0.0002566380289108684 -3.5651844996577377e-5 0.0
7.255344785646652e-5 2.7680356226580998e-5 0.0
0.00023632724064178866 -3.544204266485682e-7 0.0
0.00029725116211149155 -6.046523980528798e-7 0.0
3.968186763633702e-6 -2.7364620847506317e-7 0.0
0.000137278745256478 2.3502172562173077e-5 0.0
0.0002121759118787544 -2.4315916982716078e-6 0.0
9.411503609101615e-6 1.6877332892999211e-6 0.0
0.00028386506998180454 -1.0635943484066735e-7 0.0
6.134493662573398e-6 -7.892426627690594e-7 0.0
0.0002883074720814371 -8.570377924868208e-6 0.0
0.00021991008478310109 -3.72044611667493e-7 0.0
0.00022455913194664045 -1.7323904365492053e-6 0.0
0.0002451744422932554 -9.963749865103153e-7 0.0
0.0002331906071545515 -1.9590973083958668e-6 0.0
0.00021893787814236592 -3.2308267593826165e-6 0.0
0.0002241099662962797 -2.4719595573544485e-6 0.0
0.00023846332516077391 -1.5074825279300424e-6 0.0
0.00022957087882915887 -1.7819219022611266e-6 0.0
0.00024344162772603516 -1.089097701689575e-6 0.0
0.00023487155131511118 -9.009099099626152e-7 0.0
0.00022289897465160112 -1.4800559572930385e-6 0.0
0.000227400389114337 -2.419813864458519e-7 0.0
0.0002179418026489712 -5.971227836516588e-7 0.0
0.0002212806094504186 9.572852559709769e-7 0.0
0.00021334346099345284 7.111896480729035e-7 0.0
0.0002161598924318398 2.7714692682771047e-6 0.0
0.00018569568124105957 -3.1686859483257334e-7 0.0
0.00018085340783080106 -1.1219982180246539e-6 0.0
0.00018393417280065623 -1.220189712714827e-7 0.0
0.00017936345965416178 -7.722453993821999e-7 0.0
0.00018231754941124958 1.7905416149018618e-7 0.0
0.00017800022911077277 -3.1318667485882785e-7 0.0
0.00018092527492320472 4.3716719430871516e-7 0.0
0.000176636768276961 -9.429697710929312e-8 0.0
0.0001795664697150741 6.402307310108154e-7 0.0
0.00017529616090189472 1.1072084545129976e-7 0.0
0.00017827921875983739 8.272799127883824e-7 0.0
0.00017402458499041177 3.066726548197992e-7 0.0
0.00017707315790810793 9.075204714349222e-7 0.0
0.00017297006024334183 4.857363828219285e-7 0.0
0.00017595440746438084 1.077817529962074e-6 0.0
0.00017183743961899031 6.582280964816532e-7 0.0
0.00017488223545091293 1.1626455951704849e-6 0.0
0.0001706039018417942 6.984280523900295e-7 0.0
0.0001738317500013598 1.1960288559967166e-6 0.0
0.00016953929842147966 7.921268027189387e-7 0.0
0.00017283954339367605 1.2586012512899289e-6 0.0
0.00016853699672178727 8.759925152128909e-7 0.0
0.00017177466808010385 1.2992582459005079e-6 0.0
0.0001675434248254027 9.053139729698111e-7 0.0
0.00017082965357078555 1.2744536092011352e-6 0.0
0.00016670281793188289 9.204521391664814e-7 0.0
0.00016993770197697698 1.3066306202720801e-6 0.0
0.000165626379912514 9.031081641123655e-7 0.0
0.00016901919105409568 1.2880793096670124e-6 0.0
0.00016361368819199371 7.447317479398706e-7 0.0
0.00016834696415455805 1.1801797625443366e-6 0.0
0.00016375230744665516 8.096803435339086e-7 0.0
0.000167484936549705 1.1133069550359387e-6 0.0
0.00016306563923580301 6.99280019784543e-7 0.0
0.00016669792648506685 9.578822870764096e-7 0.0
0.0001625396990466697 5.539432554575437e-7 0.0
0.00016590771054479615 7.968493335010668e-7 0.0
0.0001618069747012819 3.89350208384621e-7 0.0
0.00017004980224308893 -5.422377223617694e-7 0.0
0.0001651378556143747 5.711907696689718e-7 0.0
0.0001648400399355036 2.811650544268966e-7 0.0
0.00015822289588873206 3.493723084332971e-7 0.0
0.00016076767217036768 1.003782110772373e-7 0.0
0.00016436187556210401 2.5731465317942546e-7 0.0
0.0001597367386697873 -2.494281206480497e-7 0.0
0.00015559228407959226 -3.773947654984983e-7 0.0
0.00015436888478617407 -7.711220463840645e-7 0.0
0.00016341923391713467 -1.3348713483391134e-7 0.0
0.00016753340748960915 3.707930410235661e-7 0.0
0.00017104750162398827 1.4597965311723418e-6 0.0
0.00016670413331298277 -7.060494138572804e-8 0.0
0.00017064526144642167 4.6851199092969354e-7 0.0
0.00016975881154163597 -7.260621585843332e-8 0.0
0.00014981474066987858 -8.878481794636842e-7 0.0
0.00014876020523411172 -1.2870685861913787e-6 0.0
0.00017351261174751686 4.826578721715861e-7 0.0
0.0001435030154826024 -1.4253889203798968e-6 0.0
0.00014276727230483962 -1.8419597209332815e-6 0.0
0.00017277937022352105 -1.1188222846377092e-7 0.0
0.0001761749915034645 3.9834269009891706e-7 0.0
0.00013694342215103038 -1.9927444028781694e-6 0.0
0.0001360814624703061 -2.4444879733294094e-6 0.0
0.00017560105895765937 -2.4306383098479325e-7 0.0
0.00017890652455371614 2.789640782022809e-7 0.0
0.0001304468650526807 -2.5827103179873125e-6 0.0
0.000129523551954573 -3.1333365780214016e-6 0.0
0.00017838911799219624 -4.526224310410962e-7 0.0
0.00018164377675169426 1.0188138778257137e-7 0.0
0.00012418484912466685 -3.2060241491829952e-6 0.0
0.00012287079490733824 -3.839249704325555e-6 0.0
0.0001812288808162839 -7.094309673647046e-7 0.0
0.00018438026042276521 -1.3404871600932034e-7 0.0
0.00011750409567074012 -3.9028159069266016e-6 0.0
0.00011634805907035498 -4.600699452303636e-6 0.0
0.00011085230481860172 -4.695038519526035e-6 0.0
0.0001120176118238748 -3.9994012863472555e-6 0.0
0.00017764246540785523 -1.264336854121631e-6 0.0
0.00018400705046680673 -1.0522167440714358e-6 0.0
0.00018714632884818944 -4.367561517419946e-7 0.0
0.00018754485481896905 4.667110989371428e-7 0.0
0.00017503717710465674 1.6368283972467446e-6 0.0
0.0001903730224449723 1.8960281894545914e-7 0.0
0.00019077063509828366 1.0676885472032257e-6 0.0
0.00019366717665831288 8.369204105953436e-7 0.0
0.00011016229596029343 -5.441605651093408e-6 0.0
0.00010479111963405572 -5.4716965538398486e-6 0.0
0.00011557096210994914 -5.3878150755794375e-6 0.0
0.00018673333511541268 -1.4857392939879497e-6 0.0
0.00010418552036642793 -6.2407872780934754e-6 0.0
9.905026172983973e-5 -6.1702073667312694e-6 0.0
0.00017919417337524123 1.4859670496496752e-6 0.0
9.847948053456763e-5 -6.941640037830237e-6 0.0
9.358412069606464e-5 -6.776320000122162e-6 0.0
9.305970956991107e-5 -7.594581580785735e-6 0.0
8.841013753083443e-5 -7.278092891081507e-6 0.0
8.880321063903415e-5 -6.577193153844549e-6 0.0
8.336304329204631e-5 -7.028863496439273e-6 0.0
8.38505645507155e-5 -6.313687921583461e-6 0.0
8.731910963409017e-5 -8.152554516998304e-6 0.0
7.810158804168734e-5 -6.726292545264038e-6 0.0
7.855113241121086e-5 -6.031343152787231e-6 0.0
9.257950669752179e-5 -8.50395380331385e-6 0.0
8.767696358084106e-5 -9.07502573867745e-6 0.0
7.307826869981849e-5 -6.3225997905680064e-6 0.0
7.333279083393106e-5 -5.7224362483894825e-6 0.0
0.0001941109766724883 1.6375151173642505e-6 0.0
0.000197139597763616 1.433479210859047e-6 0.0
9.211738074807813e-5 -9.47029487962493e-6 0.0
8.731995303552908e-5 -9.995907923433042e-6 0.0
0.00019758067031365255 2.177707821557444e-6 0.0
0.0002008094631762581 1.994761457945727e-6 0.0
0.00020025659758723073 1.0700884611153143e-6 0.0
0.00020404636734038876 1.7190534026578375e-6 0.0
0.000203584418928514 6.161816125684708e-7 0.0
0.00020746906656622882 1.3853521174327967e-6 0.0
0.0002072252633568253 1.2416982945544088e-7 0.0
0.00021136338100033523 1.083093584892745e-6 0.0
0.00021078166021451102 -3.542447973667696e-7 0.0
0.0002115941137477359 2.141945370010701e-6 0.0
0.00021515135200298073 6.447313445675554e-7 0.0
0.00021434196096552742 -9.882550346961006e-7 0.0
9.174099515778829e-5 -1.045029555714741e-5 0.0
6.76557963937692e-5 -5.947913173398166e-6 0.0
6.77976196287384e-5 -5.392854507715492e-6 0.0
0.00021036282473543895 -2.1779976340725334e-6 0.0
0.00021379346490968734 -2.9911639978452114e-6 0.0
0.0002178137752714941 -1.7099086613495496e-6 0.0
0.00021015285775157573 -4.338094639271341e-6 0.0
8.708707175207007e-5 -1.0940274416979934e-5 0.0
0.00021728760297673179 -3.9653299690771526e-6 0.0
0.00022133752077632294 -2.547099621669621e-6 0.0
9.137865953556099e-5 -1.1456296910915921e-5 0.0
8.684255441637225e-5 -1.1914180056403548e-5 0.0
8.268096309698594e-5 -1.1317278377721386e-5 0.0
0.0002207996875611074 -5.092366309333574e-6 0.0
0.00022492572467498843 -3.5166626814024645e-6 0.0
9.10268198380949e-5 -1.2504954934880188e-5 0.0
9.559598405010346e-5 -1.1981909472674274e-5 0.0
8.25096420529724e-5 -1.2262585515552181e-5 0.0
7.841936797337514e-5 -1.1614089291014755e-5 0.0
0.00022425502454361494 -6.359955895568567e-6 0.0
0.00022864342466183315 -4.66364316942026e-6 0.0
0.0002293861697559383 -1.8330835859790192e-6 0.0
0.00022024701137580646 -7.901207541218831e-6 0.0
0.00023330054889548414 -2.7510097275456394e-6 0.0
0.00023426239325433342 -1.8182319488221167e-7 0.0
6.184313110731825e-5 -5.540942605558962e-6 0.0
6.231967082084502e-5 -5.061971637821325e-6 0.0
6.94708894823448e-5 -4.9243423283065275e-6 0.0
6.261846498212491e-5 -4.6336946007417765e-6 0.0
6.960857639012161e-5 -4.502616015220518e-6 0.0
6.290934997902741e-5 -4.280713753383296e-6 0.0
6.979100022251978e-5 -4.140001818967831e-6 0.0
9.521773199186199e-5 -1.3081092758190166e-5 0.0
9.986298250342173e-5 -1.2496879434441611e-5 0.0
7.829261469286778e-5 -1.2532309077988864e-5 0.0
7.427779523052621e-5 -1.1832832302247719e-5 0.0
0.00023243488694201108 -6.01206839843453e-6 0.0
6.395769272973624e-5 -3.981013469408482e-6 0.0
7.058142985148959e-5 -3.882052544030843e-6 0.0
9.948352685365044e-5 -1.366160081277106e-5 0.0
0.00010422683190383625 -1.3023477521064642e-5 0.0
0.00013635665725524596 -2.901156821556418e-6 0.0
0.0002372889632834859 -3.840661149295422e-6 0.0
0.00018393844497849884 1.0024922770424448e-6 0.0
0.00019025052400681747 2.8326733285385912e-6 0.0
0.0001621229531990384 5.041218866490381e-7 0.0
0.00020106123393323662 2.6473091437779204e-6 0.0
6.421196125746325e-5 -3.81071903866725e-6 0.0
7.203173838777355e-5 -3.6998142628686247e-6 0.0
7.420097999613619e-5 -1.2747152661035284e-5 0.0
7.02946335849133e-5 -1.1992044601650037e-5 0.0
0.00010390710849644705 -1.4257009969611676e-5 0.0
0.00010893687727089159 -1.3562573598990303e-5 0.0
0.00023626905076418132 -7.46991910924086e-6 0.0
5.643335860564047e-5 -5.1460432925017115e-6 0.0
5.616175263377138e-5 -5.669529305529967e-6 0.0
5.620963098674654e-5 -4.045752136649408e-6 0.0
0.0002413546908641487 -5.086046699964642e-6 0.0
6.501609314325978e-5 -3.6310656553059046e-6 0.0
7.308377205233898e-5 -3.5527415410789504e-6 0.0
9.925575197598368e-5 -1.492396584988626e-5 0.0
7.028436694502704e-5 -1.2938150201903623e-5 0.0
6.647062638530898e-5 -1.2097630028424667e-5 0.0
0.0001978875838889313 2.7271251707298524e-6 0.0
0.00020145667870939067 3.0894531292854102e-6 0.0
0.00019813358308954265 3.1187520967835143e-6 0.0
0.00020183005980037945 3.4101924232131157e-6 0.0
0.00010854948134933228 -1.486348997019179e-5 0.0
0.00011393227183845908 -1.4084540894541792e-5 0.0
0.0001315867575002683 -2.1409728038304184e-6 0.0
6.582025647607339e-5 -3.5694513363661075e-6 0.0
7.388927808307677e-5 -3.5047503128082237e-6 0.0
0.0002402534052467891 -8.969861467001868e-6 0.0
0.00023595589391793006 -1.0888483186827304e-5 0.0
6.506826050677351e-5 -3.54453527347953e-6 0.0
7.446805899951013e-5 -3.441828907710415e-6 0.0
0.00024537825781987014 -6.451561663265707e-6 0.0
0.00024618929458712445 -3.1998380408671735e-6 0.0
6.68745092752665e-5 -3.345542094690591e-6 0.0
7.402233267423136e-5 -1.392154240538146e-5 0.0
0.00011345664353785302 -1.5506250236271422e-5 0.0
0.00011901295271524389 -1.4640879159492018e-5 0.0
0.00011958381562922452 -1.3243659316648196e-5 0.0
0.00012488868496191385 -1.3767446552162208e-5 0.0
0.000125506566257741 -1.2393291725513185e-5 0.0
0.00013102124575177976 -1.2908987120633832e-5 0.0
0.00013164065913120825 -1.1537685706518732e-5 0.0
0.00013730143273175054 -1.2090216288280473e-5 0.0
0.0001379250345222162 -1.0722095314476306e-5 0.0
0.00014352546253883902 -1.1315012652736675e-5 0.0
0.0001429710169615191 -1.276263996742904e-5 0.0
0.0001490109635942639 -1.2042164920627774e-5 0.0
0.00014853201252150238 -1.3560108208177091e-5 0.0
0.0001541217816758934 -1.2869997012680916e-5 0.0
0.00015371403608836957 -1.4455673000049205e-5 0.0
0.00015866778654938588 -1.377351295687463e-5 0.0
0.0001441751970174865 -9.944922185723494e-6 0.0
0.000159002830174012 -1.2168370120739419e-5 0.0
0.00016306687912674386 -1.3072697071846481e-5 0.0
0.0001627636066659457 -1.4762264680527816e-5 0.0
0.00016685574798735444 -1.4079418823244071e-5 0.0
5.085128376773585e-5 -5.1998296219979195e-6 0.0
5.060091451705441e-5 -5.761761322490323e-6 0.0
6.650666974944064e-5 -1.3081619788232815e-5 0.0
6.280852277479665e-5 -1.2166451002479605e-5 0.0
0.00016715850365087078 -1.2364136709637965e-5 0.0
0.00017074939106313873 -1.3366064271665464e-5 0.0
0.0001705038559044438 -1.514009513012964e-5 0.0
0.00017418731979117197 -1.4440403904137047e-5 0.0
4.5588374748890866e-5 -5.215655194615145e-6 0.0
4.539377352175072e-5 -5.8161284707712254e-6 0.0
0.00019838475476400202 3.3959125994787032e-6 0.0
0.0002022345069978106 3.621728833698421e-6 0.0
0.00019871336659598742 3.5897424694790614e-6 0.0
0.0002442706887538477 -1.0396472937784336e-5 0.0
0.0002494095345535901 -7.778866458241763e-6 0.0
0.0001184995015907015 -1.6180112493753083e-5 0.0
7.91456409170894e-5 -3.7239084207467422e-6 0.0
0.00016917696734195566 -6.340945596053065e-7 0.0
0.00017398330128920217 -1.6244888313647977e-5 0.0
0.0001774488485425953 -1.5570202991981258e-5 0.0
0.00017754605914683882 -1.3677703683399852e-5 0.0
0.00018067603537329726 -1.4808427005979022e-5 0.0
0.00017695063121387917 9.87198877714876e-7 0.0
0.0002027966479754973 3.799098232285054e-6 0.0
0.0002062860348164899 3.780831822698424e-6 0.0
7.572545326662913e-5 -3.007790979817849e-6 0.0
6.286402918480694e-5 -1.3235918448528664e-5 0.0
5.92827737730794e-5 -1.2217815296609786e-5 0.0
0.00019909579197562987 3.755364278816478e-6 0.0
0.0001805846875875195 -1.6739627927633918e-5 0.0
0.00018365940852098486 -1.6046642836217232e-5 0.0
0.00018373361188719147 -1.4011354499197199e-5 0.0
0.00018668048864053477 -1.529107617926853e-5 0.0
0.00018680582228863178 -1.3236426215990581e-5 0.0
0.00018955437833829866 -1.44635272566259e-5 0.0
0.0001894064927802691 -1.655783973878632e-5 0.0
0.0001922483962369583 -1.572058846387472e-5 0.0
6.743976487997861e-5 -2.539802646700826e-6 0.0
4.069015712240519e-5 -5.205294932301853e-6 0.0
4.052860818836331e-5 -5.803368356690499e-6 0.0
0.00011312376837427456 -1.710296453369179e-5 0.0
0.0002479929749607157 -1.2089182959058008e-5 0.0
0.0002533906389715776 -9.122854961891919e-6 0.0
0.000192062540178819 -1.784056779583244e-5 0.0
0.00019495021429477054 -1.7019333456677575e-5 0.0
7.703674406788905e-5 -1.4831361329658122e-6 0.0
5.940155235728854e-5 -1.3413816433537298e-5 0.0
5.594533383429432e-5 -1.2267437043426016e-5 0.0
8.262242204378116e-5 -3.3390658835450563e-6 0.0
0.00022432797568329636 2.8252064015070537e-6 0.0
0.00011799978095650456 -1.7904135829950298e-5 0.0
6.81869878897988e-5 -5.974389662580336e-7 0.0
5.8828043151029665e-5 -3.5681121357910088e-6 0.0
0.0002513010057828491 -1.4543169998443778e-5 0.0
0.0002571972052163634 -1.0501407696322838e-5 0.0
0.0002598556313687899 -5.174494660414151e-6 0.0
5.883194488792103e-5 -3.094543366606793e-6 0.0
0.00024630046482246684 -1.6179761405604997e-5 0.0
4.0553650430354124e-5 -4.704747591390267e-6 0.0
6.267769687219826e-5 -1.4581039703058307e-5 0.0
0.00020328065350250677 3.976403703676292e-6 0.0
0.00019950881986353737 3.93060628855863e-6 0.0
0.00018976813446859608 -1.2385337944442283e-5 0.0
5.614589176954163e-5 -1.3675428497942582e-5 0.0
5.2782369165910396e-5 -1.23714379306026e-5 0.0
3.6151131743481663e-5 -5.145944991788456e-6 0.0
3.602151382845224e-5 -5.7125339384623004e-6 0.0
7.034264764714285e-5 -1.1169442175367577e-5 0.0
0.0001947679986426169 -1.927656612566374e-5 0.0
0.00019766442637566287 -1.844046151360863e-5 0.0
5.2581296284847734e-5 -1.1231522334109928e-5 0.0
4.946272914558409e-5 -1.1196959225581302e-5 0.0
0.00019204319277772692 -1.9917580513563373e-5 0.0
0.00011283361973632187 -1.894489985129927e-5 0.0
4.977844771511983e-5 -1.2537839985522062e-5 0.0
4.654390299236116e-5 -1.1217543193762678e-5 0.0
0.00012601461306870496 -1.1131522034814383e-5 0.0
0.00026423944604662156 -5.8549818077538445e-6 0.0
0.00026599787686790703 -2.2928073928404803e-6 0.0
0.0002610943907834414 -1.1450888392541874e-5 0.0
0.0001975671259992265 -2.1069538110306366e-5 0.0
0.00020045948194234676 -2.0141091221081127e-5 0.0
0.0001869662807223598 -1.1220678870259357e-5 0.0
0.00019000574696405922 -1.0366815243120587e-5 0.0
0.00011755591770302714 -1.9912254875903784e-5 0.0
0.00020057242348209901 -1.7531867143305276e-5 0.0
0.00020338483487145732 -1.922519082868313e-5 0.0
3.192156562442484e-5 -4.997074460394186e-6 0.0
3.20068611795957e-5 -5.569306728304408e-6 0.0
0.0002033910667291184 -2.21560817604476e-5 0.0
0.00020622081221770495 -2.1116844232574344e-5 0.0
4.702453988446938e-5 -1.2764620918249015e-5 0.0
4.3834126831426845e-5 -1.1309192888325395e-5 0.0
0.00020371508645988839 4.17482952115528e-6 0.0
0.0001999470167709655 4.152709183043508e-6 0.0
4.334258342567915e-5 -1.005998993597311e-5 0.0
4.068861923639843e-5 -1.00053584341661e-5 0.0
4.123721207454306e-5 -1.1422689746159771e-5 0.0
3.81671189686616e-5 -9.999701116462417e-6 0.0
0.0002685132188753388 -6.289544654068689e-6 0.0
0.00026471561305513075 -1.2301117794718217e-5 0.0
7.803989125764886e-5 1.2184354575576332e-6 0.0
6.841211602354659e-5 2.1625094485700096e-6 0.0
0.00019539049006096234 3.52755485439819e-6 0.0
0.00011254932241003137 -2.1150265583829653e-5 0.0
0.00020624759072578776 -2.4149817163255833e-5 0.0
0.0002089787553629083 -2.2987913774686863e-5 0.0
0.00020906633645749494 2.577277135618008e-6 0.0
0.00020352348245948192 -1.658374026136896e-5 0.0
0.00014810873068027633 -1.5147625924560943e-5 0.0
3.7566837700335096e-5 -8.867631954867554e-6 0.0
3.5182127136216285e-5 -8.714323376087296e-6 0.0
3.5851264606264335e-5 -1.0020343212064677e-5 0.0
3.28600236293348e-5 -8.631343428854781e-6 0.0
3.222042660770037e-5 -7.5942318974280185e-6 0.0
2.988065829971219e-5 -7.396956346601937e-6 0.0
2.9247888040873137e-5 -6.598601204768047e-6 0.0
2.6937478548096508e-5 -6.262393013186149e-6 0.0
2.633830792524168e-5 -5.7631227397842826e-6 0.0
2.420824767380405e-5 -5.332531447114333e-6 0.0
2.3593723323143832e-5 -5.076901999464618e-6 0.0
2.4813891992334326e-5 -5.964394386556135e-6 0.0
2.1861459727986595e-5 -4.82775100808487e-6 0.0
2.8116367210892996e-5 -4.810489697052487e-6 0.0
2.821365084851405e-5 -4.334899551007139e-6 0.0
2.277093152482526e-5 -5.637979087078414e-6 0.0
2.0146198803705154e-5 -4.5729024766477786e-6 0.0
8.749353370008465e-5 -7.272270415452967e-8 0.0
8.344514709040906e-5 -5.645599907620838e-6 0.0
0.00018719841069850593 -9.300085315194143e-6 0.0
0.00019024826176670658 -8.433558260357655e-6 0.0
4.494011957776052e-5 -6.455472692674411e-6 0.0
0.00011711675699013391 -2.238332027180725e-5 0.0
0.0001224361899866105 -2.097812750390825e-5 0.0
0.00019306219786266254 -9.4745917814125e-6 0.0
0.00019332713458415852 -7.507063295868162e-6 0.0
0.0002726572584163399 -6.432196653911385e-6 0.0
0.00026792726731864785 -1.293257116896029e-5 0.0
0.0002619827227146426 -1.7465763855763103e-5 0.0
0.00019599294013920824 3.840235248578515e-6 0.0
0.00019648755948384095 4.0669546587733934e-6 0.0
0.00010800737500236198 -2.0024253874869027e-5 0.0
0.00010776122959945002 -2.2462301565064772e-5 0.0
0.00010358673644263622 -2.1178502224856432e-5 0.0
3.37296998089357e-5 -1.0002987380324075e-5 0.0
0.00020038251749395882 4.440928959137105e-6 0.0
0.00019697975985076083 4.369523934195239e-6 0.0
7.255350479901042e-5 -7.069124188245711e-6 0.0
0.00020891123228386962 -2.594971100476253e-5 0.0
0.00021165043056432326 -2.475889081025938e-5 0.0
0.0002117772970237177 -2.1871340155028196e-5 0.0
0.00021443455232052636 -2.3593262337707617e-5 0.0
8.196246106902837e-5 4.540124665719663e-6 0.0
7.036317282736087e-5 5.017930665685846e-6 0.0
0.00010448776134030198 -1.189599886245174e-5 0.0
0.0002062643652212351 -2.7152097610723927e-5 0.0
0.0002388888510732404 2.127830130444398e-7 0.0
0.00021427072497711997 -2.6526249410532303e-5 0.0
0.00021709821989555021 -2.5353237118715697e-5 0.0
0.0002172611697266643 -2.2409784266022992e-5 0.0
0.00021998658821793321 -2.4182671601783318e-5 0.0
0.00022020138119169312 -2.1192473827763886e-5 0.0
0.00022292871526340423 -2.2965695049773878e-5 0.0
0.00022270496813509087 -2.5998665653636806e-5 0.0
0.00022565167830845042 -2.4794690330831202e-5 0.0
2.0921300828676607e-5 -5.191339891474301e-6 0.0
1.8348650660449257e-5 -4.129776259643787e-6 0.0
1.7294290206406385e-5 -3.5596202629123593e-6 0.0
0.00012197449999604897 -2.3741356750912027e-5 0.0
0.00012743492681599266 -2.2333292643617704e-5 0.0
0.00010342403718409581 -2.3865210721332015e-5 0.0
9.957982380928007e-5 -2.239660388189613e-5 0.0
0.0002645544655686397 -1.8363176193810132e-5 0.0
0.00027066783681062686 -1.339685349812615e-5 0.0
0.00020690667439432473 4.814544644323067e-7 0.0
0.00020345917748378067 2.350617081943169e-6 0.0
5.836551542882587e-5 2.5768000399164213e-6 0.0
6.008891342447354e-5 4.87819287063184e-6 0.0
2.3666148357634757e-5 -6.529322052384945e-6 0.0
9.720294506256741e-5 -8.825695435296576e-6 0.0
0.00019425302529315296 3.0687819027077565e-6 0.0
0.0002598289563100989 -2.198137791016565e-5 0.0
7.648845424354373e-5 -4.215792577954366e-6 0.0
0.0001927786671961589 3.67932484163221e-6 0.0
0.0002253669735816267 -2.7855340468246268e-5 0.0
0.00022834680709671036 -2.6681693052855977e-5 0.0
0.00021790861677874792 4.317090279610466e-6 0.0
0.00022727707705762527 4.103669902173735e-6 0.0
8.299000795169761e-5 7.331394241461882e-6 0.0
3.587280714838918e-5 -6.323397260898977e-6 0.0
2.4100335662306377e-5 -4.058965924556016e-6 0.0
2.4215435080511696e-5 -3.6745500800887027e-6 0.0
3.664906131324706e-5 -1.1579810741890007e-5 0.0
0.00021711107403737408 -2.8383108829772335e-5 0.0
0.00018347520909561447 -2.0970761685964926e-6 0.0
0.00017035730029680036 -1.6905159813815554e-5 0.0
9.094132646256286e-5 -1.3531056756004777e-5 0.0
1.9137635261993457e-5 -4.716247729256932e-6 0.0
1.6647621416092783e-5 -3.666486736933792e-6 0.0
5.0275745437084844e-5 -1.4352297721601757e-5 0.0
0.00019620379577713193 -8.530758925281693e-6 0.0
0.0001964849764033853 -6.541853476439296e-6 0.0
0.00010735951969160778 -2.55134627050288e-5 0.0
0.0002220892919805576 4.730956118998815e-6 0.0
0.00023034490028278149 4.480983262988912e-6 0.0
0.00022538060017411512 4.700954023674281e-6 0.0
0.00023361328773500393 4.4370865353003556e-6 0.0
0.00023893329445327227 4.167821400891172e-6 0.0
0.00024235848771884407 4.102994389718234e-6 0.0
0.00023684476763079503 4.226333356255804e-6 0.0
0.00024551411182695054 3.912114562256902e-6 0.0
0.00023994078305461823 4.001266085354329e-6 0.0
0.0002486478597104346 3.7119132633647954e-6 0.0
0.00024312412155034943 3.797594561645231e-6 0.0
0.00025169116511920885 3.529610475220816e-6 0.0
0.0002462246634797109 3.6901652752598762e-6 0.0
0.00025473494709103267 3.426993707702745e-6 0.0
0.00023781510865916687 3.860978321604624e-6 0.0
0.0002493299849188854 3.592492817733371e-6 0.0
0.000257557092376283 3.344171823633419e-6 0.0
0.0002483278385373938 3.7646939509245098e-6 0.0
4.9144576577024016e-5 -1.0303192230947036e-5 0.0
4.768348838298077e-5 -1.4674459423665424e-5 0.0
5.084871520159312e-5 -1.6423800019457096e-5 0.0
0.0002524629115885875 3.505713940148817e-6 0.0
0.0002604797295785755 3.256053287853104e-6 0.0
0.0002449839163658023 3.649617854841775e-6 0.0
0.0001738126909443859 -1.7982474564218616e-5 0.0
0.0001701676143725756 -1.864253269204102e-5 0.0
0.0001736341769243124 -1.9754730070524513e-5 0.0
0.00017003509706219646 -2.057302969373075e-5 0.0
0.00017348314524649074 -2.2058894925040853e-5 0.0
0.00016997986189693951 -2.323664496837009e-5 0.0
0.00016619973212676415 -2.155120357023771e-5 0.0
0.00016615226022349833 -2.4637458195674366e-5 0.0
0.00016243729131019873 -2.2654255997293e-5 0.0
0.00017154845308214184 -1.5120560874575875e-6 0.0
0.0001734144624134186 -2.5578142190685456e-5 0.0
0.00017677733185656152 -2.4215732025524274e-5 0.0
0.00014736068367270124 -1.804619050603223e-6 0.0
0.00013856416770139437 -9.43113060015948e-6 0.0
0.0001448580378143634 -8.649641709375131e-6 0.0
0.00013923570186161782 -8.208303139301813e-6 0.0
0.00014557226704290662 -7.423163252168046e-6 0.0
0.00013994728500303533 -7.056677614498463e-6 0.0
0.00014631979094130885 -6.280156710008497e-6 0.0
0.00015165537985579368 -6.675717761749216e-6 0.0
0.00015238981241305722 -5.540160965753072e-6 0.0
0.00015716239661453743 -5.951391824706463e-6 0.0
0.00015785473016469948 -4.822376662137226e-6 0.0
0.0001618370929612772 -5.2389914435917225e-6 0.0
0.00015318872188309064 -4.463633788129995e-6 0.0
0.00014069909518253318 -5.981668865217694e-6 0.0
0.0001341406680985929 -6.790626893307019e-6 0.0
0.00016119884223859634 -6.472444733488807e-6 0.0
0.00016564874100196108 -5.6724190605880494e-6 0.0
4.846101515800197e-5 -1.6715260020073058e-5 0.0
0.00015795912637695333 2.418501396774225e-7 0.0
0.00016782875580598206 -1.2718369569565933e-7 0.0
0.00017104985634994462 -1.1641369888855589e-5 0.0
0.00027458379157963215 -3.2492112503759773e-6 0.0
0.00027845442235872685 -3.435996300662146e-6 0.0
0.00017721180788826365 1.5954729405556349e-6 0.0
0.00017351490821933217 1.627320778991454e-6 0.0
0.00021740709387227614 -1.9432969744429295e-5 0.0
0.00019302218874875393 -1.6546834584371532e-7 0.0
0.0002670110674536985 -1.8824129749694263e-5 0.0
0.00027315117268256547 -1.3569268599045026e-5 0.0
0.00016970615820738767 1.1883242796353473e-6 0.0
9.948538411832309e-5 -2.5346362909847584e-5 0.0
9.581411779818684e-5 -2.3700990169893e-5 0.0
0.00018143241525539835 1.3748456668963246e-6 0.0
0.00016232185838461832 -2.6297916337103936e-5 0.0
0.0001581985862048097 -2.385822787376567e-5 0.0
9.591137240798181e-5 -2.0997214992471192e-5 0.0
9.225070016856331e-5 -2.2139302271465012e-5 0.0
9.232698854576816e-5 -1.9674289350778663e-5 0.0
8.870389648901969e-5 -2.064823548157123e-5 0.0
8.870317128616694e-5 -2.338063493932358e-5 0.0
8.52176086821897e-5 -2.1721452432747632e-5 0.0
8.527285358064533e-5 -2.468472624737969e-5 0.0
8.179624377581093e-5 -2.287535910488152e-5 0.0
3.474642815590283e-5 -1.1539028995990704e-5 0.0
0.0002796681006018021 -1.519503174710118e-6 0.0
0.00020075024510503233 4.762871653343093e-6 0.0
0.00019731954478551574 4.7195506711762066e-6 0.0
8.355777850833672e-5 -9.513554431925987e-6 0.0
6.316638041046509e-5 -1.132977375539999e-5 0.0
0.00026274289474073327 3.0976829614492742e-6 0.0
0.00025782012859225297 3.3294674341284223e-6 0.0
0.0001269090708265364 -2.5358826381122657e-5 0.0
0.0001327200431350375 -2.378606484626145e-5 0.0
0.00020879005980567084 -2.8835635141251825e-5 0.0
3.185987762823937e-5 -7.0080293963885755e-6 0.0
0.0001821221102738737 7.821444281121382e-7 0.0
0.0001939793843477014 4.237836708503554e-6 0.0
0.00019441726530860173 4.587304739809146e-6 0.0
0.00022047716770930376 -1.820403853298387e-5 0.0
0.00022187608539877296 -4.2818042085709877e-7 0.0
0.00022869606958102542 -2.3613645920257794e-5 0.0
0.0002314620436935088 -2.5477189667929213e-5 0.0
0.00023099224233890742 -2.8613064779271213e-5 0.0
0.00023417478708165254 -2.7414982767467427e-5 0.0
0.00014525186759191405 -1.0243211768751932e-6 0.0
3.756655310665275e-5 -1.321703464821224e-5 0.0
0.000162252850263017 -4.102245690052166e-6 0.0
0.00023177297397085234 4.2044497854603865e-6 0.0
0.0001290393704886181 -1.977824971770263e-5 0.0
5.1530036345682936e-5 -1.8566656833067115e-5 0.0
5.396693890896851e-5 -1.828588999912324e-5 0.0
0.0002062384250783341 -3.000355482786331e-5 0.0
8.871620203936497e-5 -1.8439671280251137e-5 0.0
0.00018744615351348482 -7.4792620068520696e-6 0.0
0.00018432134489253894 -8.308609476537819e-6 0.0
0.00026913931167935317 -1.925973844305759e-5 0.0
0.00027573630407713614 -1.343072588010365e-5 0.0
0.0002819320713369445 -6.196730462164479e-6 0.0
9.602426033852713e-5 7.532263928214385e-6 0.0
1.7459132707037725e-5 -4.160645267773712e-6 0.0
1.5005635014909579e-5 -3.123674189139924e-6 0.0
1.4480158126882236e-5 -2.8632962545451135e-6 0.0
0.00020194283514550927 9.230430596430805e-8 0.0
0.00020500396409821526 -1.109664213312284e-6 0.0
0.00019905032042076272 2.0360909060071224e-6 0.0
0.0002079114107359693 4.164318392751337e-6 0.0
0.00025563042400289477 3.351616762048899e-6 0.0
0.00026369167252559054 3.1081873650399274e-6 0.0
9.578454785054549e-5 -2.689899584110943e-5 0.0
0.000205664700246946 3.3969906841111035e-6 0.0
4.815067551864473e-5 2.6406862435703985e-6 0.0
4.908806346609301e-5 4.213938221203436e-6 0.0
6.240143031861363e-5 6.055363651552282e-6 0.0
4.98503695408229e-5 4.415660927695281e-6 0.0
6.935057449792257e-5 6.542517220548223e-6 0.0
0.0001580433270131147 -2.113733978212601e-5 0.0
8.166752813375627e-5 -2.0165798922291446e-5 0.0
7.834560764599898e-5 -2.1153941959308963e-5 0.0
7.85130482863252e-5 -2.402683892497239e-5 0.0
7.510918824047059e-5 -2.2186316409259315e-5 0.0
0.00023459850919609396 -2.4185689635561364e-5 0.0
0.00023731579441609501 -2.6135862204254478e-5 0.0
0.0002368158403409099 -2.932265836827926e-5 0.0
0.00023985838880696253 -2.7996237006284455e-5 0.0
0.00019358810356229173 -5.628563585837518e-6 0.0
0.00019678743830840696 -4.683477974482197e-6 0.0
0.00017665357382954302 -2.7572637085042503e-5 0.0
0.00017967696853933942 -2.6147945309633054e-5 0.0
0.00013489551002579628 -5.763201286397463e-6 0.0
0.00012831986031879825 -6.602853930552532e-6 0.0
0.00012080628843632201 -2.725963519584385e-5 0.0
7.537515123647937e-5 -2.501888297028844e-5 0.0
7.207362200401772e-5 -2.3139331059749364e-5 0.0
0.00025729229787972696 -2.0953713230033838e-5 0.0
0.00025571517397192275 -2.4843290392393474e-5 0.0
0.0002532941727541833 -2.3744522159543144e-5 0.0
0.00025243611914074684 -2.7026480680611547e-5 0.0
0.00013218030463119798 -2.7304077372262485e-5 0.0
1.9824940899824526e-5 -5.340559292196041e-6 0.0
2.5954018584943727e-5 -5.624326266073343e-6 0.0
2.286972745430123e-5 -4.939446716900702e-6 0.0
2.008136518924086e-5 -3.3191171268842683e-6 0.0
1.9912197105401603e-5 -3.0214728715768787e-6 0.0
2.4400506386863086e-5 -3.395840179499223e-6 0.0
1.9839384396097517e-5 -2.823108721666757e-6 0.0
2.4599258405084327e-5 -3.1960939631609494e-6 0.0
1.9792144932787576e-5 -2.6706966470575744e-6 0.0
2.4905415334500163e-5 -3.017672908322227e-6 0.0
0.0002580140652335309 -2.5777699324927086e-5 0.0
7.479396264571363e-5 -1.9583236972090234e-5 0.0
0.0002176219920296281 -1.6554965651463507e-5 0.0
0.00020367678243610207 -2.8210493040496667e-5 0.0
0.0002037845377628599 -3.1097986324750746e-5 0.0
0.00020129617355475025 -2.935104770807534e-5 0.0
0.00015818679967852256 -2.8157756733605874e-5 0.0
0.00020379331684379783 4.7172924133448636e-6 0.0
0.00023927635360803995 -3.112444281029547e-5 0.0
0.0002850373514792771 -5.345880604616073e-6 0.0
0.0002781296109410278 -1.292426887244097e-5 0.0
9.768673318976143e-5 9.742664665057038e-6 0.0
0.00020017103816936236 5.002498469306235e-6 0.0
0.0001674906247329525 -1.0721551952236765e-5 0.0
0.00017130794596319107 -9.98677642510948e-6 0.0
0.00016626941975684718 -2.875184229119298e-5 0.0
0.0001535449941738648 -2.53891703320807e-5 0.0
5.632936059182158e-5 -6.401354381916128e-6 0.0
0.00026838385438294067 2.910101645122812e-6 0.0
0.0002715180788373197 2.7441769873136563e-6 0.0
0.00026672498058781107 2.8454320960029564e-6 0.0
0.0002742862332251601 2.492565512037986e-6 0.0
0.000223661507044452 -9.338940711882358e-6 0.0
0.00018329158721178 -1.796142621402169e-5 0.0
0.00018459152313681797 -6.6096195134193365e-6 0.0
0.00013066061754457125 -1.4373505676272438e-5 0.0
0.00019105747671857416 1.7783351918719677e-6 0.0
0.0001994019614462477 -7.557597587856583e-6 0.0
0.00020079757110333024 -1.5222064372803845e-5 0.0
0.00020377514479085813 -1.4205003783861383e-5 0.0
0.0002003172072741795 -1.8041528647273274e-6 0.0
0.0002038187302354369 -2.352423673667065e-6 0.0
5.4634685465062314e-5 -2.0492382911776573e-5 0.0
5.699118167672187e-5 -2.018302421096566e-5 0.0
1.978713339758207e-5 -2.52398627760839e-6 0.0
2.5043610332255564e-5 -2.874638578117161e-6 0.0
3.0440167513038847e-5 -3.2783370863467525e-6 0.0
3.091246131438992e-5 -3.13121668677667e-6 0.0
2.531870534619785e-5 -2.7603951770503786e-6 0.0
3.1599418640212333e-5 -3.0562290190571213e-6 0.0
2.5657371274516778e-5 -2.7333780871671736e-6 0.0
3.244571002046717e-5 -3.075879307021046e-6 0.0
2.5920589755346463e-5 -2.775709108993559e-6 0.0
1.584249861877581e-5 -3.565486866894769e-6 0.0
0.0001813679765115229 -7.40038488410262e-6 0.0
1.3423247695098571e-5 -2.5652013472772258e-6 0.0
4.9340478922881034e-5 -1.8762479466181423e-5 0.0
0.0002834545868372068 -1.7403096394178592e-6 0.0
0.00015025162350180206 -9.207791123115353e-6 0.0
0.00019148263688173727 3.980907155637587e-6 0.0
0.00019228314973806254 4.3977126065112975e-6 0.0
3.314180831849902e-5 -3.0431246193404083e-6 0.0
3.5820010757798914e-5 -1.3137612752127179e-5 0.0
3.305332750851975e-5 -1.1444857055837583e-5 0.0
7.881461881677738e-5 -2.750732898215814e-5 0.0
0.00020841796411538862 -3.1654397970374244e-5 0.0
9.938537765103346e-5 -2.8803459706288588e-5 0.0
0.00024225125643986128 -2.9742397359341754e-5 0.0
0.00028700242109421886 -3.3927668781014143e-6 0.0
0.00012759791900050535 -7.653458027837352e-6 0.0
0.00012192125663887454 -7.462933429130284e-6 0.0
0.00012120993898271985 -8.540423476091722e-6 0.0
0.00011052195816037096 1.0357753714978348e-5 0.0
0.0001160739511285068 -8.310936699759976e-6 0.0
2.059837031245741e-5 -3.752518431810257e-6 0.0
0.0001795144907419999 -2.9528074012040592e-5 0.0
0.00018239439742546458 -2.8065811268263532e-5 0.0
0.00018245747798728042 -2.4860721826569094e-5 0.0
0.0001851836308157475 -2.6757200244721336e-5 0.0
0.00020657058219314455 -1.562497213573968e-5 0.0
0.0002068467610888635 -1.3127222545679078e-5 0.0
0.0002844133693653681 -4.4582257256187376e-7 0.0
0.00028042612871143264 -4.550041253523148e-8 0.0
0.00019530791472841354 4.858500289565061e-6 0.0
0.0001929887582114252 4.606717841248186e-6 0.0
4.636119195860389e-5 -1.6909127379300745e-5 0.0
7.250745885709041e-5 -2.583972386811333e-5 0.0
6.928429266731659e-5 -2.3955431664532356e-5 0.0
0.00016227347569545313 -6.4797575538322e-7 0.0
0.0002363958489485648 -3.238926602778739e-5 0.0
2.6193157137431415e-5 -2.605020851020723e-6 0.0
6.879196672891918e-5 -2.1284100706455404e-5 0.0
0.00018522477198577018 -3.0130804490807692e-5 0.0
0.0001880148358522768 -2.884503373212278e-5 0.0
0.00018163059968003404 -5.84830121189484e-6 0.0
0.00017834806200640066 -6.575287907958242e-6 0.0
0.00017866467112729998 -5.148592139836598e-6 0.0
0.00017112925594206733 8.28570888554352e-7 0.0
2.0281593062809722e-5 -4.294994040976705e-6 0.0
1.424153124946492e-5 -2.972300597702319e-6 0.0
0.00018523262275602063 -2.364919221768713e-5 0.0
0.00018638454239566297 -2.655084180788038e-6 0.0
0.00015336321416101033 -2.9967132140782396e-5 0.0
5.15308977383088e-5 -4.761955768099088e-6 0.0
9.980597149410657e-5 -5.502371446479855e-6 0.0
3.861319856479139e-5 -1.4958974077547377e-5 0.0
0.0002429570975652201 -2.6581698442812715e-5 0.0
5.2552484895570075e-5 -1.0456726433931535e-5 0.0
4.8912662270227884e-5 -9.658912904555098e-6 0.0
5.2652277469867554e-5 -9.804531936203496e-6 0.0
4.88680453615417e-5 -9.067263421258219e-6 0.0
5.2740587423401195e-5 -9.141385713012334e-6 0.0
4.5200295158996366e-5 -8.903508802829265e-6 0.0
0.00020148368711093664 -3.20957410195605e-5 0.0
0.00019921694885191365 -3.0404926418354528e-5 0.0
3.709805816263927e-5 2.1051398665089283e-6 0.0
0.000158218371369419 -3.220774276161575e-5 0.0
0.00015330894767427424 -1.6101596373009546e-5 0.0
0.0001476781333009873 -1.681972747994045e-5 0.0
5.7733840792530296e-5 -2.2453054312404055e-5 0.0
1.6561232298945246e-5 -2.920393095482631e-6 0.0
1.738921009611096e-5 -3.4341793938921063e-6 0.0
0.0002611095618510578 -1.7042270246383402e-6 0.0
0.00026698924687047716 2.2840739328025465e-8 0.0
3.660473657734258e-5 -3.456608920826823e-6 0.0
6.00782667467298e-5 -2.2094283148943652e-5 0.0
5.961294955978222e-5 -1.9865401942698584e-5 0.0
6.086052233631535e-5 -2.442669015984857e-5 0.0
5.554495412529546e-5 -2.2663037558013584e-5 0.0
5.339771000702855e-5 4.0331857553413745e-6 0.0
0.00010375087871170438 -1.9005767364288294e-5 0.0
0.0001811028787435807 -9.099918607650901e-6 0.0
0.0002616808802934923 5.87778700668818e-7 0.0
0.00017645551336751213 -3.115994019334076e-5 0.0
9.572384142981332e-5 -3.0515936500023433e-5 0.0
0.00028757049807853004 -4.4833571496841515e-6 0.0
0.00028011484839808045 -1.2390270141641422e-5 0.0
0.00010915396289215914 7.634894379591255e-6 0.0
6.993246696046252e-5 -2.6574161071414825e-5 0.0
0.00019385507932896494 -3.824332477982755e-6 0.0
0.00019732220505254625 -2.940738189781473e-6 0.0
2.5629882635293515e-5 -5.489107602598561e-6 0.0
3.418210224946113e-5 -1.2960289731078045e-5 0.0
3.151157503914582e-5 -1.1300426901373239e-5 0.0
3.0386789730385e-5 -9.884950774484952e-6 0.0
4.733365633555993e-5 -1.885972157186137e-5 0.0
1.1831691925060153e-5 -2.019450695525837e-6 0.0
1.1178065274702273e-5 -1.8086582535629474e-6 0.0
0.0001880665828615333 -3.218283047099676e-5 0.0
0.00019078766989619487 -3.090333685949997e-5 0.0
0.00019052107791198627 -2.752526987992301e-5 0.0
0.00023785040183037101 -2.2808598537942502e-5 0.0
0.00023500140655016773 -2.0843721696123784e-5 0.0
0.00023868946613719692 -3.4124273331473775e-5 0.0
4.5103735171308804e-5 -8.34046828105277e-6 0.0
4.1610799664317514e-5 -8.197253766341216e-6 0.0
0.00020019578948835893 -3.7191288901220508e-6 0.0
0.0002786743292008306 2.3053359866295823e-6 0.0
0.00028115473756775913 2.0461495469003136e-6 0.0
0.0002847006226224702 5.378522534894953e-7 0.0
0.00027192634518472637 -2.0421006841524566e-5 0.0
1.672017783437936e-5 -4.195950278929073e-6 0.0
0.0001921260780413502 3.532804639710389e-6 0.0
0.00018928455431229424 3.320264555838022e-6 0.0
0.00018850590493987846 3.1968536897162687e-6 0.0
0.0001857832138250549 2.949527511407122e-6 0.0
0.00018503822545590652 2.8659920608708305e-6 0.0
0.00018642802250555673 3.0193393315230916e-6 0.0
0.00016784989588211434 -9.156391257361523e-6 0.0
0.0001290527283733397 -5.629373649363787e-6 0.0
0.00013569628889388276 -4.824927993829895e-6 0.0
3.2665976986905425e-5 -1.2729979065887372e-5 0.0
3.0034489830003833e-5 -1.1045935832832038e-5 0.0
0.0002444498936467263 3.603175513444673e-6 0.0
0.0002545885097994233 3.173064954220743e-6 0.0
0.0002587552295092966 3.24685635690333e-6 0.0
0.0002652552573010399 2.682987397698126e-6 0.0
0.0002625552898251245 1.981472334256317e-6 0.0
0.00014859082683530938 -2.7364092907583937e-5 0.0
0.00014873324720353454 -2.3778251285861034e-5 0.0
0.00014812278681854038 -3.1647420357357406e-5 0.0
0.0001893512032067993 3.5479920651678392e-6 0.0
0.00018835993654799945 3.2832409297005436e-6 0.0
3.623340872433074e-5 -3.6720602089571045e-6 0.0
1.9040323131861736e-5 -2.3090674901211148e-6 0.0
0.0001993128843414684 -3.304196359229632e-5 0.0
4.721004114162841e-5 4.790496011497182e-7 0.0
0.00019591595136742607 -1.05950939678127e-5 0.0
0.00018826706851461498 3.1275351009404395e-6 0.0
0.00018432453831627153 2.78374000839403e-6 0.0
0.00018702331607112752 2.964866266684503e-6 0.0
0.00018359032754532373 2.6612903397487873e-6 0.0
0.00018623358419716677 2.799496997485347e-6 0.0
0.0001828648185762583 2.4761416402107686e-6 0.0
0.0001855245240588349 2.5786283780795715e-6 0.0
0.00018216713612772157 2.2350248337505207e-6 0.0
0.00018496641924930276 2.2938022217769764e-6 0.0
0.00018078478660904715 2.451922753158766e-6 0.0
0.00017939832230545315 2.1213695591507006e-6 0.0
0.0002038458951187282 -3.3756137966661784e-5 0.0
0.00028875124926100893 -6.229724106357434e-7 0.0
9.245111541287075e-5 -1.7714097567078813e-5 0.0
8.867849982207024e-5 -1.6716976607682948e-5 0.0
0.00026424659316492364 -2.3486480799064077e-5 0.0
0.00011697687077875187 -7.402591815432172e-6 0.0
0.00018242473039526845 2.5953667081610478e-6 0.0
7.236527190423973e-5 6.6425661162398595e-6 0.0
1.569750335032106e-5 -2.3849316895179216e-6 0.0
0.00012476177636047182 1.0435943897125002e-5 0.0
0.0001209959572671327 7.157522894428151e-6 0.0
0.00021437115960853113 4.965684772526037e-6 0.0
0.0002660543466603545 -2.401304860574269e-5 0.0
0.00026223374120981245 -2.7291881019661e-5 0.0
0.00011520426678380723 -9.410239408932986e-6 0.0
0.0001108431312274464 -8.966192647083136e-6 0.0
4.0044389909961365e-5 -1.3559216303238267e-5 0.0
1.26254830152804e-5 -2.382208709677409e-6 0.0
1.3233957345564697e-5 -2.4423042791817795e-6 0.0
1.3644637882442532e-5 -2.7498061316037242e-6 0.0
1.0112575099310788e-5 -1.4955397075466533e-6 0.0
0.0002040116683433938 -1.1863707882370066e-5 0.0
0.00020715878372473993 -1.0761429217697331e-5 0.0
0.00021007850027564918 -1.2057706444015074e-5 0.0
0.00021036060120870566 -9.551370548489813e-6 0.0
0.00017870728472472823 1.8639945176270583e-6 0.0
8.84796278810153e-5 8.901875078681689e-6 0.0
0.0001169750699999877 1.2593381325449217e-5 0.0
0.0001752329789932024 -5.8410066595945004e-6 0.0
0.00017566286133478156 -4.4930889915898015e-6 0.0
0.00012992532998088683 -4.778396539778941e-6 0.0
0.00010344344269002124 -7.116200382914203e-6 0.0
9.933823451983353e-5 -3.2599122665319956e-5 0.0
0.00022255652678483806 -2.9037717193391196e-5 0.0
0.00022512963332207032 -3.0896387310867525e-5 0.0
0.00022245139969432617 -3.2040914638719124e-5 0.0
0.0002249446984702397 -3.388432341939844e-5 0.0
0.00022233679814732672 -3.49679532403424e-5 0.0
0.0002198758462857452 -3.320763360562384e-5 0.0
0.00021405673668256414 -2.9877970996830187e-5 0.0
0.00019862092307670816 -2.736305253342606e-5 0.0
0.00020039946388942698 3.917038403052368e-6 0.0
0.00016645934547255536 -1.7582950723886182e-5 0.0
3.8907106488766805e-5 -3.2865761773086193e-6 0.0
0.00027450777307585735 -1.912070027212877e-5 0.0
0.00028190537014588794 -1.1835033516497128e-5 0.0
0.00022760776486084827 -3.2756779298235476e-5 0.0
0.0002273983625037444 -3.565890820048904e-5 0.0
0.00022997559041510265 -3.458134285363056e-5 0.0
0.00010297055141479513 -3.084033865706715e-5 0.0
0.00014220619682077368 -1.5889187922183738e-5 0.0
0.00014190140874468631 -1.757540652854979e-5 0.0
0.00014729144346520878 -1.8622743128773946e-5 0.0
8.274376720718735e-5 -1.3413447155135017e-5 0.0
0.00013634658528555244 -1.6688508023691064e-5 0.0
0.00018256697507785467 -2.195056934152614e-5 0.0
0.00023854227321169367 -1.9302901045866625e-5 0.0
0.000245275949704736 -2.8246958349776337e-5 0.0
0.00024447591148474686 -3.141556618695438e-5 0.0
0.0002465919967839081 -2.4758672863115095e-5 0.0
2.9859726062191757e-5 -3.736710852947718e-6 0.0
8.874931474941752e-5 -2.657484866000234e-5 0.0
8.545641978520417e-5 -2.793640386522693e-5 0.0
8.884043235471251e-5 -2.9958361163125895e-5 0.0
8.582275562184448e-5 -3.10811880365179e-5 0.0
0.00021329168541233122 -1.0791062789204363e-5 0.0
5.03596144824159e-5 -2.078351849809142e-5 0.0
4.4534274134160905e-5 -1.704368352588989e-5 0.0
0.00027682670675741646 1.9933861287565227e-6 0.0
1.509184687679536e-5 -2.1004657818261865e-6 0.0
1.5010664941007048e-5 -2.0040937320813204e-6 0.0
0.00019685047511484025 -3.093871518384241e-5 0.0
0.00019726486540121903 -3.406567816997487e-5 0.0
0.00016375526832313896 -9.888776445624982e-6 0.0
0.00026959883597207007 2.591154716369123e-6 0.0
4.5510068341543555e-5 -1.886711364529434e-5 0.0
0.0002145819599925368 -3.426344168520181e-6 0.0
0.0002543586783791972 -1.974433336012137e-5 0.0
0.00025454258816394633 -7.922567487337415e-7 0.0
0.0002579505498941463 -5.720366583076601e-7 0.0
0.0002075120873482348 -8.476790088017603e-6 0.0
0.0002208589632505919 -1.5324266245246937e-5 0.0
0.00022375837290176332 -1.6978605314920745e-5 0.0
0.00020073102702388546 -3.575691481965001e-6 0.0
0.00020423050813486284 -4.509337440371666e-6 0.0
0.0002073424989677538 -2.9819562898396847e-6 0.0
0.000185153451129161 -3.357524012960181e-5 0.0
7.296455843500481e-5 -2.8445653187199336e-5 0.0
0.00013283270642242256 -9.043312100063058e-6 0.0
0.00019068995397778762 -4.837664602104914e-6 0.0
0.00017450273776059634 -1.0849441096027363e-5 0.0
0.0001793207553248772 -3.319701990375054e-5 0.0
6.311203675049021e-5 -2.4051416682404893e-5 0.0
8.504732320788115e-5 -1.7267975873402096e-5 0.0
3.21813133091988e-5 -6.179973475900831e-6 0.0
0.0002743851901232952 2.151455905951329e-6 0.0
0.00021464175057854128 -1.783698006608519e-5 0.0
2.2399843028570468e-5 -4.771381142956001e-6 0.0
9.222402531874278e-5 1.0442854158993744e-5 0.0
0.00017702049278566626 -1.9062757038254002e-5 0.0
0.00021974129901415582 -3.604942529730198e-5 0.0
0.00021722447066271124 -3.432450672385718e-5 0.0
0.00019518595726090155 -1.4836649403845873e-5 0.0
0.00020053472435914018 -2.055241641637678e-6 0.0
7.8606406708634e-5 -1.0752037338321438e-5 0.0
0.00014149632762453082 -1.9783849190352728e-5 0.0
0.00018948652389921564 -1.9818701316808284e-6 0.0
8.497008202405616e-5 -1.5713767240774992e-5 0.0
8.130292233661534e-5 -1.613854623741824e-5 0.0
6.39014880738274e-5 -2.6399598031743405e-5 0.0
4.252130824275777e-5 -3.7669799653759502e-6 0.0
4.332559399285677e-5 -3.5832631070623443e-6 0.0
1.915505813516754e-5 -1.9620639830931585e-6 0.0
2.7019403663009255e-5 -1.6947947605164977e-6 0.0
0.00023595088100253174 -3.532590257131618e-5 0.0
2.8781815261235305e-5 -6.176229846551857e-6 0.0
4.1772766133191236e-5 -8.652637991979956e-6 0.0
3.831548448036483e-5 -7.929025289003388e-6 0.0
0.00024388084319866573 -2.3194828374794576e-5 0.0
0.00012398296288735169 -1.6901472783557874e-5 0.0
0.0001715974554139875 -8.351032522433992e-6 0.0
0.00019633074243736648 3.928682899529933e-6 0.0
0.00019571690869221343 1.8276517509356415e-6 0.0
0.0001937808199259917 3.496873065118726e-6 0.0
0.00019369739752203818 1.3303248294177731e-6 0.0
0.00019518528254388817 -3.9347954031922324e-7 0.0
0.00020856051577215033 4.4197501486649704e-6 0.0
0.0002130362501788338 4.336167122740372e-6 0.0
0.00021408842306213413 4.619945914130434e-6 0.0
0.00021862190852366963 4.469565264383214e-6 0.0
0.000217533518107624 4.234138145418042e-6 0.0
1.2714501717646999e-5 -2.132004252524347e-6 0.0
0.0002137298934714498 -8.331812978205088e-6 0.0
3.524746073277525e-5 2.5365228447765997e-6 0.0
3.845197100406087e-5 2.371196329352239e-6 0.0
0.00019072122606851835 -3.403229596964899e-5 0.0
1.032552266214536e-5 -1.4610790798349882e-6 0.0
0.00022994005806964665 3.6877271118209427e-7 0.0
0.00023502960411123683 1.5857379992506868e-6 0.0
0.00023100287621654873 2.0528382691093967e-6 0.0
0.00023973869767830825 1.2073171522317705e-6 0.0
0.00024047685825797553 2.5108365776364358e-6 0.0
0.0002456803567680956 2.1974333049088067e-6 0.0
5.67092256308972e-5 -9.862855287334843e-6 0.0
5.699814551704727e-5 -9.143343350828641e-6 0.0
5.2816978881765214e-5 -8.407523562522063e-6 0.0
5.7233298293301585e-5 -8.386323507108174e-6 0.0
6.159987934123305e-5 -9.10015558226109e-6 0.0
6.191772600365118e-5 -8.307308394314504e-6 0.0
6.643409635271791e-5 -8.979012346372124e-6 0.0
7.069768914485725e-5 -2.8961023102992138e-5 0.0
6.682846414997958e-5 -8.144410472524933e-6 0.0
7.13362376131533e-5 -8.7789515849164e-6 0.0
1.9614732460014454e-5 -2.3183200931402685e-6 0.0
4.1891077211256644e-5 -4.0473485410158785e-6 0.0
7.076248085605925e-5 -9.620597568453009e-6 0.0
5.337897429478472e-5 -7.725263547773308e-6 0.0
0.00023556381671867792 -1.7429681375329472e-5 0.0
0.00023217741470883357 -1.9054487362405987e-5 0.0
0.0001435047974632915 -2.9289755419733505e-5 0.0
0.00014315816915524718 -3.365465726347174e-5 0.0
0.00019266459906010783 3.554210204662893e-6 0.0
0.00010897690689132093 4.337170288922624e-6 0.0
0.00011968527267747773 3.615406869727236e-6 0.0
0.0001311490765834008 5.909431753879258e-6 0.0
0.00012960196838483854 2.392833405149951e-6 0.0
0.00011920805009236728 6.260007240712902e-7 0.0
0.00012862562500418658 -2.0320242967205695e-7 0.0
0.00011899610338323997 -1.0618108393084085e-6 0.0
0.0001282389335916889 -1.2577381703111622e-6 0.0
0.0001188568949243734 -1.6770467584515602e-6 0.0
0.00012941788053292283 -1.4297100300343025e-6 0.0
0.00011852904744396944 -1.8278332361975568e-6 0.0
0.00012709153705147083 -1.4837358995624923e-6 0.0
0.00011783914254009657 -1.8252054717480279e-6 0.0
0.00012611307085910956 -1.4336243882851207e-6 0.0
0.00011765861874652913 -1.802038664554691e-6 0.0
0.00012557377122322238 -1.3963089419117721e-6 0.0
0.00011725462270342154 -1.8044580612621303e-6 0.0
0.00012475511694257966 -1.3892282756149768e-6 0.0
0.00011685569395840183 -1.8133186617664957e-6 0.0
0.0001241431539690184 -1.4100703970760167e-6 0.0
0.00011641789784208974 -1.8734311375775404e-6 0.0
0.00012348940971414543 -1.4698445160824813e-6 0.0
0.00011579454509234538 -1.9792823916625865e-6 0.0
0.0001228583688590576 -1.5765653993785405e-6 0.0
0.00011519838745903386 -2.1388012975395165e-6 0.0
0.00010850815192146117 -2.5525850393724937e-6 0.0
0.00010796244028467964 -2.7656454711382003e-6 0.0
0.00012275417002562507 -1.7180941378312785e-6 0.0
0.00010991364212793869 -2.268280752749668e-6 0.0
0.00013079399555335257 -1.1029748347815897e-6 0.0
0.00013298277054782167 -1.0064268844391137e-6 0.0
0.00011031514815137052 -1.8221070040632544e-6 0.0
0.00013443201354022613 -1.099227096191117e-6 0.0
0.00010141475978277641 -3.10983166994196e-6 0.0
0.00010103582119345599 -3.3602849892473483e-6 0.0
0.00010746652028024097 -3.0393434466571363e-6 0.0
0.00010068316716915552 -3.663436557472995e-6 0.0
0.00010974885113093839 -2.288386464424271e-6 0.0
0.00013765953409207408 -1.243685659098957e-6 0.0
0.00010196327880841261 -2.911177899563679e-6 0.0
0.00013882185935584242 -9.678108095716405e-7 0.0
0.00010703836118471086 -3.3602932820094857e-6 0.0
0.00010032174110470986 -4.022761006537464e-6 0.0
9.423127023436726e-5 -4.221434818227672e-6 0.0
9.478923793213264e-5 -3.4043835904183626e-6 0.0
9.5078847345534e-5 -3.2307585770045973e-6 0.0
0.0001141178242506294 -2.6513064804170804e-6 0.0
0.00011350732791682563 -3.006737501728265e-6 0.0
0.00012074559611962842 -2.317426619456117e-6 0.0
0.00014142862690772433 3.89506684238317e-6 0.0
0.00014487227424831367 6.913907801046657e-6 0.0
9.413625298811248e-5 -4.611056140766383e-6 0.0
8.806306864706e-5 -4.685531116767616e-6 0.0
8.826929241886602e-5 -4.336493511286314e-6 0.0
8.190625916023076e-5 -4.679686698551567e-6 0.0
0.00017620727933159835 -3.500426304678337e-5 0.0
0.00017325281489003602 -3.29474508959348e-5 0.0
0.00026384981387838306 -2.773154598394153e-5 0.0
0.00018527237388834216 -2.09651084545534e-5 0.0
0.00018783500819351669 -2.2654601491351816e-5 0.0
9.19657036038797e-5 -1.611999458359769e-5 0.0
9.585993386435086e-5 -1.6974142000380432e-5 0.0
0.0002326946046368108 2.893848083684551e-6 0.0
0.00018484941908843098 -4.995304630902962e-6 0.0
0.0001001569140356067 -4.4455903481496525e-6 0.0
6.570770778270954e-5 -2.203226900145294e-5 0.0
6.556352501463277e-5 -1.9522897370452615e-5 0.0
6.847339414939367e-5 -1.8796325122513866e-5 0.0
0.00019761254037059894 -1.430888656869313e-6 0.0
0.00018929045805079066 3.0539813939391284e-6 0.0
0.00012066917925826597 -9.66267519297468e-6 0.0
0.00011478112766683473 -1.0535683671352839e-5 0.0
0.0001861287729359345 2.6908843981827726e-6 0.0
0.0001851777952432686 2.6236612731806035e-6 0.0
0.00018724637461379557 3.0595567379042216e-6 0.0
0.00018397840162647777 2.5542564303030014e-6 0.0
0.00018726623281437735 2.832923732789231e-6 0.0
0.00018819366546759126 2.6208377379041102e-6 0.0
0.0001877710439171447 2.2905121531392982e-6 0.0
0.00018416080836773557 1.8973020121519688e-6 0.0
0.00013659090193756903 -3.989869749695503e-6 0.0
0.00014242986660906024 -4.056740249616194e-6 0.0
0.00014339002965128264 -3.2758065045639714e-6 0.0
0.00014888140537128207 -3.3324385081189446e-6 0.0
0.0001498078647841685 -2.602025374781571e-6 0.0
0.00015484181100721968 -2.6578505757968856e-6 0.0
0.0001557430391868578 -1.9463736872274348e-6 0.0
0.00016032006157948474 -1.9967517358072085e-6 0.0
0.00015938355336896732 -2.8057605897469445e-6 0.0
0.00016436127350809532 -2.0352854033009973e-6 0.0
0.00017919095248621723 -3.864157715148105e-6 0.0
0.00017611449786538325 -3.2855985754924797e-6 0.0
0.00017253210101588645 -3.9464602415975965e-6 0.0
0.0001730198474124399 -2.8367853821561605e-6 0.0
2.533330135484678e-5 -5.1591262837920605e-6 0.0
3.1281694244063714e-5 -1.2431386230738212e-5 0.0
2.8718097212728663e-5 -1.0731970876149225e-5 0.0
2.7519774262240895e-5 -9.401106409444268e-6 0.0
2.613635390287586e-5 -9.051513895001125e-6 0.0
0.0001641722253284591 -8.418951480473886e-6 0.0
0.00020351406602982643 -2.6952918388160083e-6 0.0
0.00020293211391520592 -4.576054507618007e-6 0.0
8.50704111094316e-5 8.803765940492085e-6 0.0
0.0001759131339595662 1.739851789458806e-6 0.0
0.00017653596137481517 1.926419196177707e-6 0.0
0.00019120507387473476 3.3805647406215366e-6 0.0
0.0002844952463104904 -3.467904665061456e-6 0.0
0.00028843303882261146 -2.102204573132132e-6 0.0
0.0002910066589963009 -1.8784044015502104e-6 0.0
1.0306934259376024e-5 -1.9210906611563212e-6 0.0
1.0611011545665205e-5 -2.0547127149997913e-6 0.0
1.3783286526847828e-5 -2.826814474968544e-6 0.0
1.116004721118811e-5 -2.088636097271868e-6 0.0
1.409160598468076e-5 -2.75561860582172e-6 0.0
1.1590781321541844e-5 -2.0252487499914277e-6 0.0
8.237327977425596e-6 -1.291675562247134e-6 0.0
0.00015972797714149383 -9.152113351170892e-6 0.0
6.248968262481646e-5 -7.544267816971292e-6 0.0
3.543678577771336e-5 -1.449576222560067e-5 0.0
0.00011996590853938731 -2.6802212695392374e-6 0.0
0.00026105141335775345 -3.022355142299806e-5 0.0
0.0002591746718815827 -3.0343114666583937e-5 0.0
0.0002241510118373077 -1.3914879469758544e-5 0.0
0.000227905754343717 -1.5421339475460997e-5 0.0
0.0002279598066902752 -1.1819183980323546e-5 0.0
1.2146463131540314e-5 -1.6467352254761435e-6 0.0
9.596002355781222e-5 -3.412849755455184e-5 0.0
6.18243272158536e-5 -2.669718510182881e-5 0.0
1.091517046243128e-5 -1.8312901321491673e-6 0.0
1.3672780693814287e-5 -3.0961468044846962e-6 0.0
4.89062299348915e-5 -7.7407513475797e-6 0.0
0.0001943700878540639 -9.781249022345486e-7 0.0
0.0001956914246054347 -2.733206156929591e-6 0.0
0.0002176582872126085 -1.3730149491086447e-5 0.0
0.00022654158239700256 -1.8718259865249835e-5 0.0
8.919751978814337e-5 -3.304358297985451e-5 0.0
0.00010278686175371217 -3.463158275164132e-5 0.0
0.00010672369144655373 -3.294285750082498e-5 0.0
0.000247396055008731 -2.989870090460587e-5 0.0
0.0002464906305008244 -3.296703585755492e-5 0.0
0.000243691292163572 -3.48655314451036e-5 0.0
0.0002676499605856447 1.5427463725314833e-6 0.0
0.00026228499894465106 1.985011789733598e-6 0.0
0.0002562935650645752 1.1608017207072817e-6 0.0
0.0002564398025190042 2.402244442286957e-6 0.0
4.08380900432189e-5 -7.655139779111615e-6 0.0
0.0002461692356317668 3.073651876825186e-6 0.0
0.0002401477608670816 3.2773722715445143e-6 0.0
0.00018792183361121705 -2.0388661987457695e-5 0.0
2.716245904050668e-5 -1.0198016241776793e-5 0.0
2.4936264581999735e-5 -8.79842304759806e-6 0.0
2.3768481311414803e-5 -7.64823251318983e-6 0.0
2.259359314840142e-5 -7.3317697175598185e-6 0.0
0.00029183275375520035 -1.2001506549023223e-6 0.0
0.00028355089821607366 1.62102978642355e-6 0.0
0.00028750285813209433 1.50133950416468e-6 0.0
0.00023800545362874368 -3.681258292727269e-5 0.0
0.00012328959962308112 -5.553092823025032e-6 0.0
0.00024922283748563976 -3.144697494551652e-5 0.0
0.00024837868357456994 -3.429954162734746e-5 0.0
0.0002508883249771042 -3.282356392832748e-5 0.0
0.00025021767464953964 -3.5804816619357135e-5 0.0
0.00025274666804724413 -3.384661610896616e-5 0.0
0.00025359106748307594 -3.1061245385547215e-5 0.0
0.0002551490647785706 -3.223600270656305e-5 0.0
0.00014823764304760815 -3.584386478134767e-5 0.0
0.00014342236943091255 -3.843528815250531e-5 0.0
0.00013667675378400732 -3.5753493822345735e-5 0.0
9.411958598208226e-5 -5.1106902249306945e-6 0.0
9.270733970163355e-6 -1.3684808720081393e-6 0.0
1.1992373125044686e-5 -2.0262391258674707e-6 0.0
9.73684029537962e-6 -1.4499183315870588e-6 0.0
8.680700631323114e-5 -3.438209292015759e-5 0.0
8.325841700957742e-5 -3.206522269801807e-5 0.0
0.00026947784044918465 -2.4350983125372787e-5 0.0
1.9932603060164958e-5 -8.718801020086824e-7 0.0
0.0001692876694708555 -3.6171261182526476e-6 0.0
0.00017001365067533317 -2.5225148044568137e-6 0.0
0.0002625459184103917 3.093222086133562e-6 0.0
0.00027326069835919696 2.3973412653571828e-6 0.0
0.0002473968813855588 -2.1394571923219096e-5 0.0
4.2910591032413475e-5 -1.703925467941124e-5 0.0
4.4244307517471874e-5 -1.8956000342142045e-5 0.0
0.0002133655681621815 -1.3482291430432637e-5 0.0
0.00021323272445951822 -5.3305137110776224e-6 0.0
0.00027613110547408437 -1.8470647776474572e-5 0.0
0.0002839238808742437 -1.083500368993343e-5 0.0
0.00029177200840624026 -2.8020552826686173e-6 0.0
0.00020775230670160304 -4.9084762876266965e-6 0.0
0.0002393516111026701 -1.583545238417326e-5 0.0
0.00013848330948395 -2.472743251330525e-5 0.0
0.0002448061340925925 6.276604590298784e-7 0.0
0.00023211544677881988 -1.6016406525148638e-5 0.0
8.153899362580034e-5 -1.4661978130913658e-5 0.0
4.348587138691461e-5 -1.51743603713591e-5 0.0
0.0002734477616621237 1.1588643172069548e-6 0.0
0.00021871569895277036 -2.536626480756265e-6 0.0
8.351598130438427e-5 -3.45884009790625e-5 0.0
3.615457229221781e-5 -6.9991011953744765e-6 0.0
0.00017466053589766607 1.3883657020616543e-6 0.0
0.00023374788484528477 -3.4074227612147045e-5 0.0
0.00023362779861357136 -3.673671881913638e-5 0.0
8.411371890784126e-6 -1.0106866428601738e-6 0.0
0.0001932474648832611 -3.308553335909516e-5 0.0
0.00019265914110036124 -3.5492435543068244e-5 0.0
0.00010621990233968266 -3.746766930024857e-5 0.0
0.00011080626853467889 -3.525242393916439e-5 0.0
0.0001110289368985895 -3.110123608888477e-5 0.0
0.00011518102564208289 -3.318616721982721e-5 0.0
0.00011059504082163686 -3.8674367226022834e-5 0.0
0.00010259765961376761 -2.791326900374445e-6 0.0
9.56190864081809e-5 -3.166700047200955e-6 0.0
3.560312888182248e-5 -3.931703545437188e-6 0.0
0.00010930479590452526 1.1779896199763404e-5 0.0
0.0001046886725685384 1.1256347758313481e-5 0.0
0.00019249736303596278 4.243129994227609e-6 0.0
0.0002294709159050223 -3.729450034950619e-5 0.0
0.00022713236399323194 -3.834094628425834e-5 0.0
2.359620022808877e-5 -8.413193194788178e-6 0.0
2.1272194489742862e-5 -6.890977678693918e-6 0.0
0.0002895924742084362 1.1198487410776161e-6 0.0
3.9143443345831145e-5 -8.379963779836488e-6 0.0
3.529635346022227e-5 -7.601379182861607e-6 0.0
0.00026371017845329815 -4.681418250912229e-7 0.0
0.00026725319985255064 -2.4624247302235863e-5 0.0
0.00026499008674923485 -2.8559008744398945e-5 0.0
0.0001778900916894999 1.491963945684413e-6 0.0
0.00019933294804243984 -3.559491906050062e-5 0.0
0.0001966050653298931 -3.701508838130255e-5 0.0
7.538221527407623e-5 -9.345770134606247e-6 0.0
7.629846768917936e-5 -8.459956844936204e-6 0.0
0.00011568508940225081 -2.9157499860277595e-5 0.0
0.0002493083544252228 -2.6550595606338312e-5 0.0
0.00016113609166823852 -1.2921708125808851e-6 0.0
0.00015708499507956024 -1.2755519398130343e-6 0.0
9.582774962646466e-6 -1.4403548635224566e-6 0.0
0.00010284937713115759 3.5356072689980525e-5 0.0
0.00014416044851572706 -2.5728060559325187e-6 0.0
8.815481788066061e-5 -3.594355463934353e-6 0.0
8.82641409572372e-5 -3.7979143000740056e-6 0.0
4.855852286513157e-5 -4.062772978278076e-6 0.0
0.00019122215584073098 2.655066180675978e-6 0.0
0.00012715164712238182 -2.031314973080535e-6 0.0
0.00012812869601110382 -1.7173699439615736e-6 0.0
0.00013455485807036308 -1.4434066385001966e-6 0.0
0.00013537834200483956 -1.1999769717684043e-6 0.0
0.00014176465712619453 -9.160124146634196e-7 0.0
0.0001426970182111693 -7.131989631050151e-7 0.0
0.00013615139403612642 -1.013762595252654e-6 0.0
0.00014358833224465656 -5.595906059385068e-7 0.0
0.00013702613463105565 -8.627075427049496e-7 0.0
0.00014461156913041985 -4.441527144098048e-7 0.0
0.0001485854916125877 -4.360343346720842e-7 0.0
1.0842326813792238e-5 -1.4682494464042691e-6 0.0
0.00018704941852810158 1.7713092970700975e-6 0.0
0.00012526519284843736 -4.68178969612718e-6 0.0
0.00013946607119712793 7.619932673687476e-7 0.0
0.000151589291472979 -9.333248554622594e-7 0.0
0.00014916458355269276 -1.1820977856737707e-6 0.0
0.00015159888977692908 1.6055499623217572e-6 0.0
0.0001388626798881775 -1.2189061342672617e-6 0.0
0.00014909002450144124 -1.1872476630953167e-6 0.0
0.00016056864778166656 -1.0902064090806634e-6 0.0
0.00016202934546127783 5.30518182975092e-8 0.0
1.6727467022899083e-5 -3.5014241874632455e-6 0.0
1.7167457898462887e-5 -3.473572807987264e-6 0.0
0.0002866311883849207 7.813879491703149e-7 0.0
0.0002746819689902252 9.844538555292832e-7 0.0
0.00027433798871758544 2.744094703250567e-7 0.0
0.00022251536784834568 -3.8072123435390995e-5 0.0
0.0002195118060424924 -3.877761002701035e-5 0.0
6.527081287947325e-5 -1.7236194544054103e-5 0.0
6.834806873130266e-5 -1.6568952072548025e-5 0.0
6.217104907741033e-5 -1.785458820928765e-5 0.0
8.146527350565411e-5 -3.924249384865935e-6 0.0
0.00016005848613056658 -1.3213464583889424e-6 0.0
0.00015137917799201126 -9.989199410595668e-8 0.0
0.00015197057955149468 -2.1790370111515227e-8 0.0
0.00014554926907786657 -3.891589989667049e-7 0.0
0.00015272372038540975 -4.0919393878578407e-8 0.0
0.00014681721907213813 -3.611205085683973e-7 0.0
6.768887601798204e-5 -2.7214844341393685e-5 0.0
0.0002863127943183071 7.48162910147996e-8 0.0
0.00015605687458652807 4.577230284234555e-6 0.0
0.00019158301417400453 4.085435730994641e-6 0.0
0.0001908715464929938 3.832785032984209e-6 0.0
0.00018872723850171666 2.6158310302875085e-6 0.0
9.676087604405167e-5 4.7236213895274105e-6 0.0
0.0001507100892105333 1.246876771620749e-5 0.0
0.0001368772286956344 1.3579087424565915e-5 0.0
0.00013376287569810512 1.4044844073885866e-5 0.0
0.00020282147881745704 -9.833045606434091e-6 0.0
0.0002407971165628117 -3.575237938932516e-5 0.0
0.00024001502644573444 -3.860744663370367e-5 0.0
6.46208873005972e-5 -2.8556905348515407e-5 0.0
0.0001199720160113025 -3.1175376851594823e-5 0.0
0.00011956549345840247 -3.5273665749236365e-5 0.0
0.00012458946269875424 -3.327734542330182e-5 0.0
0.000124784568428602 -3.8033690316685304e-5 0.0
0.00020518693206151553 4.069384492589585e-6 0.0
0.0002017171216874382 4.772617403090054e-6 0.0
0.00020655092550083619 4.7706758035645385e-6 0.0
0.00021081127131348393 4.1042483959131785e-6 0.0
0.00017381475732218484 -1.8652299574143216e-6 0.0
0.00017128327094455555 -1.536585157178913e-6 0.0
0.0001298798230761353 -3.531662266518932e-5 0.0
8.265164151800267e-5 -5.098787225230796e-6 0.0
7.30030129242174e-6 -8.023049348829581e-7 0.0
0.00013568518128146944 -1.1794654171774434e-6 0.0
0.00014391996376103016 -8.949963683917717e-7 0.0
0.00014302014351341388 -7.861514897965717e-7 0.0
0.00015265055445085954 -5.513876839097272e-7 0.0
0.00015133091327880464 -4.349722067387756e-7 0.0
0.0001535337616310671 -7.068440055041833e-7 0.0
0.00014326289580946896 -6.805731182265165e-7 0.0
0.00015038988165761919 -3.5404896710851994e-7 0.0
0.0001613400751761994 -2.824131563521043e-7 0.0
0.00019778208778687732 4.676771643062407e-6 0.0
0.00014305639862509064 -5.959491726691926e-7 0.0
0.000291266680700791 8.846952526786722e-7 0.0
0.00011279438146027245 -3.4346471213862253e-6 0.0
0.0001469684574913233 -2.0737075002885994e-5 0.0
0.0001528412676970328 -1.979372996672526e-5 0.0
0.00014564778371940366 -1.0047217559421523e-6 0.0
0.0001559041244596532 -8.653485231012428e-7 0.0
0.00017993594100167243 -2.7140290453687083e-6 0.0
0.00021709761085781688 -3.1409740862918516e-5 0.0
0.000214631789354734 -3.2852442687850695e-5 0.0
0.0002147300831813609 -3.5547231269366535e-5 0.0
0.00021237625942397196 -3.424332173251763e-5 0.0
0.0002125589829824143 -3.66432216134441e-5 0.0
0.00021017484506949933 -3.554141139178759e-5 0.0
0.00023492029526881575 3.98574178873424e-6 0.0
0.00023037569913454355 3.958881152884415e-6 0.0
0.0002329163640823418 3.864619393390992e-6 0.0
0.00022619069950790183 3.8817652676023685e-6 0.0
0.0002284048922556644 3.728804537666994e-6 0.0
0.00022209099410550645 3.68617980587085e-6 0.0
0.00022429317143868823 3.444324078344437e-6 0.0
0.00021992913474823408 3.85281187702561e-6 0.0
0.00021627912844799597 3.619453569094216e-6 0.0
0.0002304216863646542 3.5217340253648207e-6 0.0
0.0002142147030301032 3.7926004128649313e-6 0.0
0.0002261520692650791 3.0664890209752362e-6 0.0
0.00022063184188233218 2.9330020956352537e-6 0.0
0.00022212108392121683 2.2347897304268953e-6 0.0
0.0002178025254844085 3.963599791262751e-6 0.0
0.0002276148484394203 4.088577539790283e-6 0.0
0.0002323484379286929 3.151312678373502e-6 0.0
0.00024072507833122623 3.7621671811366734e-6 0.0
0.00023646524039579498 3.5648541540773103e-6 0.0
0.00018291173296248277 2.008245977909067e-6 0.0
0.0001395214854519219 1.2585171739319611e-5 0.0
1.4881735125718586e-5 -2.81190946545887e-6 0.0
1.5139188630256516e-5 -3.5880034037854993e-6 0.0
1.7529942972341522e-5 -4.941082154204446e-6 0.0
0.00013006537155828719 -3.124344838367382e-5 0.0
0.00018313551937782432 -3.4273799702351655e-6 0.0
0.00018317197884509215 2.6386636325564897e-6 0.0
0.00017977935441887758 2.2594815013417438e-6 0.0
0.00018094957801424242 2.2998795908538334e-6 0.0
0.00017919576599781668 2.266208778778745e-6 0.0
0.00018166265538557125 2.5473016904979204e-6 0.0
0.00017830724216555304 2.221667563168693e-6 0.0
0.00017739094882551637 2.121047794865587e-6 0.0
0.00017510190655261115 1.8907577281886098e-6 0.0
1.817467095606685e-5 -4.736859990842278e-6 0.0
0.00019340307549246417 3.908762264007848e-6 0.0
0.00021783950769553297 4.8919543365860836e-6 0.0
0.00021072052593948355 5.028851037952444e-6 0.0
8.880398071802365e-6 3.382306202786387e-7 0.0
2.2052498774025877e-5 1.527282916307423e-6 0.0
1.9863567835374772e-5 7.81627141036591e-7 0.0
0.00019496611838727966 3.6360068899631704e-6 0.0
2.1881204066240058e-5 -6.1305024431709885e-6 0.0
2.4912301385995257e-5 -7.799391019053936e-6 0.0
2.652415825172405e-5 -8.247244762807018e-6 0.0
2.5978072639305213e-5 -7.2284397317589054e-6 0.0
2.7721699875117046e-5 -7.293063539081034e-6 0.0
0.00013163696294073434 -1.0398334884772193e-6 0.0
1.2434580784840434e-5 -1.7055273837035076e-6 0.0
5.017631716793096e-5 -6.449482538590773e-6 0.0
4.0157690353258346e-5 -6.381738445280556e-6 0.0
0.00015711190112610834 -1.023299749880621e-6 0.0
3.581100453498317e-5 1.3588492101583206e-5 0.0
0.0002109061052059914 -3.055220918084162e-5 0.0
0.0001899485973629611 3.440861837940635e-6 0.0
0.0002708015424451373 -2.410640820624319e-5 0.0
0.0002185799928153345 3.3590797767483685e-6 0.0
0.00021305876841798613 3.25411493094635e-6 0.0
0.00021711794966200316 -3.715159693706992e-5 0.0
0.00029226114714649034 8.140703047661464e-7 0.0
0.00028524126161121033 1.5537041254690255e-6 0.0
0.00028715197537263165 1.4543705403434764e-6 0.0
0.000283651211039649 1.634431770808491e-6 0.0
0.0002788754252741869 2.1707380548632015e-6 0.0
0.0002824745561155669 1.700786724725191e-6 0.0
0.0002742241500358531 2.364922868279922e-6 0.0
0.00027629392054498593 2.2710871389037057e-6 0.0
4.802314047988139e-6 -6.772383832963218e-7 0.0
0.0002964315098567332 2.0758485225890503e-7 0.0
0.0002921582802092342 5.606817819466534e-7 0.0
0.0002942815587049038 7.796793361333593e-7 0.0
0.0002927846089874725 3.226335648526766e-8 0.0
0.00019030524960207286 3.983784855549363e-6 0.0
0.00022493365759150975 -3.662605436464576e-5 0.0
4.345069240129797e-6 -4.23804509055204e-7 0.0
0.0002971209524661464 -4.576710620254241e-7 0.0
0.0001090269599646616 1.2102848350067837e-6 0.0
0.00022860956285313607 4.4612478778458925e-6 0.0
8.167911585912067e-5 -3.4192125404141326e-6 0.0
9.056639377793524e-5 -3.18602532765247e-6 0.0
9.166244802016062e-5 -3.0479272248350234e-6 0.0
8.94300472669388e-5 -3.24755760235431e-6 0.0
9.716808833446378e-5 -2.9396365911803795e-6 0.0
0.00010041767105757652 -2.761648275520391e-6 0.0
0.00010119304891459155 -2.6491791519576138e-6 0.0
9.327676652277714e-5 -2.7773640493333378e-6 0.0
8.668397191147052e-5 -2.2830911226021235e-6 0.0
8.151859732829678e-5 -3.5045830216015048e-6 0.0
0.00024613279101583045 -3.5724072401173055e-5 0.0
0.00029090906679843197 8.207348651302131e-7 0.0
0.00011649125808807612 -2.5508922348713214e-5 0.0
3.430159102641099e-5 -1.4479870808526448e-5 0.0
0.00013735425545903624 -2.196318765856792e-5 0.0
9.233983768700066e-5 -3.200299221922675e-5 0.0
9.252452715838346e-5 -3.517393455747626e-5 0.0
0.00015884306063316882 3.7592662592685563e-7 0.0
0.0001949451227036466 3.34813542327067e-6 0.0
0.0002477709275686744 -4.186956739024541e-7 0.0
0.00025172706358550517 5.079569737615608e-7 0.0
0.0002425081458634808 1.6518153385788642e-6 0.0
1.6732750279856725e-5 -3.5317379576420763e-6 0.0
3.247123723950829e-5 -1.3762489929224365e-5 0.0
0.00013994388175241987 1.5199839674481958e-5 0.0
0.00011762921835117377 1.5718255014045885e-5 0.0
0.0002117921392835455 -5.301949412855296e-6 0.0
0.00013557333900073528 9.265260333218618e-6 0.0
0.00026209592247712914 -2.2776028729092517e-5 0.0
0.00013654576165666893 -1.5069312233826202e-5 0.0
0.000207892951934166 -9.406513953511414e-6 0.0
0.00021004863095778364 -6.690257059358113e-6 0.0
9.77388613585715e-5 -9.040646909938739e-7 0.0
6.274323272646815e-5 -2.8855817191209498e-5 0.0
0.00025986193459036827 -2.7180631588446995e-5 0.0
3.6975233852813346e-5 -1.473074978310835e-5 0.0
3.930999680635708e-5 -1.6285388000325534e-5 0.0
3.853789272817944e-5 -1.6631543720821754e-5 0.0
6.194580970486098e-5 -6.153945191922155e-6 0.0
0.00017963455545930162 2.2805423896206803e-6 0.0
0.0001919510571179642 3.3857769005018182e-6 0.0
0.00011476488224353887 -2.356469542709401e-6 0.0
0.00012148010434536835 -2.0156610167076385e-6 0.0
0.00028457838495443574 -6.63095081835381e-8 0.0
0.0002662892913457601 -4.940208386888318e-7 0.0
9.527161533641764e-6 1.5489207290865992e-7 0.0
4.918208505384632e-6 -6.175077694152966e-7 0.0
0.00014985719873277973 -2.3861861027622093e-7 0.0
5.527401880234799e-6 -7.696540792746271e-7 0.0
1.0663019494480302e-5 -1.6204214366670366e-6 0.0
0.00013490263113943656 -2.010603287747864e-5 0.0
0.00020041891888362244 -8.788253347818643e-6 0.0
0.00015431930356332548 1.0611969104505508e-5 0.0
0.00018902242971046833 -3.174328827146327e-6 0.0
0.00015479212563295435 -5.6110550584232215e-9 0.0
0.00023195750727534378 -9.454602212715682e-6 0.0
0.00027086627480095654 -1.962787767412647e-5 0.0
7.758093805234919e-5 -1.5048042364796821e-5 0.0
7.761676231780794e-5 -1.6687837445382508e-5 0.0
7.394675382340212e-5 -1.5301290324808724e-5 0.0
7.0209522152597e-5 -1.4104123711605461e-5 0.0
4.597551622773686e-6 -4.331517370299397e-7 0.0
7.20971842599244e-6 -8.421029722207545e-7 0.0
7.657397404223076e-6 -9.857828931056134e-7 0.0
6.619301128989156e-5 -9.780387586718567e-6 0.0
6.164973650003754e-5 -9.959444994682681e-6 0.0
0.00029674992662673483 -5.381516131376934e-8 0.0
0.0001730087011068362 -3.7029424465363324e-5 0.0
0.00016993642656380672 -3.488641470539183e-5 0.0
0.00016961531373416863 -3.913889384454133e-5 0.0
0.00016634580457080845 -3.695524874803968e-5 0.0
0.0001624735275716867 -3.907381082786515e-5 0.0
0.00016237242705396395 -3.4463460939858024e-5 0.0
0.00017001981424407382 -3.0823338483014146e-5 0.0
0.00020627003421535195 -7.439856443161486e-6 0.0
3.0081381920564156e-5 -3.4795792149301704e-6 0.0
3.4598968561218706e-5 -4.210219678695791e-6 0.0
2.987831345169915e-5 -4.053322832266213e-6 0.0
0.00019227644728901202 -2.5456897708388036e-6 0.0
7.337587036676623e-5 1.0029021759707929e-5 0.0
0.00016311948613548615 -3.0012597885432986e-6 0.0
5.84595493117382e-6 -9.169381399973064e-7 0.0
8.048796998743345e-5 -3.2461089053599327e-5 0.0
7.755190204205037e-5 -3.2426500521625005e-5 0.0
7.789358675284859e-5 -3.028883672723957e-5 0.0
9.223705166840454e-5 -2.8499093731788183e-5 0.0
7.808176641077862e-5 -1.3602199135949632e-5 0.0
3.203572418344409e-5 -6.621846651768724e-6 0.0
1.9791693833857305e-5 -4.1409879228560215e-6 0.0
0.0002939653866717142 7.385916014214977e-7 0.0
0.0002890884157284966 1.3248242781643074e-6 0.0
4.841698645155434e-5 -2.078045180368194e-5 0.0
5.868735960449069e-5 -2.4622397653731675e-5 0.0
5.656468527576139e-5 -2.478437162533642e-5 0.0
5.343097921920004e-5 -2.2749013967075745e-5 0.0
5.4367934426689836e-5 -2.466893539636047e-5 0.0
0.0001963688317822207 -3.014135375115332e-6 0.0
0.0001630315160450498 6.5457029486046426e-6 0.0
0.0002016307674420846 -3.4683011043906004e-5 0.0
0.00020385987083230977 -3.6291745821999424e-5 0.0
0.00020597509219822557 -3.5409136194676176e-5 0.0
0.00020139070550400078 -3.7442851583547506e-5 0.0
8.571481334909416e-5 -1.4529543125480575e-5 0.0
0.00018017831575663814 -1.8503309570299905e-5 0.0
0.00014717528717287032 1.0587593539378229e-5 0.0
0.0001333544494273571 -1.0415081468441448e-6 0.0
0.0002971065905469172 -5.707483960921274e-7 0.0
0.00029457712579461384 -1.387867477075667e-6 0.0
0.00029366939990962173 -1.3761617657709e-6 0.0
5.139624055567288e-5 -2.2718359554180186e-5 0.0
4.9487142426613196e-5 -2.2522657253995165e-5 0.0
8.725352707295863e-5 -3.5240353703820024e-6 0.0
6.659446365516731e-5 -1.454946437301595e-5 0.0
0.0002762624550053976 -6.471842623610576e-6 0.0
0.00021704829585356592 -3.578503265063778e-6 0.0
0.00014708056493360294 -6.795503593760367e-7 0.0
0.00015344491988629312 -1.7372614532741804e-7 0.0
0.00019320516541245967 1.4652214287913473e-6 0.0
0.0002198612523246678 -2.7227994350943993e-5 0.0
0.0001302821017382243 -1.5934395390637464e-5 0.0
0.00013007885385688434 -1.767546260281008e-5 0.0
2.9103153691555118e-5 3.6140508072574635e-7 0.0
5.966122179680097e-5 -1.53710823482464e-5 0.0
5.642359144133344e-5 -1.5598751312529963e-5 0.0
5.3075206249423345e-5 -1.4013809811833901e-5 0.0
5.341836117180633e-5 -1.6050773699040413e-5 0.0
4.939943473631965e-5 -3.8005312525561395e-6 0.0
5.032870248673634e-5 -3.666243838253375e-6 0.0
5.5017200539275593e-5 -4.382808453060213e-6 0.0
0.00020369349368893144 -3.875892289296689e-5 0.0
0.00019475299410170956 -2.197424198799304e-5 0.0
0.00019194881422511062 -2.2752249223072953e-5 0.0
0.00019548766332429113 -2.5627441483899674e-5 0.0
0.00019285725706742052 -2.631431136166141e-5 0.0
0.00019528511807693046 -2.827855245047875e-5 0.0
0.00019791342026536223 -2.416689300823562e-5 0.0
0.000200828622136615 -2.595375439792962e-5 0.0
4.163858879208945e-6 -3.21512139480964e-7 0.0
0.00029737522872756223 -5.733068579904292e-7 0.0
0.00024168853079752672 -3.2902267031153555e-5 0.0
0.00018785410328697567 -3.526081719509287e-5 0.0
0.00026987632100698353 -4.0777266021399215e-7 0.0
0.00018230644889280297 -3.155946447946712e-5 0.0
0.00018202899311890277 -3.500280206686375e-5 0.0
0.0002192410085612945 -1.0841642068103663e-5 0.0
0.00020078117264088084 -5.8559587950721e-7 0.0
0.00019800396061538849 -7.655865847418344e-8 0.0
8.200640904010333e-5 -2.6033733971625583e-5 0.0
4.443326388333974e-5 -1.2983230604696416e-5 0.0
0.0002166786227666813 2.029019295679773e-6 0.0
0.00023346727525196475 -3.100222154421795e-5 0.0
9.668589577510435e-5 -9.838927477083742e-6 0.0
0.00010162735912348963 -9.146907093225427e-6 0.0
0.00010085655313080734 -1.023852395904969e-5 0.0
0.00010254794384112263 -8.096598873471416e-6 0.0
9.600235129962433e-5 -1.0905363307630656e-5 0.0
0.00010666841773901125 -8.511605663391175e-6 0.0
0.00010791672386753491 -7.489196750674073e-6 0.0
0.00010996140600093304 -6.3627078815149115e-6 0.0
0.00021309678843725512 -2.014258222486831e-6 0.0
2.263393077475052e-5 1.0755375315105908e-6 0.0
0.00021092530706474867 3.525691873641714e-6 0.0
0.00022761372243109904 -8.39631123551314e-6 0.0
4.8239324803555644e-5 7.946938291764387e-6 0.0
3.764047991492353e-5 -3.331261803295214e-6 0.0
5.65053981395714e-5 -3.811719973377329e-6 0.0
3.8839693354954104e-5 -1.155881551464645e-5 0.0
9.777881240927893e-5 -7.850465472745176e-6 0.0
7.187438485938793e-5 -7.902538845544587e-6 0.0
7.819679633094099e-5 -7.567528519146144e-6 0.0
8.172232335415956e-5 -8.226177400420141e-6 0.0
0.0001532972598952912 -3.39958969752907e-5 0.0
0.00015826332558336229 -3.6423230025193534e-5 0.0
0.00015792905038871147 -4.193730146498709e-5 0.0
0.0001624183511826235 -3.0486969591769838e-5 0.0
0.0002302699705809251 -3.1679599253288165e-5 0.0
0.00010650466366426747 -3.74888712255983e-6 0.0
0.00021341777626852549 -5.3560427446197826e-6 0.0
9.222188310932405e-5 -2.5094590342662315e-5 0.0
0.00016999563740529712 -2.708302765584369e-5 0.0
9.883801856872316e-5 -3.65361417662907e-5 0.0
0.00026703665740354546 2.8367159788386605e-6 0.0
0.00015860118060179867 -3.72038034183901e-6 0.0
2.8663885350178038e-5 -5.8933238127880925e-6 0.0
0.0001036755733925522 -1.5578488592452723e-5 0.0
0.00010824860578502923 -1.6338249822207648e-5 0.0
9.509718872280246e-5 -1.420606643616703e-5 0.0
0.00010313522110216904 -2.713909109557594e-5 0.0
0.00018406062208319005 -1.0116614676203086e-5 0.0
0.00018086213043419375 -1.0923063449761733e-5 0.0
0.00018384423348536517 -1.2019031216042092e-5 0.0
0.00020901182828533756 3.706105758568765e-6 0.0
0.00013686443358494106 -1.3535369494678394e-5 0.0
8.68774000162905e-5 -1.2905109431690934e-5 0.0
0.00018143445776325722 1.910327439247164e-6 0.0
0.00018049684623848406 1.4659981318905176e-6 0.0
3.0688734472040094e-5 -8.529416391303008e-6 0.0
6.699146678876638e-5 -2.482213040573514e-5 0.0
0.00020601167703328965 -3.274980722639232e-5 0.0
0.00018383397830358105 2.6505132323192213e-6 0.0
0.00016661376356669197 -1.5827658342749683e-5 0.0
0.0001625477796374158 -1.6488337764533636e-5 0.0
0.00016240047442833228 -1.8290064588174255e-5 0.0
0.00015809338587434394 -1.7159509886652014e-5 0.0
0.0001579896142841827 -1.9044331415749173e-5 0.0
0.00016632086633129427 -1.9408225272807757e-5 0.0
0.00019073946710426213 3.6767358165465796e-6 0.0
0.000120348063492231 -1.080711003290739e-5 0.0
0.00011474336329407388 -1.1640745120555948e-5 0.0
0.00017805375158065032 -8.215743926336557e-6 0.0
9.065409050711363e-5 -1.4671075355359194e-5 0.0
0.00017901439845365634 -3.673243175736011e-5 0.0
0.00012445183422818128 -1.5255712904839453e-5 0.0
0.00015834944255187886 -1.5435126376559967e-5 0.0
0.00021474661290014305 -3.8072409322341806e-5 0.0
0.0001416024602380005 -4.962870087942526e-6 0.0
0.00028016844625922035 1.1453290447908522e-6 0.0
0.00015932026426674907 -1.06185154784444e-5 0.0
5.6167633690067995e-5 -1.0530102572203544e-5 0.0
0.0001688862723241084 2.94614799003667e-6 0.0
0.0002114555841088927 -2.7716312825958534e-5 0.0
0.0002614770801958226 -3.417940461047598e-8 0.0
4.019667285514644e-5 -3.313712279430589e-6 0.0
4.21894235359929e-5 -3.074189264340056e-6 0.0
4.676090119511274e-5 -3.435913794922984e-6 0.0
5.038563755528458e-5 -3.401815479305762e-6 0.0
5.5416856632907485e-5 -3.5291407886719004e-6 0.0
0.00020795271633713267 3.1255733355757445e-6 0.0
0.00011508131447400072 -3.77738157044634e-5 0.0
0.00014798936304916265 -4.2165306551822825e-6 0.0
9.151974237032453e-6 -1.4263043786155513e-6 0.0
0.00014487825087534646 1.3188757030334602e-5 0.0
0.0001279598318714721 1.346607270072448e-5 0.0
0.00019911389193142954 4.985071078599634e-6 0.0
0.00011203324432086638 -2.3935382303604413e-5 0.0
0.00013823663547196031 -3.147917510558373e-5 0.0
0.00011969693573059175 -3.1215901952673397e-6 0.0
0.00017491439080623628 -7.40041129467799e-6 0.0
0.00017137169075308046 -6.582415852103799e-6 0.0
0.00017214040445449484 -5.136911838003252e-6 0.0
0.00018824778371314625 2.7322571433493996e-6 0.0
0.00010378379048162717 -1.7155574403024634e-5 0.0
6.735046890597295e-5 -7.3426427306196194e-6 0.0
0.00010990143416326662 -1.0069317335117488e-5 0.0
1.4618380396524592e-5 -2.78980276251523e-6 0.0
0.00017235758587276113 1.3525862313037885e-6 0.0
5.24135437501381e-5 -2.0676564131424605e-5 0.0
0.00016821718562758396 -7.651229215583702e-6 0.0
8.25616706410892e-5 -2.911702857252479e-5 0.0
0.0002070092865603353 -1.5509878976809583e-6 0.0
0.0001508869372115156 -7.902524492510694e-6 0.0
0.0001530862901948612 -1.7864571987522166e-5 0.0
0.0002553878738712622 -1.5296324705275075e-5 0.0
4.678563567557734e-5 -2.0657831663292326e-5 0.0
0.0002720919553399954 -2.4021903390429028e-5 0.0
0.00011701618837143089 -6.02936664030256e-6 0.0
0.00014955097167046634 -1.0591525222070086e-5 0.0
2.1917910049219726e-5 -4.381816811247313e-6 0.0
0.00025611551784122 -9.684531354894009e-7 0.0
0.00017679940817633602 -2.1089369593839546e-5 0.0
9.253387411866367e-6 -1.5529757253377795e-6 0.0
0.00016577163887999074 -6.606831128418021e-7 0.0
0.00016512072432711783 -1.2652123879657843e-6 0.0
0.00027565222794688287 2.464483216803767e-6 0.0
0.00017607627491989116 -3.866555021401968e-5 0.0
4.200361502387151e-5 -1.3177155614014763e-5 0.0
0.0002895507191857413 -2.8918895742848685e-6 0.0
0.00016868080709313055 -4.649165953003996e-6 0.0
0.00015631029024777823 -7.190324150754649e-6 0.0
0.00018922798560174023 -1.8620233359015937e-5 0.0
0.00018636984074578742 -1.7308924011080175e-5 0.0
0.00017722948614520164 -1.7364999959493604e-5 0.0
0.000147129030202454 -5.209207365115606e-6 0.0
0.0001827082280533683 -4.025213626988631e-5 0.0
0.00019465802446535106 -3.964031907709562e-5 0.0
0.00012815589171976766 -4.315988118766136e-5 0.0
0.00014631457590139475 -4.3437110203498987e-5 0.0
0.00020932599490967456 -3.982750902373571e-5 0.0
0.00020812680120228328 -3.71915628891212e-5 0.0
9.309618723999486e-5 -3.79208587347674e-5 0.0
7.094883161602744e-5 -3.210674495522109e-5 0.0
0.00018887742011754465 -3.990104519343669e-5 0.0
0.0001005086552929426 -3.9941854586091877e-5 0.0
0.00012887504635050045 -3.7698885023926613e-6 0.0
0.0002473118917659021 3.4940466576066574e-6 0.0
0.0002096885364203601 -1.4618309825065432e-5 0.0
0.00020922725300775847 -1.728759996603069e-5 0.0
0.00010025394388755231 -1.1397246681258329e-5 0.0
0.00018772257323830866 -5.82944106104128e-6 0.0
0.0001534571111414477 -2.2003553579427692e-5 0.0
6.256589852011291e-5 -2.1626942115279794e-5 0.0
4.562849375737825e-5 -9.462270586292544e-6 0.0
0.00012704299390515128 -8.75388936218369e-6 0.0
0.0002517620488779177 3.6763466226867114e-6 0.0
0.00010933576116561733 -2.3017148964148697e-6 0.0
0.0001540046447458448 -3.494360923766547e-6 0.0
0.00017783337199398647 -1.0009659831999711e-5 0.0
1.90383958866329e-5 -5.5452828091767104e-6 0.0
1.9937114407574806e-5 -6.455087057593933e-6 0.0
0.00012338636226991368 -1.875667276251293e-5 0.0
9.597328048442029e-5 -1.8833582063366948e-5 0.0
0.00016342300363619085 -1.1447874486187963e-5 0.0
0.0002721605881769553 -2.16955020702082e-7 0.0
0.00017337762990231206 -2.9118324207251938e-5 0.0
0.00029393317150753237 -1.8866595325567186e-6 0.0
0.0002847247231322678 -1.0868597713402903e-5 0.0
7.650524359553875e-5 -5.004741051874014e-6 0.0
0.0001322608808277589 -1.0258911474028387e-5 0.0
0.00014255197597666048 -1.4275524832695995e-5 0.0
0.00028079069627123755 1.73965697055936e-6 0.0
0.00017037213949510553 -1.0693002428764414e-6 0.0
0.00020348821541852998 -2.512284653923684e-5 0.0
0.00020631094416773713 -1.824715075302697e-5 0.0
6.910987992238572e-5 -2.9708650992691242e-5 0.0
0.00019280307677636753 -1.1509125166196656e-5 0.0
0.00013343371638408744 -7.884876908341704e-6 0.0
0.00019899889372145088 -9.64064654341077e-6 0.0
0.00019864736918737786 -1.1818542976314624e-5 0.0
0.00020213131829222207 -8.657943119808572e-6 0.0
5.7277312969372844e-5 -2.6728064756849397e-5 0.0
0.00022417129240821795 4.326614749629614e-6 0.0
0.000184706492101201 -3.710576366417407e-5 0.0
0.00024223792924624882 -3.7322930207812856e-5 0.0
0.00021700849595997917 -6.6040928843414915e-6 0.0
0.00015840240306199592 -7.159403202126607e-7 0.0
0.00019369924268004644 -2.991599018840788e-5 0.0
0.00010817580467406333 -1.80278962024949e-5 0.0
0.00012129621494113955 -6.491182923519301e-6 0.0
0.00027071945872492035 2.6903585465428226e-6 0.0
5.4852339281496475e-5 -7.061970161514544e-6 0.0
0.00020948311502742557 2.7217146912136642e-6 0.0
0.0001595142730218447 4.483956878165088e-7 0.0
0.00019050403691073063 -6.61219030017877e-6 0.0
0.0002582619548271357 3.0824284283771564e-6 0.0
1.9680544262892385e-5 -4.227867945725898e-6 0.0
0.0002145783400685945 -2.0705641586602933e-5 0.0
0.00018189105204922707 2.0861867843769923e-6 0.0
0.00018041232726533882 2.013450808415095e-6 0.0
0.0001878175007749293 -2.5550594762598652e-5 0.0
0.00017432521350602994 -1.2625858385151393e-5 0.0
0.00017979035876293476 -2.3041886020077e-5 0.0
0.00021987189161765423 -3.0233226743992682e-5 0.0
0.00021222937034353373 4.110748125729754e-6 0.0
0.00017061170291979318 -7.430072858548887e-7 0.0
0.0001982052169808277 -3.536579514775192e-7 0.0
0.0002502935332196614 -2.2588965618001792e-5 0.0
0.00025117770642806096 -1.8761850068563276e-5 0.0
0.00016302235464774897 4.597652201501644e-7 0.0
8.511265161738335e-5 -1.924093727015292e-5 0.0
0.00019883700776463753 -5.816067381258029e-6 0.0
0.00016866195982039164 -3.129591677904376e-7 0.0
0.00019246057584208965 -1.3596552566688227e-5 0.0
0.00028966464081410314 -3.7142307555620926e-6 0.0
4.035495465541944e-5 -1.5040648185195982e-5 0.0
0.0001878384420937467 1.2413074082367898e-6 0.0
0.00016619063361341012 1.7435829339155219e-7 0.0
0.00016373769253511764 3.8423455875517377e-7 0.0
4.576797249924937e-5 -3.4717812201942327e-6 0.0
0.0002506227193446141 -1.1014569078424056e-6 0.0
0.00017044819836954894 1.3539067981468388e-6 0.0
0.00025896621449708634 -1.640100911609678e-5 0.0
8.142864744556874e-5 -1.7906242574440106e-5 0.0
0.00022929256874262163 -4.0158273152069774e-5 0.0
0.00023404140644907236 -4.053414103354671e-5 0.0
7.174203963437161e-5 -2.0473515505193412e-5 0.0
0.00019785721359713633 -1.6141340788114674e-5 0.0
0.00012243045844010148 -4.2633213018673816e-5 0.0
0.00019158594712273699 3.074840508827281e-6 0.0
4.54880607163262e-5 -2.123781532262432e-5 0.0
0.00017611578340539634 1.6020179498981381e-6 0.0
0.00017454327231905537 1.0391324533066965e-6 0.0
0.00017669464609639204 1.9277766953445106e-6 0.0
0.0001807588333243793 -1.2872872093282871e-5 0.0
0.00020907618914741191 -2.008405695144749e-5 0.0
9.140571737992979e-6 -1.6723376983112582e-6 0.0
1.3741513299183292e-5 -3.614530667456675e-6 0.0
1.570283984331867e-5 -4.603335065806604e-6 0.0
0.0002645759185190656 -3.06656916892242e-5 0.0
1.973273480339116e-5 -6.795297289470596e-6 0.0
7.435918085807478e-5 -1.7182340903831293e-5 0.0
3.498479332633933e-5 -2.5175118248145684e-6 0.0
0.00024469554222572413 -3.955504687239682e-5 0.0
3.8833865575144796e-5 -1.766891934249613e-5 0.0
4.329985860973084e-5 -2.0106051714536086e-5 0.0
0.000262662480490816 -3.208383796818514e-5 0.0
0.0002585822926014323 -3.473996629621583e-5 0.0
0.0001721863014130859 -7.479137608766969e-7 0.0
0.00010691784766580732 -2.9156082961479605e-5 0.0
0.00021184498621155197 3.922185205263693e-6 0.0
0.0002487660181862939 -3.8504659917130065e-5 0.0
0.0002507596009113513 -3.800636805391923e-5 0.0
3.469655288554257e-5 -1.5440355368486385e-5 0.0
2.5358787191344878e-5 -9.944490188234023e-6 0.0
0.00025472519304502877 -3.653945812655619e-5 0.0
0.00025653331832295505 -3.333313626814129e-5 0.0
0.00019044677402436634 -3.7155456099461766e-5 0.0
2.929728383984493e-5 -1.2270414227109573e-5 0.0
0.00022144442149222687 -4.063749773426249e-5 0.0
4.548184153190259e-5 -1.4977353890522055e-5 0.0
0.0002405115911222126 -2.4748713983015676e-5 0.0
7.399795326684472e-5 -3.113132435176175e-5 0.0
0.00022795633631580411 -2.9745815664172114e-5 0.0
0.00022380953806263744 3.988610653745657e-6 0.0
7.441607731769634e-5 -1.1003631873296876e-5 0.0
4.6114462601178026e-5 -1.0165054989560106e-5 0.0
9.971924228796436e-5 -1.999948000441999e-5 0.0
0.00015453392086560856 -1.1343710870082372e-5 0.0
0.00023839241949374836 -8.797266022514273e-7 0.0
0.00016629418233541192 -3.2593920832279234e-5 0.0
0.00017320939647980294 1.5685286189760765e-6 0.0
0.00017817656022473303 1.5764966422376867e-6 0.0
0.00019972152898370868 -5.5656601371135436e-6 0.0
0.0002260079421767045 -2.178765555215696e-5 0.0
8.351397712475284e-5 -3.1835138399304174e-6 0.0
0.00019396428035746503 4.230783357574427e-6 0.0
8.300920894113954e-5 -1.0423773295810381e-5 0.0
0.000242173684064832 -1.781100142833962e-5 0.0
5.785620578823641e-5 1.5901985371179186e-9 0.0
4.722574578594466e-5 -2.008358850448115e-6 0.0
0.0001387282910162486 -7.159670174579563e-7 0.0
0.0002515000085452128 2.76017931110885e-6 0.0
0.00017237107890946102 -1.6909008310363931e-6 0.0
0.00016817078278006287 6.998681287796725e-7 0.0
0.0002718084178597433 -5.392608490854438e-7 0.0
6.660348808305668e-5 -1.1290584859286308e-5 0.0
8.964940779943984e-5 -5.8050810199457915e-6 0.0
0.00021063457564933925 -7.133703042084753e-6 0.0
0.00023181040855985808 -2.231675041999117e-5 0.0
5.5796836268851564e-5 -1.1308199786386003e-5 0.0
3.19973086976522e-5 -9.971789904804523e-6 0.0
0.0002232606107996903 -1.9970120697858894e-5 0.0
9.45887354425519e-5 -3.894438576617126e-6 0.0
0.000218381150011094 8.922792975737908e-8 0.0
0.00029469620899352485 -1.4275887468572892e-6 0.0
0.0002348484990453536 3.7309534344619893e-6 0.0
0.0001827001603589094 1.224099261544419e-6 0.0
0.0001843180176002389 2.0331602290517142e-6 0.0
0.0001898710171249338 -8.262227870139163e-7 0.0
0.0002600937767704849 3.176122209156632e-6 0.0
0.00025421689936558323 3.5264197366807505e-6 0.0
1.270658375463709e-5 -2.314003580597498e-6 0.0
1.0434519004960854e-5 -1.6479352939454346e-6 0.0
0.00011154605771192949 -2.7269967500551177e-5 0.0
0.000195503581330152 -1.2705619055362388e-5 0.0
0.0001056011299021998 -4.7856468789194055e-6 0.0
0.00010613885202343591 -4.213092040895016e-6 0.0
0.00010912775520234546 -2.4106276744149022e-6 0.0
0.00016240650842322215 -2.0270190946071242e-5 0.0
0.00018473342392992724 6.31328872063023e-7 0.0
4.0792548122305416e-5 -4.35132668271865e-6 0.0
0.00020497695529144702 2.5643317437905526e-6 0.0
0.0001854030917212942 1.0088033903029619e-6 0.0
0.00012645909692702849 -9.918741645579623e-6 0.0
5.841675874054798e-6 -8.056402669434536e-7 0.0
0.0001550061261244298 -9.872181155436165e-6 0.0
0.0002703689737082169 -2.887565411132012e-6 0.0
0.00022555847398137032 -1.1544136907675883e-6 0.0
0.00021530892747656763 2.832762219331704e-6 0.0
0.0002553897049380821 -4.447267903583858e-6 0.0
0.00019427532730375435 2.2610310813653647e-6 0.0
0.00011016236096733421 -2.2640555356972176e-6 0.0
2.8507159952922418e-5 -5.4032992486680365e-6 0.0
0.0001384361324847622 -1.560446966330413e-6 0.0
0.00017487825171467807 -9.841219763130915e-7 0.0
3.463879820771555e-5 -7.841681132959032e-6 0.0
0.00014051078635808536 -4.364751942591335e-5 0.0
0.00019040435413573222 2.2233039121110576e-6 0.0
7.800627248868786e-5 -1.8672263049084143e-5 0.0
0.00020280539049445786 -7.0722680165804235e-6 0.0
0.00024263810240406737 -1.7522939778533766e-6 0.0
9.466022536633987e-5 -3.625741212996778e-6 0.0
0.00021066872304996176 -8.217149052725513e-7 0.0
0.0001796423522866262 9.222384985572062e-7 0.0
0.0001555522973809804 -8.487690403806948e-6 0.0
4.598236671506113e-5 -4.746351706998872e-6 0.0
9.422881724056237e-5 -6.095019435998432e-6 0.0
0.00016199433293008348 2.2806165213254173e-6 0.0
3.6694333367867706e-5 -8.652151946167978e-7 0.0
0.00021658474388859756 -9.429480808436126e-6 0.0
4.884692123361375e-5 -8.418980174660593e-6 0.0
0.0001603946336580255 -7.797166776312178e-6 0.0
0.0002354597437577252 3.924911223474179e-6 0.0
0.00020770872044111039 -6.0918839849487315e-6 0.0
0.00011040566154316275 -8.424811047808693e-7 0.0
1.614951637344879e-5 -2.6191315794785926e-6 0.0
6.772041470085912e-5 -6.593314535029123e-6 0.0
6.152741828165481e-6 -9.074156439925986e-7 0.0
1.2739641218956788e-5 -1.656871002890317e-6 0.0
0.0002066607334986698 -3.7762737721204433e-6 0.0
0.00018655781683436968 3.0033049188343914e-6 0.0
8.627516779864147e-5 -3.681736698344122e-5 0.0
5.6454468847484963e-5 -1.8002423456646404e-5 0.0
0.00023559670493313782 2.676325977133259e-6 0.0
2.966173363132231e-5 -1.195327628130792e-5 0.0
0.00020233799464195986 -6.58240351462743e-6 0.0
0.00017985487157129614 -2.0264511589432727e-5 0.0
0.00023100865210906924 1.2644432992888882e-6 0.0
7.551084213555477e-5 -2.7854331812184375e-5 0.0
0.00025635631724069146 -2.915932648582043e-5 0.0
0.00016888373139718141 9.815988898370716e-7 0.0
4.120917506795318e-5 -1.8106408277568436e-5 0.0
0.00021081946058279218 -3.8001492806336656e-5 0.0
4.002407088937179e-5 -9.041647535448845e-6 0.0
0.000279290091661202 -6.344990792140615e-6 0.0
2.8903356150125228e-5 -6.287847031460956e-6 0.0
0.00020411962041770468 4.447290885429954e-6 0.0
0.0001945888677508015 2.7285719855645194e-6 0.0
0.00017990476243260155 1.324105021802357e-6 0.0
5.756903592580215e-6 -8.192769153945407e-7 0.0
0.0001514796911095632 8.590625127817503e-6 0.0
7.58758524263966e-5 -4.608955967219085e-6 0.0
0.0002354549669272455 -3.808614034431634e-5 0.0
0.0002383765976535638 -4.0607705607258236e-5 0.0
1.991550334986461e-5 -2.4461594134815556e-6 0.0
0.00018294706694676826 1.3936836904220687e-6 0.0
5.9237702017560825e-5 -1.7630652331189804e-5 0.0
0.00012017548730874049 -1.1988734756821755e-5 0.0
9.47171828573333e-6 -1.322952987951439e-6 0.0
1.5171568279345935e-5 -2.2203394188671735e-6 0.0
0.00017697659805658992 -2.2264901061641674e-6 0.0
0.00016471311387552168 -7.054628573972852e-6 0.0
1.0589865947722374e-5 -1.560931587923445e-6 0.0
2.4664351007836308e-5 -4.588279261183454e-6 0.0
2.1601880201429164e-5 -7.826332725045248e-6 0.0
0.00024121467953684656 -2.128223935396594e-5 0.0
0.00019818237060969808 -1.3958197515475091e-5 0.0
2.91378628658368e-5 -8.591176013532543e-6 0.0
0.00022091775682252278 4.0914466336506886e-6 0.0
0.00020733221356698884 3.9698563738674125e-6 0.0
1.6339164808054283e-5 -4.527478261483956e-6 0.0
0.00013106956644147287 -1.2324800588593062e-6 0.0
3.605185003017517e-6 -1.966897485990726e-7 0.0
0.00029778984131092134 -5.659394098006497e-7 0.0
0.00028873424790248176 2.4988652685389896e-7 0.0
7.717149142997428e-5 -3.4264541409025043e-5 0.0
0.00022060691190101605 4.70514088029748e-6 0.0
0.00020045997278285362 -2.2984379453244087e-5 0.0
3.192396205253685e-5 -6.8442265460132e-6 0.0
0.00019728989128722736 -3.955300745848018e-5 0.0
3.5877600737448524e-5 -4.636958863143226e-6 0.0
0.00025088893382359354 1.7190416367349614e-6 0.0
0.00011431586401646358 -1.2808610052728169e-5 0.0
1.2013795559761828e-5 -2.0805578678612896e-6 0.0
0.00015904791890637633 -1.6440926686677349e-7 0.0
0.00015785829853050715 -6.575505736990881e-8 0.0
0.00026335744959075767 7.83274363074594e-7 0.0
0.0001776882081729334 -1.1801793687718203e-5 0.0
1.899405325917542e-5 -2.3013546513348313e-6 0.0
0.0002541138832307771 -3.489235995122813e-5 0.0
0.00026968608981721356 2.3644203890582516e-6 0.0
0.00020500728826861292 5.032598713498365e-6 0.0
0.00020885909162439727 4.791231815798807e-6 0.0
0.0001256216433912335 -2.911277608302491e-5 0.0
0.0002793885891235034 -1.7145526195719388e-5 0.0
0.00013779465309540157 -7.750403029599637e-7 0.0
2.692052040541139e-5 1.2466238167909541e-6 0.0
2.9032380801915983e-5 -9.826970795969296e-6 0.0
9.755274067714163e-5 1.7631055147313403e-6 0.0
0.00025463399770506135 -2.8054511791976467e-5 0.0
1.2578955765993425e-5 -1.1748270426403654e-6 0.0
0.0001737019391188124 1.69038993568365e-6 0.0
0.00022626973426170555 9.074192201785307e-7 0.0
0.00019252558101442166 -1.3950590513418364e-6 0.0
0.0002932760010141045 -5.045853196844109e-7 0.0
8.062437005205748e-6 -1.4006380482219274e-6 0.0
0.0002683843739959322 2.751939315067941e-6 0.0
0.00029414206218823335 -9.951143002703407e-7 0.0
0.00015338224023684472 -3.831018829274163e-5 0.0
0.00018058925952924352 -1.6406306333388763e-6 0.0
0.0001255423436118751 1.2419684969697025e-5 0.0
5.9551232612950304e-5 -1.1302962625240615e-5 0.0
8.860650816356046e-5 -5.164608093603294e-6 0.0
0.00012929859491062849 -1.4762412507265182e-6 0.0
5.8097941142892056e-5 -2.1157748718830426e-6 0.0
9.96941099997832e-5 -1.7934143428365188e-5 0.0
4.732773569193556e-5 -4.363804145298153e-6 0.0
3.368243308371065e-5 2.7806773524700926e-6 0.0
0.00015111434881094317 -1.921785449374487e-6 0.0
0.00021187226907944757 -1.8988824831700945e-5 0.0
0.0002448789674546077 -1.981150314049865e-5 0.0
0.00010325039072335532 -2.633431123683105e-6 0.0
7.251869958829041e-5 6.946358954633839e-6 0.0
0.00018730173964124087 1.0155973527196076e-6 0.0
8.22855402225791e-5 -4.3446389586367375e-6 0.0
0.000231671390901021 -1.2758894956350978e-5 0.0
0.0001005847830155115 1.0819109195271624e-5 0.0
8.786843973536832e-5 9.081856173259398e-6 0.0
0.00017475352060667657 -9.101805721153723e-6 0.0
0.0001920696638871182 1.3051498353951867e-6 0.0
0.00010765639300578116 -4.129345312004996e-5 0.0
0.00022656540348281424 -4.0726429648845326e-5 0.0
7.042570739815971e-5 -1.0398504227322735e-5 0.0
0.00021416312306707028 -4.036807315923258e-5 0.0
5.7486936934489104e-5 -4.8052579530230035e-6 0.0
0.00023572425175178937 -1.4248878959192346e-5 0.0
0.0001091501163816888 -1.2401367016336595e-5 0.0
0.0002508209387588541 -3.7954484159602093e-6 0.0
6.011275356565906e-5 -1.0606212798082439e-5 0.0
0.0001566641423889851 6.584061076538064e-6 0.0
0.0001096819490000735 -2.309471405577855e-6 0.0
0.00013637036602772665 -1.8320413211687913e-5 0.0
0.000156909067081824 -6.733683774715281e-8 0.0
0.00015678296780419334 4.616407889239157e-9 0.0
7.065440348155496e-5 -1.5714475722083277e-5 0.0
7.135034935904098e-5 -1.7931000893809896e-5 0.0
4.455815860438057e-5 -7.700188328730307e-6 0.0
9.54193128277229e-5 1.8850897318369698e-5 0.0
0.00014371234146108957 -2.5777908089332558e-5 0.0
0.00024995601738341894 2.545052036606426e-6 0.0
0.0002290735845838586 -2.0478275132709743e-5 0.0
0.00018548573217921227 1.8607758131406035e-6 0.0
6.653166596407367e-5 -1.0557823055550578e-5 0.0
0.00020375842620929516 -9.417232817805805e-7 0.0
0.00018278892422110449 -1.9640807261163554e-5 0.0
0.00010945747195619527 -1.1197707574887606e-5 0.0
0.0002756813754999304 -1.1466967447878885e-6 0.0
0.0002913349645213932 -2.5041822282098863e-6 0.0
0.00010003761603866773 -4.916466060561717e-6 0.0
0.0002057530711097948 -3.780520371221048e-5 0.0
0.00025868183766831397 -3.281019605584945e-5 0.0
1.2707978941026393e-5 -2.0180311452204554e-6 0.0
6.264564325876966e-5 -6.825187597655978e-6 0.0
7.472745989838702e-5 -1.0193944706137922e-5 0.0
0.0002624295236320462 -3.066818297034723e-5 0.0
9.954291978506162e-5 -1.6178387266621278e-5 0.0
0.0001969876356042624 -5.3233291306242285e-6 0.0
2.581484856730793e-5 -9.75486325371725e-6 0.0
0.0001815168539172718 -4.638920126024901e-6 0.0
0.0002432861951309677 -1.4169589936653235e-5 0.0
0.0002011234397278864 -1.3007002149437095e-5 0.0
0.0002819801797170381 -3.394861929752492e-6 0.0
0.00020801456187678386 -3.442517582363717e-5 0.0
5.708702418416829e-6 -7.753391754762975e-7 0.0
0.0001413635768088338 -2.286921114223541e-6 0.0
7.062050585243596e-6 -8.71970000766138e-7 0.0
0.00010201986625079837 -1.8740632808898771e-6 0.0
5.8242609207596955e-5 -3.686765328198516e-6 0.0
6.675566879397936e-6 -6.117787949651649e-7 0.0
6.551832420438895e-5 -3.0398295691295887e-5 0.0
5.981184315315201e-5 -2.6588755552967173e-5 0.0
0.00014004844108169494 -6.835034192553645e-7 0.0
0.0001480044993242916 -1.1286960703845422e-6 0.0
4.35017973883687e-5 -1.93238568873984e-5 0.0
8.833348969141625e-5 -4.041852368528628e-6 0.0
0.00018495165208094416 1.1884443986106983e-6 0.0
4.259890751143132e-5 -9.223854502587737e-6 0.0
0.00019791351687606062 -3.077228240348486e-6 0.0
0.0001858868907152725 -1.9089116551083332e-5 0.0
3.2344958218691054e-5 -4.634571231199552e-6 0.0
2.043435322451162e-5 -6.0336332773343125e-6 0.0
0.00017174651925821446 1.5506178644738904e-6 0.0
1.1938237602371006e-5 -2.426908633753563e-6 0.0
0.0002825739550282727 1.940224059032192e-6 0.0
0.00011008139832126846 -2.193633538596169e-6 0.0
0.00015302972321138835 -1.2441178599617904e-6 0.0
0.00025174834942283397 -2.9953096825389187e-5 0.0
0.0002685727841381985 -2.7463917484656097e-5 0.0
0.00022695735454661254 2.3358103661412185e-6 0.0
0.00014320033380298846 -2.2601723740207758e-5 0.0
0.0001863218690336223 -3.7421757882496746e-6 0.0
0.00024771827851038925 -3.6846898832307716e-5 0.0
0.00016172226397010412 -4.324934327378221e-5 0.0
0.0002398187014491628 -1.2449035739104685e-5 0.0
0.00020146174470012036 -1.0799712722839305e-5 0.0
9.540092046199292e-5 -1.5375555759972718e-5 0.0
0.00019403075378129306 -3.7723381756424266e-7 0.0
0.00010436035626404586 -1.0725889179266241e-5 0.0
8.043856584601798e-5 -3.012467768015586e-5 0.0
0.00015146987475478136 -5.117171048082934e-7 0.0
0.00023168972717172833 -3.825297703515921e-5 0.0
4.4403810824801115e-5 -7.054803793007855e-6 0.0
3.68197358633034e-5 -1.595202603790803e-5 0.0
0.00020818419868838818 5.072187887255965e-6 0.0
5.794853538408797e-5 -7.697497397085878e-6 0.0
0.00019221191052914727 3.6944984515262594e-6 0.0
0.0001335235090441593 3.844191299411628e-5 0.0
0.00021329726396271794 -5.253188564819512e-7 0.0
0.0002499430998138756 -3.3394238450323954e-7 0.0
0.00016826665908290227 1.8871038633840297e-7 0.0
0.00022240651348463895 1.1886559206221685e-6 0.0
0.00019014099335273995 -2.4297085185198496e-5 0.0
0.00020193406935708168 -3.983210981463887e-5 0.0
7.923896653150216e-5 -9.858866379053927e-6 0.0
0.00011673257359623044 1.2653259267581537e-5 0.0
4.933359626400589e-5 -7.08519356102633e-6 0.0
5.516211872664735e-5 -2.6146953683161617e-5 0.0
0.00013674804683836238 -3.4032579744036606e-6 0.0
8.002311484064635e-6 -1.4173315585338043e-6 0.0
4.145198077252458e-5 -1.7111953471347343e-5 0.0
0.00016229312891560913 5.688484092272226e-7 0.0
1.6169877039080883e-5 -3.354759560556036e-6 0.0
1.55353156852846e-5 -2.0126278361132184e-6 0.0
0.00016781999606329336 -6.4668183526358305e-6 0.0
0.00017431969751764448 1.8076171344510696e-6 0.0
0.00026661145552821556 -2.7694021746850505e-5 0.0
0.00013063299418378143 -1.1713262376264877e-6 0.0
0.00021227919574795325 -1.622393665646064e-5 0.0
0.00017812978498963077 1.9642700333356334e-6 0.0
3.8115636360119734e-5 1.000557774713375e-6 0.0
5.103270532597473e-5 -2.900171986268707e-6 0.0
0.00028669325061135185 -1.754323975418699e-6 0.0
0.00019533757933020617 -2.351618956067053e-6 0.0
3.521362042748115e-5 -7.294872308140217e-6 0.0
0.00018856093053514018 2.860467573540868e-6 0.0
0.00016086089288914264 -5.563558819509925e-7 0.0
0.0001711084291457298 1.0703203344746548e-6 0.0
5.699085944196376e-5 5.432766705876811e-6 0.0
0.0001690731554466678 -4.2599892569847185e-5 0.0
0.00026497412708036876 3.0390616417701265e-6 0.0
0.00016632802364159995 -3.286791415912563e-6 0.0
0.00017366157119025536 1.5622419143304786e-6 0.0
0.00019633389459469737 5.622604040554168e-7 0.0
0.00014863965611687367 -3.4399276416420667e-7 0.0
0.000167448021498846 -2.211199631244442e-6 0.0
6.254841198330553e-5 -1.97704287688048e-5 0.0
0.0002044911190521098 -9.76271275066542e-6 0.0
0.00012630076875700923 -2.661119825770213e-6 0.0
0.00017218213028065483 1.589543682047281e-6 0.0
0.0002402683796963892 -4.0676682873650206e-5 0.0
0.00014030915630193635 -1.1721273997046994e-6 0.0
0.0001899151000330808 3.1982144015804825e-6 0.0
0.00017916411170967918 1.964666269952768e-6 0.0
2.193102791517584e-5 -7.626587328663632e-6 0.0
0.00022952894205332367 -1.794674823641603e-5 0.0
0.00017630121210802637 1.9841832861271245e-6 0.0
7.555550839975826e-5 -3.0273628057598977e-5 0.0
0.00019250600650832904 1.641545510678785e-6 0.0
0.00021925121740674436 -4.09410173816129e-5 0.0
0.00028627691759767386 -1.7172170640710833e-7 0.0
1.1034304472981315e-5 3.191765617606264e-6 0.0
0.00013144110383332864 -4.11157952880506e-6 0.0
0.00018145965596889327 -3.792739861672228e-5 0.0
9.53684631208481e-5 -3.649871092245573e-5 0.0
0.00011331391970806562 -4.1735670441003454e-5 0.0
1.95779731266439e-5 -4.101783810798013e-6 0.0
0.00021509759107468134 -1.5549595813988058e-5 0.0
8.021026835872883e-5 -8.949298937855529e-6 0.0
0.00013300594518236418 -1.7538558116382384e-6 0.0
0.00010270600411716089 -2.719274018386989e-6 0.0
0.0001195730863280713 -3.901363750245657e-5 0.0
0.0002077875139493292 -1.8080353668163048e-6 0.0
0.0002685179349973362 -3.502599030396753e-7 0.0
0.0001894354708385504 -2.1956674632309077e-5 0.0
0.00016542764728739843 -4.520248116786655e-6 0.0
8.837862028985722e-5 -1.552202440097016e-5 0.0
0.00017604264506608156 -4.174733917902886e-5 0.0
0.00022171853367961415 -1.2427451857183416e-5 0.0
1.7775395277482734e-5 -3.6046925061084085e-6 0.0
0.0002618864953847656 2.652812543376692e-6 0.0
0.00013148474516398674 -3.928858991050637e-5 0.0
0.00013836996771572356 -2.784471662301469e-5 0.0
0.0002103342218499115 -3.314242419838169e-5 0.0
0.0002941173826499624 -2.5054154577621724e-6 0.0
0.00010238003348504267 -3.786566375745251e-5 0.0
9.606565916857321e-5 -2.9948237319797515e-6 0.0
9.530145349318838e-5 -5.49653294086121e-6 0.0
0.0001954400584514467 -7.293603917505836e-7 0.0
0.00028516978320521975 1.7723456753607595e-6 0.0
2.1679326953799365e-5 -6.4874082444242066e-6 0.0
0.00016835943751203792 -1.3726992784802026e-6 0.0
0.0002574016138561337 -3.041757510045858e-5 0.0
0.00028173198829531843 1.7360732657406601e-6 0.0
7.805038873913191e-5 -5.48346030343047e-6 0.0
0.00013728824298072043 -3.9986793024266703e-5 0.0
0.0002763905192182528 3.316391642301572e-7 0.0
4.2220312984263356e-5 -1.5562734247633747e-5 0.0
0.0002902687090350957 1.2443334069588965e-6 0.0
8.353524502913192e-5 -3.6470429913488084e-5 0.0
0.00020487641126394984 -7.520044796401827e-6 0.0
5.2734151437400035e-5 -3.5175202131441076e-6 0.0
0.00019244164536441806 3.3106364883629328e-6 0.0
0.00027803457136790603 -1.716713818159445e-5 0.0
0.00022498503994826193 -1.125786543375635e-5 0.0
7.174590671331054e-5 -3.103197206682672e-5 0.0
5.0361414434605816e-5 -2.391239609146871e-5 0.0
6.272493648979655e-5 -1.612190259738059e-5 0.0
0.0002441835090373468 -3.768098231108984e-5 0.0
0.00021891865711841905 1.3163878683418488e-6 0.0
3.837785679012515e-5 -7.634214559802791e-6 0.0
0.00012141737402627365 -4.529266303543325e-6 0.0
0.00019516138426573272 -2.2690560120946946e-6 0.0
0.00011391173474992116 -6.947750306912366e-6 0.0
0.0002748536846776898 1.7152924831561237e-6 0.0
0.0002041599646744944 2.997253030425491e-6 0.0
0.00012594662514326752 -2.3794665093634095e-6 0.0
3.983971493462639e-5 -6.975866155753593e-6 0.0
0.00021600269729422109 -1.1636795253351119e-5 0.0
0.0001949852774522685 -3.5109721520607216e-5 0.0
0.00025221010973022144 -3.598101456106114e-5 0.0
9.010722200337803e-5 -3.5538258483781435e-5 0.0
0.00019520705056745347 4.521418272229091e-6 0.0
0.00010533572177665294 -9.555116833253129e-6 0.0
0.0001874847734259606 -3.791284712694419e-5 0.0
0.00024983940896807926 -2.898677793192413e-5 0.0
0.00021609559021539581 4.061801835476991e-6 0.0
0.0002751594394316407 2.269132893711113e-6 0.0
7.527893934689968e-5 7.599570278117203e-6 0.0
0.0002654456106604898 2.9070988309020967e-6 0.0
8.740974735935125e-5 -1.3768311746976904e-5 0.0
0.00024094669046311964 2.999288055666033e-6 0.0
0.0001885907930105165 3.319504880190475e-6 0.0
0.00020498036672249846 3.6031340691997144e-6 0.0
8.38147188315019e-5 -7.638173145696765e-6 0.0
0.00020749849448239977 2.151902732674424e-6 0.0
0.00014866119025093438 -3.967585519525923e-5 0.0
6.634047426381406e-5 -2.8066824546988215e-5 0.0
0.00017644256406765873 1.9849582395217938e-6 0.0
0.00021436642413560222 4.8425506963865485e-6 0.0
0.00013367481901358983 -3.301919389724313e-5 0.0
6.608721919861326e-6 -8.433646781309888e-7 0.0
0.00028832565134245906 8.041311034161205e-7 0.0
0.00024169889234209116 3.581622920026354e-6 0.0
0.00014049638896361454 -1.2664529839852906e-6 0.0
0.00029270034832640126 -2.1609582019014815e-6 0.0
8.771084078535918e-5 2.4787243452600537e-6 0.0
0.00016264114510954042 -7.37478178114936e-7 0.0
0.00029575505934087437 -2.4031615164643522e-6 0.0
3.486533122028029e-6 -2.010994195847906e-7 0.0
9.183329268752268e-6 -1.2900782898000894e-6 0.0
8.247075740437648e-5 -4.095996929945839e-6 0.0
0.00018824752293001678 -4.446738648337669e-6 0.0
0.00020333179189010078 5.044948311824204e-6 0.0
0.00023146505296692727 -3.601479220266212e-5 0.0
0.00028998649742568603 -1.1220473789729714e-6 0.0
1.9355756754687255e-5 -4.0853579518671e-6 0.0
5.947893532904622e-5 -3.54774153846844e-6 0.0
0.00019546674177709736 -3.252877919145502e-5 0.0
0.00025176652568957813 3.237021442339722e-6 0.0
6.524997755719781e-5 -1.5755036145280038e-5 0.0
1.3983800618246992e-5 -3.4814857115352473e-7 0.0
0.00019096482665185258 2.8716050675795938e-6 0.0
8.981448821090213e-5 -3.2829471198313504e-6 0.0
0.00021095140777806204 -3.520597262692376e-6 0.0
0.0001580391999203818 2.539919130252812e-7 0.0
0.00011198345154392916 -7.92819052469257e-6 0.0
0.000254329126590339 1.490863264683092e-6 0.0
0.00026031828466858715 -3.238108642778449e-5 0.0
0.0002252188594652832 -3.8835368983507055e-5 0.0
5.88527830916945e-5 -7.072181228082194e-6 0.0
0.00027192986651837156 1.7896422054662797e-6 0.0
3.7166367301254464e-5 -8.267544026365437e-6 0.0
0.0002727577871094191 2.6353248653264913e-6 0.0
0.00024590664416295675 -3.777134445109738e-5 0.0
0.00019148085398609004 4.186652761861442e-6 0.0
0.0002129141853639742 -3.86875315589164e-5 0.0
0.0002107061918925617 -4.906942613414458e-6 0.0
0.00015284208421008203 -9.136705447374363e-8 0.0
6.527385033904277e-5 -2.572310813163789e-5 0.0
0.0001364059002297695 1.0640318677086413e-5 0.0
7.101967112493443e-6 -9.492452851485154e-7 0.0
0.00028505483075128187 1.1332307852344375e-6 0.0
2.761199469489424e-5 -1.091694467191817e-5 0.0
0.0002114745888121 4.726890545940281e-6 0.0
4.548584895660077e-5 -2.048114002995771e-5 0.0
0.00020490702876073888 -5.6897808024055456e-6 0.0
5.9204848264707334e-5 -3.4614070366137064e-6 0.0
2.2001214511339696e-5 -4.709563024313605e-6 0.0
3.3221161892833916e-5 -1.4706654458813523e-5 0.0
2.8286945677942313e-5 -8.819626113706149e-6 0.0
0.00012842146960941384 1.3831014779730449e-5 0.0
0.00022317648127799666 4.472850067137898e-6 0.0
6.0059216545411765e-6 -5.536903396281124e-7 0.0
0.00023946315177975368 3.6908556087937914e-6 0.0
0.00021609194401486746 -1.7246267120576697e-6 0.0
0.0001912969957418118 -3.6606949387591355e-6 0.0
0.00015694930234032045 2.658508881826944e-7 0.0
7.492973511119399e-5 -3.973533201265778e-6 0.0
0.00015887297707043216 2.3279902418631376e-7 0.0
0.00019738279102636324 -2.8717581871138142e-5 0.0
8.421925850804089e-5 -8.723476599718346e-6 0.0
5.823174975922822e-5 -2.640794473501125e-5 0.0
0.0002481964395183245 -1.822499962064307e-5 0.0
0.00019710852108940268 -1.7175059186878993e-6 0.0
2.818982791747262e-5 1.6840825513359814e-6 0.0
9.430464225636462e-5 -2.1059744988264054e-6 0.0
0.00020064025191881413 2.853529555231813e-7 0.0
0.00019893441927671193 -3.7811023383998033e-5 0.0
0.00012031309947459575 -5.272172486231991e-6 0.0
0.00023759059004452575 -3.890905034856977e-5 0.0
1.82665732353421e-5 -5.656378094031611e-6 0.0
0.0002125125175045777 -3.208004786137276e-5 0.0
0.0001040979041190028 -2.61897748483107e-6 0.0
0.0002682625312108318 -2.6554760103003956e-5 0.0
0.00010327855889388142 -2.348075842622869e-6 0.0
0.00019104807583530194 3.3721854621636384e-6 0.0
0.00016908053326149288 -5.58869765269888e-6 0.0
0.0001646345938389411 -9.024731512722503e-7 0.0
0.00018170588767112112 2.297585977136452e-6 0.0
0.00019347699499267017 -3.7493752206625324e-5 0.0
0.00023357073817551963 -3.8564195259566835e-5 0.0
6.36302355535365e-5 -1.073618084624731e-5 0.0
0.0001902507026736391 3.117381512920068e-6 0.0
0.00018636833566644935 1.6879047067026332e-6 0.0
0.00023173865344963424 -3.34193349679456e-5 0.0
0.00015439416997384535 6.675830232344893e-8 0.0
0.00016380188416435947 -1.577199819254565e-6 0.0
6.456714927565821e-5 -2.3399960157855683e-5 0.0
0.0002677650260712151 -2.557169548529068e-5 0.0
0.00020528403459727946 -3.997096113787613e-5 0.0
0.00013448131529465176 -3.0116747013125302e-5 0.0
0.00028478650060371666 1.249696003507646e-6 0.0
0.00013218132568096114 -2.163150914660518e-5 0.0
0.0002139093072808591 -3.799799721138633e-6 0.0
7.288708664065119e-5 -5.319623345470284e-6 0.0
0.00019705489393572257 4.895082450813478e-6 0.0
5.3310382176619185e-5 -3.567731031631494e-6 0.0
0.00013823461131894722 -8.31369308150788e-7 0.0
0.00011784815811188254 2.53932557555725e-5 0.0
0.00029410003217551897 -7.812417461861036e-7 0.0
0.00018997608432276848 -2.045152800817433e-5 0.0
SCALARS damage float 1
LOOKUP_TABLE damage
0.9989740453954568
0.9960745397032001
0.9991740725747666
0.9873560715057975
0.9998740770454104
0.9999879568944716
0.9848195790642917
1.000125654850828
0.9998551881764222
0.9998323859657459
0.9997864561451998
0.999775497862515
0.9997507069801357
0.9997185380155915
0.9996845850098506
0.9996441083381751
0.9996108094276567
0.9995839320951264
0.9995446999392206
0.9995067315223016
0.9994860762686671
0.9994287881281119
0.9993586049880494
0.9992885467465553
0.9991736234547685
0.9990492639330977
0.9988774797261811
0.9986682643909226
0.998426871581645
0.9982132633574473
0.997865399839768
0.9974430316708582
0.9964927379559178
0.9985445894726623
0.9986150241585631
0.9986397379403286
0.9986505515407867
0.9986173057239345
0.9985993877895727
0.9985562865497444
0.998527208303609
0.998511358387713
0.9984690847071716
0.9984538720599739
0.9984262444780682
0.9983472731408943
0.9983148828498861
0.9983262878384376
0.9983492729153217
0.998374743297415
0.9983509257137463
0.9983345188109148
0.9983132304944963
0.9982759867201875
0.998265031777523
0.9982883287719734
0.9982921634884108
0.9983344176005808
0.998394207807904
0.9983729462525648
0.9983488958878948
0.9984282096697522
0.9984816472530057
0.9985899313613642
0.9986360788925515
0.9986168815196489
0.9986806855161471
0.9988545904202494
0.9989724297822928
0.9991115359910111
0.9992369230404452
0.9993212167361079
0.9995518275464913
0.9998386652958328
0.9996496421484384
0.9992145951224866
0.9994998300340697
0.9997800107154023
0.9999034789797894
0.9999110764847617
0.9999376858972594
0.9998945292941374
0.9997836555310657
0.9996899952071823
0.999680972917667
0.9997727645634108
0.9998218238510863
0.9998722168606572
0.999911655673623
0.9999365536852767
0.9999495231328699
0.999963107309051
0.9999741074896398
0.9999830187192414
0.9999871879111293
0.9999879930850316
0.9999872241949003
0.9999825320290264
0.999978602245299
0.9999772965479454
0.9999768258054389
0.9999769364518566
0.9999770609570153
0.9999753318567912
0.9999738394874752
0.9999707581499367
0.9999647853414789
0.999956834466078
0.9999502603424056
0.9999414580270533
0.9999283394077567
0.9999070912668867
0.9998954700500979
0.9998708773437371
0.9998510879119785
0.9998224729610132
0.9997890613272684
0.999749277726664
0.9997007864714734
0.9996476106045546
0.9995920715541383
0.9995069181208903
0.9993881100306555
0.999271187690316
0.9992243735484866
0.9990578556117798
0.9986097745042998
0.9976737022877371
0.995964889579583
0.9904246515872728
0.979641358883041
0.9995535061211105
0.9992776564414982
0.9991405963913768
0.9993344504797496
0.9994638707621754
0.9995232229290462
0.9996042928155515
0.999644673694499
0.9996556853883427
0.9996492349984784
0.9995936997389234
0.9995785319768115
0.9995281686516573
0.9994826486981703
0.9994366830149128
0.9993913011339038
0.9993507215934446
0.9993236580139716
0.9992993178009255
0.9993034370188733
0.9993085571083319
0.9993346284661089
0.9993965473896841
0.9994348493574731
0.9996053401171452
0.9993204631077919
0.9998008171222638
0.9999768444941766
1.0000168988070426
0.9999884266400477
1.0000014064926261
0.9999948475157087
0.9999761508594738
0.9999506021239559
0.9999022294962254
0.9998512759023598
0.9998272241808731
0.9993703535112216
0.9989362383802096
0.9978543116276832
0.9950841911129351
0.9738397119199171
0.9873278197872756
0.9910044042312924
0.9940894295583135
0.9961477812294472
0.9979368279693892
0.9988613239332768
0.9996813268727434
1.000038848052022
1.0001734788680732
1.0001943620089941
1.0001112919870192
0.9999002897246944
0.9999709370360329
0.9995224605248302
0.99839068255059
0.9986378164807743
0.9999812679007696
0.9991423489434286
0.9999887784614275
0.9996990188427786
0.9999049456432423
0.9999449967388248
0.9999601669808297
0.9984522792868901
0.9998976817703841
0.9984692836904343
0.9996512076404368
0.9993584795767756
0.9986762048335881
0.9996230991560876
0.98399741571767
0.9954580819839398
0.9997393861798666
0.9984607526810456
0.9994747534990701
0.9995605777677007
0.9992812680997636
0.9996668657980425
0.9994682802429333
0.9985544462852266
0.9998691941207518
0.9984019905023336
0.9992129486271739
0.9996457586076423
0.999699515543126
0.999935478199006
0.9999756056928812
0.9998040802721436
0.9999810939888766
0.9999767523390769
0.998909439650828
0.9984973094624915
0.9990473866342471
0.9985943260706709
0.999228506981821
0.9997348376577685
0.9993884066736137
0.9987904209276176
0.9999761512610389
0.999247588643661
0.9992901750500912
0.9995212022267409
0.9995986517558786
0.9994395642324477
0.9995074762699199
0.9915753792371079
0.9985121596615217
0.994637351064188
0.9999802998406051
0.9998347078653945
0.9994151926689723
0.9987094603548184
0.9999534892838223
0.9999443421746015
0.9984282059131314
0.9998498873290946
0.9984307928601952
0.9985046703680202
0.9996146282355872
0.9999192263230066
0.9996156231558194
0.9995086341528322
0.9982662384816982
0.999660428509408
0.9999982719334685
0.9995267157297252
0.9992640848598887
0.9978884196635579
0.9892353048526449
0.9999504659554255
0.9996814755146219
0.9992385129222692
0.9994620475579779
0.9997791990936342
0.9994957462023516
0.9992931828522016
0.999317628008201
0.9991823897584645
0.9991474199461499
0.9992904521560984
0.9991220100605837
0.9992739254419545
0.9990593780998566
0.999211556326546
0.9990710618138693
0.9996807844147906
0.9928478330633881
0.9991039946207989
0.9936914452306265
0.9991094954331732
0.9950064075767958
0.9990796427715323
0.9959339225803653
0.9990060930402331
0.9963585417222468
0.9989347311810924
0.9967681587867757
0.9988939185784927
0.9970510711293896
0.9988368838748707
0.9973497180523068
0.9988340114018563
0.9973426846980515
0.998766167244963
0.9974070625680619
0.9987153402377494
0.9974901370652711
0.9986748222003874
0.9975672300021902
0.9986660636653901
0.9976253075448644
0.9986264803754817
0.9976078139257081
0.9986625219727897
0.9974508376017013
0.998584374333661
0.9977448472203243
0.9986253575725353
0.9978736471478801
0.9986396143862121
0.9979015346934903
0.9986343980163451
0.9980147968668139
0.9926667530526114
0.9986619018921186
0.9955474214074044
0.9966663510111323
0.9980280026580413
0.9986624844875929
0.9980470830665522
0.9973346720081293
0.9973613076648337
0.9986575258106453
0.9990222702256385
0.9990334940629363
0.9990254446091725
0.9992301433943529
0.9992359715138103
0.9966725866825411
0.9967190239857844
0.9993510593470629
0.9960862855772453
0.9961973557083762
0.9993652948036638
0.999441577488407
0.9957384288189608
0.9958736083304097
0.9994582882510042
0.9995086896985275
0.9956211131311642
0.9957759028655614
0.999529748423289
0.9995647746329717
0.9956891804336222
0.9958174555648543
0.9995906116237349
0.9996100824568926
0.995807845365081
0.9959435363581033
0.9959374972826407
0.995780927734888
0.9995486320746364
0.99963999530165
0.9996468417363011
0.9996111745910684
0.9991071615638816
0.9996466685686217
0.9996021950082007
0.9996288109093566
0.9960694657213263
0.9962783712047666
0.9960392095161044
0.9996784410414181
0.9964038250768937
0.9968151210071785
0.9992666148619515
0.9969574499871945
0.9972482134959009
0.9973715858892397
0.9976636429767949
0.9975588949346387
0.997921997788664
0.9978655337329368
0.9977814883149756
0.9981332585356033
0.9980744644826067
0.9974890213751679
0.9978126102378135
0.998308875814282
0.9982513750063068
0.9995850667483916
0.9996017599151047
0.9975772732316236
0.9978941743679487
0.999556230760253
0.9995691033914543
0.9996273920330556
0.9995825664933051
0.999661592440977
0.9996113010061488
0.9996884542161695
0.9996278947310558
0.9997119551409733
0.9995362875610073
0.9996507627864599
0.9997467455862411
0.9976797843079436
0.9984703210451238
0.9984198928489139
0.9997844264438138
0.9998196761707248
0.9997834097569086
0.9998488600686729
0.9979742229792643
0.9998557647705678
0.9998197834520817
0.9977949272905006
0.9980769069867524
0.9982266665013214
0.9998838122915552
0.9998556663796208
0.997931333198072
0.9976010859966539
0.9983007432464805
0.9983836898929952
0.9999057240143376
0.9998839745956017
0.9997936503590505
0.9999159586220155
0.9998314929711856
0.9996856054047185
0.9986846281202356
0.9986491909082712
0.9983235279703209
0.9986495795794521
0.998287206972679
0.998618971882557
0.9982277620084805
0.9977575935901468
0.9974007613448453
0.9984782355416036
0.9985346329330295
0.9999059418665245
0.998578425440461
0.9981828926179405
0.9975974650565492
0.9972451250667662
0.9960703457003229
0.9998581672367435
0.9993426614712531
0.999457021071329
0.9963091454806006
0.9995084728199662
0.9985389811966464
0.9981225640382761
0.9986682970935513
0.9987057100374056
0.9974495541491056
0.9971425315995721
0.9999151047009897
0.9988560060417997
0.9988821157314856
0.9988194666676236
0.9998725101921644
0.998511819474639
0.998035191775132
0.9978114386363424
0.9988481431959778
0.9988575930696827
0.9995086105812061
0.9994726316004385
0.9994806965472129
0.999445635240384
0.9973513242302902
0.9971021638333853
0.9954900195247949
0.9984515306186241
0.9980568786250741
0.9999171324482454
0.999941234187235
0.998554488207994
0.9981259499211232
0.9998760745862174
0.9998130548041739
0.9986817041848355
0.9988598943462568
0.997332772632514
0.9971155175864507
0.996921014940164
0.996977784131875
0.9968279177853564
0.9970471181196643
0.9969453120176747
0.9973534581959447
0.9972908192120905
0.9977703327579165
0.9978153934327171
0.998252341336419
0.9982727640943292
0.9987321781764821
0.9987363409290648
0.9991334211312088
0.9977324413517245
0.9991232534174221
0.9993650741404461
0.9993699788255243
0.9994866245919793
0.9989777030749202
0.9990029460265405
0.9990273680046381
0.9989941338930992
0.9994874399248866
0.999576998266019
0.9995623355593959
0.9996690959734358
0.999098125902854
0.99911459026532
0.999466642827304
0.9994378165496729
0.9994682526093903
0.9999082581540524
0.9998524154353686
0.9973606528216136
0.9976564242600355
0.9992489369304495
0.9996478358113908
0.999727576436806
0.9997366631975871
0.9997957989817692
0.9994276288984262
0.9994436528289053
0.9993972299166364
0.9983652153024558
0.9991749503566225
0.9991392098706262
0.9994896954351118
0.9997774552762428
0.9998362781899753
0.9998393576889621
0.9998776558283748
0.9998697009476395
0.9999048282658696
0.999911947423295
0.9999149758467334
0.9989620115334843
0.9992072992678501
0.9992091928169092
0.9976173020723142
0.9998899781096022
0.9997994161871114
0.9999220963011687
0.9999234393510341
0.9987175125102046
0.9993366627371647
0.9992896884989262
0.9975095530880062
0.9989677879109395
0.9976662218702091
0.9992011739033573
0.9987333377273495
0.9998554647966115
0.9996897694109129
0.9997225940328627
0.99895746291932
0.9999226706232873
0.9992104086612964
0.9993550176455991
0.9994647225765964
0.9995230953505665
0.9998901202292311
0.9994500542924933
0.9993918084276442
0.9992988500859887
0.9993043809064296
0.9986136872948328
0.9999367962916682
0.9999361376789371
0.9992346506121551
0.9993359568991753
0.9999425030102835
0.9979686588676754
0.9994591003095944
0.9994146893937157
0.9967068901741032
0.9996251198140609
0.999643371340297
0.9995050681186594
0.9999285112579038
0.999937534900766
0.9998546914029928
0.9998714392732783
0.9980903873205342
0.9999368478481667
0.9999440398865728
0.9993690981585284
0.9993751216428846
0.9999500523741204
0.99995619407187
0.9994779588213435
0.9994496609749969
0.9995002880060614
0.9995705863599464
0.9993707738048097
0.9994231241269241
0.999433978473017
0.9994309004219387
0.9994818233027224
0.9992446049137127
0.9989070766855634
0.9992736499320809
0.9994956728294906
0.9984237584848676
0.9999690993767159
0.9999704015810265
0.999222933846317
0.9999384522647213
0.9983070166442896
0.9994004091042988
0.9994167416198944
0.9993977081721834
0.9993937152189366
0.999383268785701
0.999393031611592
0.9993728741043887
0.9993982761542756
0.9993741794022665
0.9993929617392513
0.9993943433138781
0.9993789013584179
0.9994139735263503
0.9994244646294191
0.9994238133632598
0.9993139397927733
0.999378899519765
0.9984028220224123
0.9978005972671076
0.9998367970770877
0.9998512319096567
0.9991285495363577
0.998591993936318
0.9981989833381503
0.9998718144291022
0.9998509882020788
0.9993014971374979
0.9988871212069154
0.999510364518786
0.9995698055108154
0.999626837756258
0.998318364580823
0.9987849146830413
0.9987536067483486
0.9993088885500842
0.999620673568649
0.9996833315313032
0.9983532842493094
0.9999802303633804
0.9999795172733665
0.9999707074007713
0.9999780193991644
0.9987331504580567
0.9991103203233298
0.9970692832886109
0.9999795938154725
0.9990063801199314
0.9999838798387714
0.9999815051425883
0.9999756932882296
0.9999790504360481
0.9999737524079262
0.9999766630023856
0.9999795449049511
0.9999773978118859
0.9992597821259088
0.9993103911192174
0.9994129562675164
0.9987007085250226
0.9984373169248502
0.9991813424817845
0.9991338835736415
0.999300943223948
0.9984128347054249
0.9994001836460137
0.9993845978336402
0.9993150077364408
0.9991415966942454
0.9991651617044837
0.9972259041626063
0.9994877138018426
0.9995688169907603
0.9979388907166874
0.9996097294050194
0.9999779501465414
0.9999767873549921
0.9991547299026204
0.9990506458781035
0.9985442507084737
0.9993169590066164
0.9994872121791428
0.9994936679450142
0.9992786064927226
0.9999845541505393
0.9996677382620835
0.9995390996437095
0.9980718983026108
0.9991789247101036
0.9992571260703544
0.9995036459087558
0.9998696036986522
0.9998481064088038
0.9992296163287285
0.9992092667620809
0.9991188011231361
0.9992154953551176
0.9991215086315327
0.9990380536324023
0.9990390819021032
0.9991021139941088
0.9990215232501626
0.9990708609944225
0.9990021921500198
0.9990295426510626
0.9989625142468288
0.9989837250113427
0.9989182448366031
0.9990629530982162
0.998947780181534
0.9988971417304708
0.9989796649555209
0.9992022156708845
0.9994451706621749
0.999432397343398
0.9989279088008951
0.9988991389851833
0.9989942562612489
0.9996307331064396
0.999552131285164
0.9997125039484416
0.9996841306640273
0.9998784657768245
0.9998967753271976
0.999728706884695
0.999945643586495
0.999776812444989
0.9875463772949891
0.9999788580871076
0.9999582825465514
0.9967548015057238
0.9972345127489624
0.9977041737261066
0.9971797398299177
0.9976678218315285
0.9971169506004406
0.9976256784518582
0.9982089685696804
0.9981914155256265
0.9987260883331412
0.998708440407829
0.9990822002657201
0.9981654085267964
0.9970454586572302
0.9966245813781436
0.9990966618655681
0.9993166358951547
0.999317077276186
0.9970244239365059
0.994223019362431
0.9995766036285985
0.9996734785259964
0.9996964352316692
0.9992070361911126
0.9990740963506091
0.9999677821090921
0.9996786865683496
0.9990186472960562
0.9978738921629504
0.9990140107316458
0.999488367813753
0.9994387441238323
0.9993227998663768
0.9999849076825582
0.9997754574345409
0.9990875604860091
0.9993964941450695
0.999049886839519
0.9993481965834149
0.9996171221608442
0.9995628204688352
0.9997429989663463
0.9996936411986795
0.9991688878148511
0.9995306732503777
0.9996729314090403
0.9997329467296018
0.9980973265645532
0.9988724040065484
0.9989088007048892
0.9989539557452025
0.9988702815822558
0.9987139663032548
0.9999856214570604
0.9993247020450338
0.9995401862686425
0.9997464312130578
0.9998035516809819
0.9999672096862778
0.9997202425730198
0.9999753835728108
0.9999756919161616
0.9999778899839801
0.9999762870479622
0.9959950531866931
0.9991183625700099
0.9990476523749849
0.9991551693777241
0.9979010289634174
0.9992772337790775
0.9994019821128548
0.9999821761072814
0.9990238112874462
0.9998161301377695
0.999792807108461
0.9986869428541623
0.9972311811328118
0.9984549438856483
0.9973997189439999
0.9990950365558955
0.9991879842940553
0.9993325869953457
0.9995392054258757
0.9996637069434248
0.9994909049543145
0.9994226148159421
0.9989361593634213
0.9989116109619738
0.9996999725375435
0.9994192953344251
0.9993619199679307
0.9992166452463681
0.9989005419433991
0.9989671980302282
0.9988303522189753
0.9994450551085027
0.9995010211882083
0.9996323738525936
0.9997284266073204
0.9996922088207715
0.9999736590941285
0.9999712554531422
0.999971313987905
0.9999613372622238
0.9998253124745187
0.9998193525879593
0.9999881345751684
0.9999880372249229
0.9965282479909665
0.996322913996727
0.9991727443724838
0.999654618555361
0.9996507446911381
0.99969095657193
0.9997552628296171
0.9998256337197952
0.9998266776070902
0.9990979607286821
0.9989904850787222
0.9993745611025178
0.999419708868916
0.9995503031169337
0.9995595349082529
0.9994854806309773
0.9995632475186751
0.9994890352505544
0.9995684025445599
0.9994852630535175
0.9996737224584574
0.9995774267034154
0.9999587442583514
0.9999721158440709
0.9999699309350505
0.9999536392149068
0.9999437889441438
0.9995884981114564
0.9999595594569954
0.9981112683658891
0.9965316807443872
0.9969390543283675
0.9996711975946138
0.9994803890383991
0.9995687640479348
0.9999758802099986
0.9997490616088597
0.9988862440880982
0.9989147565893192
0.9989516551445009
0.9989666274154946
0.9990397773547274
0.9999326660091508
0.9998075984580421
0.9997721525770068
0.9971727988749662
0.9995647207709711
0.9998670691484028
0.9999274593353596
0.9999290335883133
0.9997687924455377
0.9998105713540244
0.9992303395411156
0.9993719011215869
0.9995589868917495
0.9994702764383795
0.9993836854005205
0.9993650994869919
0.9994548335796347
0.9993328055026072
0.9994310649091215
0.9993046872554783
0.9994306601077383
0.9990316632090173
0.9997451197696321
0.9991304734948115
0.9991365771944832
0.9995608621315996
0.9982265639905861
0.999798679773968
0.9998780338651828
0.9993399684829669
0.9989979207577353
0.9990617135614975
0.9996356993335935
0.9999856707157108
0.9997422379902847
0.9999454428477418
0.9997978630065173
0.9964147504808721
0.9963209083435294
0.9964194376891035
0.9961762613817023
0.9964117095595073
0.9995410121366713
0.9999822927541844
0.999977977380362
0.9999855252256781
0.9999671065843199
0.9999394375903574
0.9999298327070222
0.9995249306574318
0.9994551670453647
0.9997923794347491
0.9998699203301029
0.9991887199553445
0.9995239814140676
0.9995473901834749
0.9986438393101406
0.9999687654684172
0.9994871777462364
0.9996423852470367
0.9999623547841712
0.9999440544380093
0.99972766882488
0.9996881797888966
0.9996691738972514
0.9992198262973514
0.9994360597221978
0.9989643003065027
0.9999679883345569
0.9997074614376439
0.9998226197157412
0.9989442330452428
0.9967019135354687
0.9989131374092363
0.9999448416758824
0.9991195543666435
0.9991298449231584
0.9990554878894575
0.9990978062888102
0.999019265118802
0.9991648792997627
0.9999509588332183
0.999929101723508
0.9993880938404365
0.9999023829842256
0.9987542315964258
0.998379346294162
0.9991693670114545
0.9996037016250575
0.9995800207068615
0.9996250855013461
0.9994302696687901
0.9992541777377888
0.99932366521894
0.9994867741925908
0.9991097831171909
0.9990114106908978
0.9988718689605509
0.9983261589123729
0.9997605502716973
0.9993961783953275
0.9999790731264567
0.9998417955547622
0.9977208954423669
0.9958041562529765
0.9964937510944305
0.9993597280515991
0.9997919003157538
0.999780538929662
0.9994159192360672
0.9988903756984401
0.9989490425935252
0.999115120725989
0.9990050424247772
0.999059925550849
0.9992038603202497
0.9999674622299312
0.9999557268611633
0.9998966101268876
0.9999681035316788
0.9999695832140683
0.9999561323220545
0.9991620560929853
0.9992212379314711
0.9998079363629757
0.9990760970255743
0.9991560850138569
0.9994387496723229
0.9977597006224086
0.9988389148221174
0.9995650040010968
0.9995756480283302
0.9995406960456499
0.9995288317449587
0.9994951601433606
0.9995625131258835
0.9994675512706024
0.9962225057262223
0.9964220272495221
0.9987786958394554
0.9988360810852956
0.9989293452267648
0.9988984682265791
0.998962135309219
0.9989348957273828
0.9988804611594142
0.9997706155454883
0.9993583651271992
0.9998347405727845
0.9998007782831613
0.9997227271972634
0.999279527451651
0.9995290117048069
0.9999544022194085
0.9994460750902905
0.9998882951058831
0.9995116798573046
0.9994712309415397
0.9994897906328234
0.9994599885926647
0.9994816440728095
0.9994522756166438
0.999478426109023
0.9994532274768793
0.9994862469092389
0.9994190931544529
0.99940349068554
0.9999631836438693
0.9995937931795507
0.9987060069880638
0.9987329635782245
0.9992667897816471
0.9963170237824994
0.999462386490363
0.9990883655991365
0.9996261455071813
0.996259933612666
0.996629761664741
0.9993192098004658
0.9990534392718093
0.9994586530889729
0.9965285142084946
0.9965643761083331
0.9992319848270371
0.9988753382051768
0.9996370140775196
0.9996138725631533
0.9989518108007412
0.999918668575208
0.9999168626643093
0.9999299553304137
0.9999132693457236
0.999406806343343
0.9983161285737138
0.9958007392938395
0.9996139006288899
0.9995980900978452
0.9961259850517433
0.9965651511249689
0.9998782688786252
0.9999796983659666
0.9999785571872867
0.9999797153247529
0.9999807404352871
0.9999817073515257
0.9999816422293513
0.9999869834518238
0.9999126880704583
0.9995431136981637
0.9994798490480996
0.9991750645900406
0.9969291232816737
0.9949951276179531
0.9999801023451417
0.9999809543302631
0.999979836533904
0.9997934176390879
0.9979552482411449
0.9980825948745197
0.9985025352057103
0.9984353275856374
0.997665528805625
0.9999557653022407
0.9999624289766081
0.9999267821163457
0.9999271447072723
0.9999165214986732
0.9994047703096494
0.9997779372267398
0.999774953493047
0.9997839098569615
0.999659550588033
0.9999293134951734
0.9989342531799285
0.9990666645471403
0.9991696557468628
0.9996333523394848
0.9996222331547153
0.9999289340523497
0.9999824244518749
0.9993378001358488
0.9990161214685256
0.9988693914081752
0.9998381465826615
0.9997844164584028
0.9991550636394936
0.9990950645054038
0.9998965336549853
0.9999590878581379
0.9999652569440868
0.999876255051352
0.9998871165925928
0.9997887111532394
0.9999713729557703
0.9993041347967888
0.9967855181549529
0.9998034458020635
0.9996608948189424
0.9999626616479605
0.9992731610266371
0.9989887854213805
0.9993703402325759
0.9990385211671536
0.9999604927166742
0.9994766246917032
0.9987982538927518
0.9997047627736516
0.9999829679781738
0.9999837720153453
0.9999141117904228
0.9997628239219176
0.9983083029763752
0.9983386165112471
0.9997164750576758
0.9987091042557547
0.9989478546752433
0.9990642119562576
0.9991431010166659
0.9991003617003495
0.99957900599361
0.9995703698252046
0.9999632508602926
0.999359929310227
0.9992200773023485
0.999257443294864
0.9999422882797474
0.9973969617568523
0.9995582493744858
0.9996616725882624
0.9995926649421918
0.99976969248417
0.9997938478886264
0.9997378533231371
0.999452891475101
0.9993766607231483
0.9993978073403017
0.9993126134299972
0.9993109731707485
0.9996438144760685
0.9999093127799237
0.9991494842252054
0.9992150971112845
0.9999826125388697
0.9996959369879359
0.99964340454184
0.9995013397717856
0.9994605966701767
0.9995089389696195
0.9993183313975949
0.9993119471620434
0.9989507987356465
0.9989201625984602
0.9989906703265194
0.9988982243086058
0.9987733798691866
0.9987421428974553
0.9986173440613745
0.9991129380830742
0.9985747369729483
0.9984625102901343
0.9995408161531849
0.9991732351496777
0.998511242876502
0.9989613725749982
0.9999634627111327
0.9999689361098286
0.9996445235609441
0.9997982423298014
0.9999348000461298
0.9968808772234854
0.9968878889484877
0.9968839416920098
0.99694262708624
0.9965315849980716
0.9961822651728272
0.9956434412708332
0.9950729143887218
0.9949433608635201
0.9944688989367848
0.9945502651654583
0.9943627149652157
0.9944952219421715
0.9944205703003726
0.994527687438486
0.9945048604779206
0.9945722385612389
0.994588816729326
0.9946714986342061
0.9947047596764892
0.9947780428304704
0.9948229724922633
0.994901593047632
0.9949447952271216
0.9950465684790673
0.9953011832966897
0.9954505042397717
0.9950794948861704
0.9949219145560082
0.9946368732034838
0.9942892108557105
0.9955043358811475
0.9940053557872929
0.9960098767013665
0.9961298917959294
0.9955803502691744
0.9962385204200563
0.994861624676264
0.9936781761411815
0.9958445918694894
0.9947031886972042
0.9957045011761759
0.9963674332325616
0.9967917828684723
0.996480847597496
0.9963752242908595
0.995323035744626
0.9954582063150336
0.9953508605333191
0.9965260281775363
0.995852325413678
0.9969103054970218
0.9973810226197962
0.9972914814037319
0.9977749907947755
0.999944868891814
0.9999727829262364
0.9993488398594456
0.9999150398079558
0.9999164090561319
0.9984487915224637
0.9983793373297085
0.9989119197613264
0.9997488341080152
0.9964878447732607
0.9995538081982315
0.9996257416456401
0.9996128597573916
0.9997379680409638
0.9994919351052531
0.99651976622269
0.9966457262958112
0.9996608697739997
0.999593941640368
0.9996620757448406
0.9995468120898278
0.9996954802435677
0.9994939707452416
0.99951127743373
0.9994997259670787
0.9963286895102932
0.9968827645238971
0.9967756094335668
0.9974594621120881
0.9973904001345908
0.998079840787048
0.9980634674129037
0.9986627565803765
0.9986662074414102
0.9990482674447579
0.999652152028899
0.999578566282712
0.9995073474785512
0.9994892591386031
0.9994566149682085
0.998673328314516
0.9987524008437869
0.9989068789826654
0.9988205942818432
0.9993257159492596
0.9997870887051956
0.9998314239435883
0.9982237019439609
0.9993270274166788
0.9993290518409567
0.9999385761721574
0.9997818629119024
0.9995601085855346
0.9995588229304996
0.9996572455483727
0.9996068900369299
0.9995605704870053
0.9995602392820462
0.9995076587014535
0.9995108428417133
0.9995525849089126
0.9990883769521116
0.9987155740835328
0.9987047517049017
0.9954824920029441
0.9994918858168156
0.9995784562612474
0.9999585979457056
0.9999624470489556
0.999951442487337
0.9996325032015927
0.9997912942549573
0.9988794826962702
0.9987156725708317
0.9986350385573877
0.9990589882073331
0.9999847430018428
0.9999557358626284
0.9999490359063195
0.9999708183744366
0.9996290386438704
0.9998992457225725
0.9998308397179301
0.9998976217082672
0.9998979706905508
0.999918799783443
0.9992250965501087
0.9991828210549363
0.9993592656090382
0.9991470214582476
0.9992360759087633
0.9991447203020136
0.9991863534422393
0.9999235603531059
0.9986717094914879
0.9987120838784954
0.9988870029540109
0.9987841770105387
0.9996344787685485
0.9992707385140708
0.9992904785589874
0.9999511159750372
0.9961069507405027
0.9998644297105448
0.999863269612636
0.9998262347559395
0.999824184526479
0.9997834169368367
0.9997686133694572
0.9997162010070113
0.9998850662297287
0.999944231402719
0.9997265645888405
0.9970018424010233
0.9994827587660806
0.9994718291843774
0.9994316350440884
0.9993888812702499
0.9994715214161741
0.9981614307083044
0.9996245328487937
0.999403350013699
0.9993899563413348
0.9989689384671567
0.9990363761157185
0.9999086598316537
0.9989510832438862
0.9987294553546956
0.999942195274559
0.9999910044996347
0.9959680644453507
0.9940539636760934
0.9969175435505626
0.9999345080072162
0.9999522667005437
0.9989334469022039
0.9995330242153405
0.9999631411857558
0.9986762514478801
0.9992358776853837
0.999288781821259
0.9995470457243735
0.9991628472752088
0.999304248877548
0.9993188807985751
0.9999724281270456
0.9999687436755715
0.9987395628369553
0.9999788363826724
0.9999870373808559
0.9999105011511851
0.9998697199134028
0.9996805862662786
0.9997901370485771
0.9999061086314224
0.9956808071019855
0.9962495029277518
0.9992986150247732
0.9969812586980805
0.9965919105056831
0.9999799684746614
0.9999773527812501
0.9999790407585353
0.9986315627641705
0.9987035757127516
0.9994189604035699
0.9992804969948041
0.9992898111067157
0.999303736163739
0.9989171317840508
0.9992379767124561
0.9994107586871389
0.9999809949256534
0.9999892548643157
0.998339584769026
0.9982747796379358
0.9994803401333422
0.9998842218314513
0.9986447903130599
0.9980499438877987
0.9985016003356765
0.9999301044174824
0.996653055177274
0.9971600760789415
0.9971885095148155
0.9990076650827889
0.9995072688162904
0.9953130034814548
0.9951759073168642
0.9952196276092945
0.9950714551602693
0.9952833692008017
0.9951064237716721
0.9949047562850001
0.994876912456488
0.9947246185656566
0.9946723536307188
0.9958229353377481
0.9996820321042283
0.999538495276453
0.9960113308088396
0.9961541664280065
0.9931487141225738
0.992098708042994
0.9952258321013661
0.9939808176126779
0.9922533767807096
0.9909119201501023
0.9937002224594781
0.9994904470361574
0.9994519048739792
0.9992008058340056
0.9990406816290711
0.9990974364910432
0.9999822191142326
0.9999829228440321
0.9995799966262156
0.9994813009769312
0.999594662667624
0.9976497646662759
0.9897207065729839
0.9955406868730267
0.9951943752192006
0.9944036672739573
0.9949793739858857
0.9941145953642503
0.9991694323259924
0.9992812477461926
0.9942391034448392
0.9999351290276244
0.9998725148686539
0.9995814156570266
0.9977345931788693
0.9978821476452672
0.9964664524876164
0.9967884235347327
0.9997239589072274
0.9999405186449843
0.9999299192650207
0.9987965182955914
0.999572892873536
0.999823894895869
0.9996407526049159
0.9998716285246128
0.9994101647274073
0.9995786450786545
0.9994607483746687
0.9992631851734108
0.999480375065123
0.9993861200238957
0.9996927553861766
0.9977973827525439
0.9990343932720929
0.9938719712479239
0.9931233940332181
0.9934091101829347
0.992853257451396
0.9932872968741404
0.9923996022070569
0.9936408387834589
0.993641223769251
0.9935099500291437
0.9997085585927901
0.9938751873829385
0.9993080344180917
0.9956152597011384
0.9988206759815451
0.9989805670907052
0.9927283284597603
0.9918046329125878
0.999634818524801
0.999984617631585
0.9999866368521237
0.999985080386563
0.9999870941534412
0.9999848449884134
0.9999841328722145
0.9991077873362287
0.9991366630177667
0.9991157199243454
0.999189135912606
0.9991884029213535
0.9992553189631048
0.9992755299749497
0.9992536984481887
0.9993172451170621
0.999209613989313
0.9993152732036381
0.9993438996172549
0.9993946206634601
0.9994941804876106
0.9992731806503118
0.9991841534168254
0.9992907125331556
0.9990389580195206
0.9991432041911484
0.9995002562897172
0.9964629611443595
0.9994630084370167
0.998757146172477
0.9986716387304095
0.9994650897475497
0.9996976512177521
0.9994932802155319
0.9994081214049161
0.9994355819049222
0.9993806779968963
0.9994351585462717
0.9993639393439124
0.9993390284001598
0.9992228786457122
0.9989105797072285
0.9996750767951622
0.9993127779388852
0.9994400733003228
0.9996451834802815
0.9994396370587839
0.9995886512410477
0.999528348067896
0.9990733827590864
0.9989807890283797
0.9990853269705054
0.9992459362858874
0.9993421237928265
0.994469866525222
0.9996191419768293
0.9990198794346039
0.9992213199624621
0.9913787217502571
0.9994428770541383
0.999987842422087
0.9996281934501582
0.9976500312240663
0.999334964999269
0.9993890179936108
0.9999839846281839
0.999331741042106
0.9992166163648323
0.9992408111886977
0.9992065488396432
0.9990905987087401
0.9992088076112209
0.9990547819574496
0.9990719938775928
0.9994202178371905
0.9996087040440808
0.9995386406792897
0.9994762710102177
0.9995851796391022
0.99984268726173
0.9999817983633001
0.9991263501164336
0.999612603529145
0.9967434818772697
0.9991970654976837
0.9974824624500542
0.9966770550899288
0.9966628976334896
0.9967642415142866
0.9959313673936498
0.9956976040254941
0.9956999343015299
0.9968092236485498
0.9980189701775526
0.9975313944746845
0.9998850732930068
0.9992824222395693
0.9990725186260925
0.9985825593419912
0.9985450444539288
0.9997887081785806
0.999617498687483
0.9962022218693541
0.9994848391326182
0.9990511819627919
0.9989414406755721
0.9988763393088929
0.9995480265028822
0.9985239926198795
0.999064583229488
0.9983259049683124
0.9999961052957972
0.9961753962207471
0.999430947497569
0.9975300245350989
0.9999329736669926
0.9999304349860312
0.9973175964875097
0.9985876679599379
0.9995927208409092
0.9988123659767969
0.9987379684068204
0.9986120657905632
0.9987040505115838
0.9994040783565951
0.9995083003072849
0.9951903664035334
0.9952199212313474
0.9993328644509987
0.9991358762754852
0.9993796075934517
0.9993403662752111
0.9956128971920877
0.9996291980054026
0.9996969201004953
0.9981127212320395
0.9996787340735561
0.9967137954318891
0.9997459195899495
0.9948892534555508
0.9999371465749667
0.9982425319840329
0.998895983150909
0.9991840992601623
0.999104213002977
0.9990457916758658
0.9989835862694993
0.999211075690164
0.9993480298610994
0.998648423262918
0.9988010176019791
0.9996476732098081
0.9999157026167301
0.9999642056506286
0.9998788595397445
0.9999536672080166
0.9999280524819446
0.999977846332823
0.9999830884202955
0.9998802130315272
0.9993977511467432
0.9993033795297667
0.9993962642746884
0.9997492572556215
0.9996150501734531
0.9990407248585503
0.9995776193834844
0.9992887410945295
0.9991091589712384
0.9993810329176722
0.999807912914345
0.9986559193384856
0.9993505062119015
0.9994241657944808
0.9993969614366109
0.9992828360013073
0.9988036231430699
0.9989366050196984
0.9987648214157231
0.9988515240891566
0.9986101606881884
0.9993850920884988
0.9935416631646387
0.9999626070247056
0.9999701207743384
0.9999722412734872
0.999980931648964
0.9984882995721504
0.9997453095589528
0.9960073306191995
0.9941294566125586
0.999585858723927
0.9994450575219488
0.999551744483381
0.9987133770447979
0.9985698446797066
0.9970404441219304
0.999266049537739
0.9990802662984993
1.0000335978800345
0.9959222503393603
0.9966969251757646
0.9999090783902189
0.9999820810488654
0.9973378523734066
0.9975569759339983
0.999570752427034
0.9995061722405871
0.9995354546763137
0.9995056305142849
0.9995137526371929
0.998961520020717
0.9989236531282492
0.9988657194629791
0.9999815491645778
0.9999037404831062
0.9998297913965313
0.9998155263581348
0.9997880664309491
0.9998449366494366
0.9998997729101871
0.9999457236740389
0.9985635944581784
0.9995349957800359
0.9999438889064066
0.9999786377467538
0.9991453106349861
0.999970940866317
0.9999611890874673
0.9999377992220302
0.9997173017611604
0.9996924884210445
0.9997529691802248
0.999439869307789
0.9995336459119859
0.9999769361415864
0.9973413763417985
0.996910303834483
0.9970808449650524
0.9967401143276358
0.9974659010758187
0.9965695028937583
0.996409528620044
0.9962082571996599
0.9995202182638756
0.9992403462575057
0.9993711606972013
0.9999273116801837
0.9997350980881449
0.9992215931447133
0.9987708963159624
0.9993809797695407
0.9970907530764653
0.9984138698893853
0.9981768492132751
0.9980581767055671
0.9997895462084277
0.9999481967427942
0.9999032550368304
0.9999798916186116
0.9999798920574237
0.9958484093024766
0.9998774170233319
0.9996608985097534
0.9999773115482374
0.9997744911114118
0.9989646499357484
0.9986858158078676
0.9994023166522022
0.9977063955701336
0.9976236389483539
0.9979258790333521
0.9995459248429437
0.9998106875523536
0.9997765263743003
0.9998271002062781
0.9993649177983779
0.9974311808278234
0.9981677817496859
0.9994638913470101
0.9994715079093855
0.9993267112804849
0.9993998409786008
0.9999766007693917
0.9995286043710487
0.9994759699780239
0.9993789180756675
0.9994268342011066
0.9991704617357375
0.9992693601598331
0.9995448772160577
0.9997142865433356
0.9966335402782811
0.9967692773590587
0.9997027800970483
0.9982706542531045
0.9999366094845271
0.9971638880585262
0.9991408628989948
0.9999838983171392
0.9969675668442711
0.9993250274529328
0.999106339016019
0.9990161567039045
0.9904880219498481
0.9999852704777062
0.9990143576242465
0.999174378402666
0.9992489340372556
0.9990115279743639
0.9990174430238965
0.9987954399838966
0.9994302445602768
0.999944662276854
0.9975276229842331
0.9996997986586355
0.9986742308821186
0.9965823702624697
0.9996808679015923
0.9989114663463788
0.999525199998487
0.9956381035965298
0.9996303771118045
0.9995326027215041
0.9995190013087285
0.9996930616927991
0.9979803825133956
0.998539042068218
0.9966985565475627
0.9994242049617349
0.999202014345017
0.999081244675194
0.9994597132290797
0.9996727219204449
0.9997616006101047
0.9982163605074432
0.998830147998451
0.9997701662059088
0.9986651109173033
0.9972909749962962
0.9961411746343156
0.9982344974507327
0.9995206124765429
0.9996065515048967
0.999848570211946
0.999692431252985
0.9990265527362426
0.9990364978680798
0.9990108888992726
0.9998982756289867
0.999353537235816
0.9998711955492261
0.999407450672796
0.9987230499568608
0.9999175881704507
0.999866867320516
0.9996913825686168
0.9975786922876361
0.9999403011214829
0.9999839702942267
0.9998361557140436
0.9999715118276962
0.9999812770921299
0.9999810163840095
0.9992906693760255
0.9986250838260109
0.9999663735714971
0.9995162423039904
0.9959166148106438
0.9990154303781269
0.9999405714777937
0.9999488098796311
0.9972428041403756
0.9997951619612075
0.999302014633634
0.9994475918166194
0.9991996528490954
0.9965088241623228
0.9989791760876916
0.9948191726206819
0.9981279500582373
0.999717042944996
0.9987447399032159
0.9986342797043039
0.9977062452222627
0.9987033132414878
0.99935300003522
0.9991291141685792
0.9999873155023451
0.997337329094716
0.9928666628213436
0.9980642293869941
0.9968612131391693
0.9978741166580669
0.9991587710283806
0.9896865395263075
0.9999641580967085
0.9999473679941846
0.9989025012621736
0.9998899815756253
0.9967077609760278
0.9998866947684611
0.9999038434101057
0.9998848949902189
0.9984696437821066
0.9992386408517763
0.9999643400671342
0.9999172980925786
0.9998977041029045
0.9980515436971752
0.9999210111068294
0.9979247221121267
0.9962220886878169
0.9989593490402912
0.9989249875555389
0.9994708422899372
0.9970436880051349
0.999827564886701
0.9989999701136976
0.999482992561176
0.9999694468067982
0.9994505863867361
0.9994080308327252
0.9999270032258768
0.9996700227987815
0.999967187804816
0.9999820381734223
0.9993560197338545
0.9914969413372248
0.999592181058692
0.9998752111178569
0.999850019863983
0.996124716697374
0.9992940831592514
0.999742818509371
0.9934942688022839
0.9999050935589301
0.9971776292046597
0.9990487486430928
0.9995766213745754
0.9952699333167523
0.9958521291619227
0.9990374017599551
0.9992481951443731
0.9990309996848772
0.9996646065109591
0.9992390036496412
0.9999685584765264
0.9999520922140319
0.9996473120562429
0.9999255955122741
0.9996645333514964
0.999485566940438
0.998427701077416
0.9991460129462042
0.9993419495609996
0.9992658117686181
0.9997910963118587
0.9999589192561487
0.998448650317011
0.9985181166188718
0.9985970373192354
0.9991945890164718
0.9985705853264373
0.9993698328066463
0.9994283174787115
0.9998715605592362
0.9984431870697895
0.9984674405046594
0.9993294720938417
0.9995543933870001
0.9993808918982718
0.9995921862693733
0.9993383681716155
0.9998209877690538
0.9997815514769278
0.998401677727372
0.9985387887768988
0.9996807787888052
0.9996474830122607
0.9999814798050853
0.9984995767160265
0.9999786895037585
0.9993452652930813
0.9999609611797269
0.9990185359104758
0.9999782317369503
0.9992044562322697
0.9984556909469677
0.9992929406516883
0.9987249829820523
0.9987244610452364
0.9997179529957316
0.999978442943843
0.999216056701798
0.9992324297763121
0.9998440553653782
0.9999748533890465
0.9976715949195195
0.9998552974159295
0.9981563799968775
0.9999469470272824
0.9993414250904842
0.9993672598458834
0.9943217460130608
0.9991536391482762
0.9879298554013075
0.9990166866583113
0.9994624949806654
0.9987514544485905
0.9974563567564062
0.9998900590130919
0.9999732032762111
0.9991263639575468
0.9992098257459279
0.9999716780875523
0.996691917314123
0.9996913901937219
0.9999760439752882
0.9991276141696362
0.9993282803892559
0.9995420404146836
0.9996841138784703
0.9989314284666704
0.9989745795623883
0.999269422419167
0.9993191022776451
0.9993363117201796
0.9999032251710939
0.9961457928254406
0.9959854578464449
0.9951442426940136
0.9995409526655467
0.9995807540214812
0.9991928062558092
0.9995083618345963
0.9993805439047757
0.9966021815529774
0.9996593551106941
0.9987169538397642
0.9996543091201525
0.9997550707720154
0.9994370243848926
0.9997652181398133
0.9995422907225388
0.9947993321371208
0.9994210553280297
0.9955961199844495
0.999471622033612
0.9993548683929181
0.9999628208837932
0.9995313344292541
0.9994363860276785
0.9997996079055014
0.9997524907892548
0.9965965839330216
0.9994698063701435
0.9994895570098661
0.9987117600445496
0.9990698705566584
0.9971297863660272
0.9931168426023028
0.9995091826915833
0.9999236368771707
0.9990802692271453
0.9990884264083154
0.9989820774411813
0.9998750136791208
0.9962286784186942
0.9996129231205084
0.9985032108544487
0.9996662545483244
0.9996333070463393
0.9998245221159109
0.9996082493436975
0.9989909541839379
0.9994948960586125
0.9993523839166117
0.9986030137699635
0.9998627716559471
0.9998416867036028
0.9989517835855687
0.9994682091351231
0.9997172068869751
0.998997158163221
0.9986278773847226
0.9999836646405607
0.9993418261399734
0.998809084236188
0.9993422031034772
0.9995424625739842
0.9995089048497192
0.9992635600510965
0.9997012763041596
0.9952189988026626
0.9980064466761169
0.9999575682612223
0.9999260840882022
0.9995480882816843
0.9995186195014888
0.9995534426015333
0.9967586486499374
0.9991301935310267
0.999623858084673
0.9995663518196618
0.9993218114958765
0.9997021476375166
0.9994829520089339
0.9985685247982227
0.9999577654496459
0.9999157339653664
0.9992318137055997
0.9992489231301555
0.9994005687650844
0.99860586007755
0.9949142015289426
0.9977244420354973
0.9975545031212087
0.9995308507282081
0.9988157184754289
0.9992957366473578
0.9999355890253294
0.999310517847828
0.9999871723747722
0.9993111694072846
0.9993425144725526
0.9969235977751417
0.9993979765158473
0.9939262860215635
0.9943157466792429
0.9989379972669282
0.9997305619165449
0.999512143519691
0.9997322266152043
0.9990820884484328
0.9995799990976647
0.9994826285770358
0.9993022197515902
0.9922717701183117
0.9945301449902936
0.9995241049590184
0.9990069787442721
0.9976776062381565
0.999769132893528
0.9996506441460575
0.9992136708805376
0.9996132295740886
0.9997157471745222
0.9996252154364749
0.9996014843340741
0.998949880503529
0.9996321565284394
0.9999079500275365
0.9996148564623347
0.9959002506160125
0.9989948030691598
0.9974417227408364
0.9950428425493768
0.9992051768161981
0.9983402130817421
0.9990422522978256
0.9992918650636692
0.9973829637529945
0.9999599896501958
0.9999366881453349
0.9954904000579464
0.9989428371524285
0.9989697418619631
0.9977104831085369
0.9999530877331582
0.9965540190321294
0.9981606840050288
0.9996466209477399
0.9987747884496845
0.9998401942494438
0.9999736362717598
0.9985546122041696
0.9999804461501423
0.9988195290473466
0.9999544304175602
0.9969719796581653
0.9997900982991443
0.9988923268345689
0.9938726623521164
0.995047511143573
0.9978106355239819
0.997319117927791
0.9946671343146671
0.9993042066410446
0.9995149791542519
0.9991624855342373
0.9996375231904883
0.9993454707120888
0.998840315504539
0.9999725860939089
0.9995402239556256
0.9986977403740586
0.9997324412282219
0.9998344757998668
0.9968269005028199
0.9995042504906271
0.9998923384286411
0.996623656485499
0.9999785550750063
0.9995719172637488
0.9996437870612781
0.9987140516102558
0.9983927380520414
0.999438520731814
0.9980459707662976
0.9997544260299174
0.9985931347939803
0.9997076981737484
0.9999312481255521
0.9999175260014851
0.9997477724554661
0.999980627307963
0.9996651361753912
0.9962506662780398
0.9994316686250773
0.9962830261600018
0.9987484100935988
0.9983962554532588
0.9985102192712138
0.9987248935511254
0.9941043996023612
0.9922909280673397
0.9986088716475504
0.9972231768841677
0.999555514514217
0.9992686477727822
0.9998650749897812
0.9998508518025208
0.9993558917385997
0.9988275344182729
0.9990502597533247
0.9985187910890604
0.9991555030266196
0.9949329184045449
0.997386697220122
0.9998162306266761
0.998765235284251
0.9994713978921423
0.9989400632683946
0.9997353677801133
0.9998569569772345
0.9998198730261627
0.9999386560430833
0.9999037888680755
0.9981379343521499
0.9999178312596789
0.9969165795487704
0.9995178813099174
0.99666781300627
0.9999701241888295
0.9991456022786444
0.9985431858029635
0.9994704747372081
0.9988684399062477
0.9999349455512727
0.9998171307303042
0.9999926673481355
0.9996064943323831
0.9952121213897833
0.9996021656760024
0.9998209562981518
0.999986976003271
0.9982386228142861
0.9957990693802159
0.9990375293151563
0.9984007252381725
0.9961931850562735
0.9996559284595096
0.9988060474673405
0.9966096391864985
0.9993692475519073
0.9996000040910743
0.9994419487518297
0.9992171281280103
0.9989899528526489
0.9947817486971943
0.9999510294786561
0.9993097771720743
0.9994838498698331
0.9991383692083871
0.9995640043805915
0.9998780314935639
0.9992959205872708
0.9994881136611838
0.992629233503969
0.9991889220870398
0.9990014968346181
0.9997657980049928
0.9989147015958568
0.9992621411541484
0.9990525078569272
0.9996532861399586
0.9938981535037236
0.9992643450161353
0.9995586650660802
0.999903524776592
0.9955621560290583
0.9990215125239991
0.9999105283920381
0.9954504889743371
0.9995057386416555
0.9993567887054956
0.9986131809281504
0.9999684809520537
0.9992593879665398
0.9992319455587461
0.9999071359354244
0.9999789990827868
0.9992610704053946
0.9989914995611758
0.9960719106115311
0.9999428678962604
0.9995812730743627
0.9999548762083541
0.999525018518295
0.9999541135585815
0.9981662012034975
0.9953638920689192
0.9956600470439924
0.9998983997796662
0.9996735496642746
0.9991339912033146
0.9998836854446898
0.9992629121671428
0.9985320017151075
0.9998595022257033
0.999951082290826
0.9994312853223669
0.99905661602455
0.9998986108720918
0.9992607574698285
0.9999868782987986
0.995996757805373
0.9998313075456609
0.996160804660361
0.9970323476211173
0.9997056760118154
0.9992008380072287
0.9989139580357388
0.9992572900725537
0.9996522839640054
0.9991788416302044
0.9980514383657152
0.999941535781345
0.9994124760283841
0.9991275140424741
0.9993236882349702
0.998810834453892
0.9998830525991937
0.998835623044217
0.9994941662829498
0.9948759091103575
0.9999502799536549
0.9988626507933981
0.9983617815343473
0.9995135632332339
0.9998942182020703
0.9996029117319838
0.9992645268878317
0.9959238941691173
0.9997496692941713
0.9962825304453723
0.9990060165166059
0.9994597925488459
0.9954384165734791
0.9992347278322962
0.9999369482491103
0.9999877886725836
0.9997764686337052
0.999431205545962
0.9997706874906669
0.9967442649337639
0.9999713605299014
0.9998592963920411
0.9993022082306708
0.9990695662443244
0.9987591632244528
0.9989570946259588
0.998301398151729
0.9988767476988282
0.9996481680411616
0.9994106663741708
0.9980050051879793
0.9995445050277639
0.9999392580092948
0.9989818146743995
0.999325356494087
0.9993770023594273
0.9995250345025953
0.9994857255604676
0.9994628484221842
0.9990734752643167
0.993570486249337
0.9999808752924441
0.9984554791122495
0.9920171335997667
0.9889221360978836
0.996684754458756
0.9992403586560034
0.9976434606155747
0.9997724345665551
0.9995784417612267
0.9999754762753981
0.9996443741427564
0.9994232245138766
0.9987003313037889
0.9999681341706022
0.9990357794247757
0.9994431377342539
0.9996233021513584
0.9994963662396061
0.9968732783880151
0.9998078515150237
0.9958574200620888
0.9964313544080399
0.9988517543587957
0.9995154787657702
0.9999798044335052
0.9988334131649694
0.9991733476851556
0.9993391972682175
0.9989507035298825
0.9998702487489332
0.9999240521922333
0.999982836845876
0.9999606858592156
0.996386156414504
0.9992232005693884
0.9962881696127995
0.9996751592030173
0.9993570702695341
0.998561086331353
0.9993666151709194
0.9985583873853557
0.9998620856825251
0.9988381660190744
0.999408985444888
0.9983792013589102
0.9991586685450559
0.9972182467507505
0.9992723799410046
0.9987473341092379
0.9990674378873635
0.9999639857559904
0.9997736327712136
0.9962862851509556
0.9979223413311746
0.9973508395166166
0.9998772306148886
0.998030486366535
0.9986206751816593
0.9999002582209463
0.9997258895129086
0.9995028933119097
0.9971789874113081
0.9996746263579737
0.9999885189539609
0.9960150003535592
0.9999469184725747
0.998593637019072
0.9999881501273059
0.9953525435055756
0.9987197942554679
0.9959670836887963
0.9995421677220009
0.9994372924743162
0.9915031253943755
0.9994671399790326
0.9999862951763844
0.9999638282612723
0.9987855540486238
0.9995555811819621
0.9995562067194252
0.9999778432740507
0.996413973526077
0.9896756591890603
0.9994114823580522
0.9986549646338966
0.9999829168838384
0.999404115441638
0.9991810063978892
0.998390288059178
0.999980459394309
0.9981922331769494
0.9997530625363751
0.9988731365440279
0.9939808799658003
0.9993292805723544
0.9996643307819637
0.9999378506002634
CELL_DATA 4886
TENSORS stress float
-582645.5246191301 -32295.49151160468 0.0
-32295.49151160468 623206.2074621218 0.0
0.0 0.0 0.0

-779555.6590315857 196281.83392213366 0.0
196281.83392213366 492010.61506221927 0.0
0.0 0.0 0.0

-479060.1182932005 1.8629820947639553e6 0.0
1.8629820947639553e6 174438.0492957784 0.0
0.0 0.0 0.0

-266192.137024112 1.554996433804073e6 0.0
1.554996433804073e6 300323.0827191897 0.0
0.0 0.0 0.0

-977255.893366379 3.163218324620522e6 0.0
3.163218324620522e6 303192.21268385195 0.0
0.0 0.0 0.0

-187414.15367605956 -414618.7682034387 0.0
-414618.7682034387 57334.22777378908 0.0
0.0 0.0 0.0

340486.29851847613 5.03385360464741e6 0.0
5.03385360464741e6 -883146.956844722 0.0
0.0 0.0 0.0

1.378638984899472e6 616180.7603952583 0.0
616180.7603952583 -1.7584390541974218e6 0.0
0.0 0.0 0.0

-472284.30210480175 16272.847658881255 0.0
16272.847658881255 683800.1973359664 0.0
0.0 0.0 0.0

109204.81864896645 1.9789910715182745e6 0.0
1.9789910715182745e6 70727.26905267865 0.0
0.0 0.0 0.0

-669385.9833169386 3.506190751271699e6 0.0
3.506190751271699e6 517026.2003425449 0.0
0.0 0.0 0.0

-1.038368585914999e6 4.1026225810747533e6 0.0
4.1026225810747533e6 524694.1010234354 0.0
0.0 0.0 0.0

932193.8708541745 834926.8989080522 0.0
834926.8989080522 -1.4223972794602779e6 0.0
0.0 0.0 0.0

1.9471886516940102e6 4.945715356987177e6 0.0
4.945715356987177e6 -513509.6393013048 0.0
0.0 0.0 0.0

-538482.1423491878 3.5531314256848777e6 0.0
3.5531314256848777e6 551326.9605480293 0.0
0.0 0.0 0.0

632540.4624252728 192503.8780406664 0.0
192503.8780406664 -1.3046511269286918e6 0.0
0.0 0.0 0.0

-31675.903258534527 1.2271582369676898e6 0.0
1.2271582369676898e6 -670905.0111315284 0.0
0.0 0.0 0.0

160955.20861721516 1.4524606602945174e6 0.0
1.4524606602945174e6 -947522.9506922294 0.0
0.0 0.0 0.0

102787.22863935345 -41801.07083226763 0.0
-41801.07083226763 -184618.56361916458 0.0
0.0 0.0 0.0

-616963.9207737078 3.742480858133064e6 0.0
3.742480858133064e6 568457.4093741375 0.0
0.0 0.0 0.0

37364.57463153463 1.3008718026882608e6 0.0
1.3008718026882608e6 -545709.513748381 0.0
0.0 0.0 0.0

-1.2596795480507342e6 4.192722544685042e6 0.0
4.192722544685042e6 409801.96566824976 0.0
0.0 0.0 0.0

661382.4797112206 17195.944361623388 0.0
17195.944361623388 -697879.9823128296 0.0
0.0 0.0 0.0

-370662.4920191824 1.6128046623095428e6 0.0
1.6128046623095428e6 -17146.25602993743 0.0
0.0 0.0 0.0

534735.868885644 976116.6612952438 0.0
976116.6612952438 -1.1548993938517615e6 0.0
0.0 0.0 0.0

-279027.5218391495 6.561400373874275e6 0.0
6.561400373874275e6 150598.894522232 0.0
0.0 0.0 0.0

-192352.87137374812 4.1702975084628155e6 0.0
4.1702975084628155e6 -99193.24558868066 0.0
0.0 0.0 0.0

-247974.2514692945 347745.49809031904 0.0
347745.49809031904 137206.99956772669 0.0
0.0 0.0 0.0

810599.0905915725 302790.4577279782 0.0
302790.4577279782 -1.048073159326918e6 0.0
0.0 0.0 0.0

-97234.60427304915 -135389.92965692148 0.0
-135389.92965692148 40942.17531977252 0.0
0.0 0.0 0.0

474547.53078108036 27061.43353484988 0.0
27061.43353484988 -733374.788123907 0.0
0.0 0.0 0.0

-243830.55608551693 2.0170476237789765e6 0.0
2.0170476237789765e6 403442.16742013744 0.0
0.0 0.0 0.0

-183369.4582651103 1.7421935001772675e6 0.0
1.7421935001772675e6 -34950.153146621524 0.0
0.0 0.0 0.0

-61137.14141260526 2.2365118253389797e6 0.0
2.2365118253389797e6 -330658.2687986413 0.0
0.0 0.0 0.0

-453703.4941903922 1.3992153196269053e6 0.0
1.3992153196269053e6 62858.73870266415 0.0
0.0 0.0 0.0

504774.8066378901 -29161.69828715303 0.0
-29161.69828715303 -565536.2694425618 0.0
0.0 0.0 0.0

-429510.85014561424 3.2306065693005295e6 0.0
3.2306065693005295e6 127363.1426637813 0.0
0.0 0.0 0.0

-506778.1448771119 1.4034725465235435e6 0.0
1.4034725465235435e6 66792.33431685774 0.0
0.0 0.0 0.0

364100.03660169704 1.120743226025944e6 0.0
1.120743226025944e6 -854438.9171038931 0.0
0.0 0.0 0.0

-946065.9662597859 2.1718025179921114e6 0.0
2.1718025179921114e6 219673.9954095914 0.0
0.0 0.0 0.0

903913.4559074896 837536.7185066834 0.0
837536.7185066834 -1.5463597110907855e6 0.0
0.0 0.0 0.0

-395851.7765747444 1.8098017483619214e6 0.0
1.8098017483619214e6 146655.59565403737 0.0
0.0 0.0 0.0

-858991.1871519032 2.140429993281058e6 0.0
2.140429993281058e6 206015.34431986278 0.0
0.0 0.0 0.0

137807.14209570474 26330.575268356744 0.0
26330.575268356744 -73450.70492219896 0.0
0.0 0.0 0.0

-66854.23517372174 1.27277939907262e6 0.0
1.27277939907262e6 -944804.3031529586 0.0
0.0 0.0 0.0

-266019.48518193443 534377.0357902019 0.0
534377.0357902019 393811.82468678063 0.0
0.0 0.0 0.0

-295418.8786056223 2.545099705904684e6 0.0
2.545099705904684e6 -19307.0974525457 0.0
0.0 0.0 0.0

-372740.3069233461 3.188365071208637e6 0.0
3.188365071208637e6 44133.55705678389 0.0
0.0 0.0 0.0

1.4215327621489456e6 589209.8997228822 0.0
589209.8997228822 -1.7542417753330078e6 0.0
0.0 0.0 0.0

-180407.26760817738 1.543699369091569e6 0.0
1.543699369091569e6 -601357.6567000187 0.0
0.0 0.0 0.0

-1.1644641260835868e6 3.1582969520020173e6 0.0
3.1582969520020173e6 346827.5079441798 0.0
0.0 0.0 0.0

-349148.35106337734 20589.986630578594 0.0
20589.986630578594 425557.40069157805 0.0
0.0 0.0 0.0

1.4372161534568113e6 584811.5081024742 0.0
584811.5081024742 -1.8565605076753837e6 0.0
0.0 0.0 0.0

-940544.7132640125 2.3248921173072234e6 0.0
2.3248921173072234e6 207681.83741012082 0.0
0.0 0.0 0.0

104554.0262560896 1.5282101170537493e6 0.0
1.5282101170537493e6 -307288.70312892314 0.0
0.0 0.0 0.0

-283981.72637086984 1.839940274795465e6 0.0
1.839940274795465e6 -12585.68446484227 0.0
0.0 0.0 0.0

1.30604925016668e6 648846.1472322659 0.0
648846.1472322659 -1.7549618026115722e6 0.0
0.0 0.0 0.0

-950949.6112216163 2.1767354801829336e6 0.0
2.1767354801829336e6 250051.56084099744 0.0
0.0 0.0 0.0

-225241.97820882068 1.5320261067529963e6 0.0
1.5320261067529963e6 1.534981861763748e6 0.0
0.0 0.0 0.0

336055.56785847363 889560.4876675407 0.0
889560.4876675407 -953622.9471130278 0.0
0.0 0.0 0.0

-69501.52875050588 1.1904060989026218e6 0.0
1.1904060989026218e6 -486580.2045442077 0.0
0.0 0.0 0.0

134304.4818474772 4.80998826019896e6 0.0
4.80998826019896e6 -649441.4632140241 0.0
0.0 0.0 0.0

-163663.12246423186 2.037351524953966e6 0.0
2.037351524953966e6 52627.272054649264 0.0
0.0 0.0 0.0

-70238.86874510118 -105314.84384519928 0.0
-105314.84384519928 58958.807150012246 0.0
0.0 0.0 0.0

-50094.1544770356 176092.0849762484 0.0
176092.0849762484 149246.09143181655 0.0
0.0 0.0 0.0

1.3292052410884346e6 588466.8688209872 0.0
588466.8688209872 -1.7642732496300172e6 0.0
0.0 0.0 0.0

1.0395989007194944e6 762982.2646252137 0.0
762982.2646252137 -1.530838140328972e6 0.0
0.0 0.0 0.0

-815136.130217846 2.3183734656433696e6 0.0
2.3183734656433696e6 174338.9884830045 0.0
0.0 0.0 0.0

-160315.65825977636 1.523572674862228e6 0.0
1.523572674862228e6 1.278168877565972e6 0.0
0.0 0.0 0.0

168563.48465442949 3.697698730786818e6 0.0
3.697698730786818e6 591446.0044893492 0.0
0.0 0.0 0.0

126225.3482292276 46991.74216632809 0.0
46991.74216632809 -102866.19994153711 0.0
0.0 0.0 0.0

566705.3555689163 968492.4484409473 0.0
968492.4484409473 -1.051711113992379e6 0.0
0.0 0.0 0.0

289653.566340851 1.1540832250527416e6 0.0
1.1540832250527416e6 -843785.1104711059 0.0
0.0 0.0 0.0

-340538.68857526034 1.7867504524313821e6 0.0
1.7867504524313821e6 1.687563841704643e6 0.0
0.0 0.0 0.0

-289391.54600709805 1.2970760418651176e6 0.0
1.2970760418651176e6 300951.6091908355 0.0
0.0 0.0 0.0

-307077.8386735479 464112.15666439774 0.0
464112.15666439774 153582.36027500685 0.0
0.0 0.0 0.0

-827135.6672545141 902936.5488600439 0.0
902936.5488600439 622200.1826676129 0.0
0.0 0.0 0.0

-6563.087798476947 1.1933814286488036e6 0.0
1.1933814286488036e6 -641671.8912485652 0.0
0.0 0.0 0.0

-197329.71631999244 1.6488729639593402e6 0.0
1.6488729639593402e6 -358520.30840730784 0.0
0.0 0.0 0.0

-183574.32051583464 2.0404693035413185e6 0.0
2.0404693035413185e6 -558604.5061690172 0.0
0.0 0.0 0.0

86764.89867549627 4.899586105826648e6 0.0
4.899586105826648e6 220279.50747796096 0.0
0.0 0.0 0.0

-85672.43174566381 -148006.9918934125 0.0
-148006.9918934125 3668.4640575901212 0.0
0.0 0.0 0.0

-313198.49092498387 1.9727929309046767e6 0.0
1.9727929309046767e6 -228982.8324814494 0.0
0.0 0.0 0.0

-1.2643068358709018e6 4.703976652517005e6 0.0
4.703976652517005e6 438571.0763134327 0.0
0.0 0.0 0.0

-293321.31617253216 1.482606824716535e6 0.0
1.482606824716535e6 201934.6036242682 0.0
0.0 0.0 0.0

1.1354185799420318e6 517966.2399830362 0.0
517966.2399830362 -1.3456210034398627e6 0.0
0.0 0.0 0.0

-333948.0527765543 1.6770331107265423e6 0.0
1.6770331107265423e6 -7603.1477282603155 0.0
0.0 0.0 0.0

-278139.0543520912 1.8254063263555716e6 0.0
1.8254063263555716e6 -2824.562690911509 0.0
0.0 0.0 0.0

-762254.6139025305 6.825413105662742e6 0.0
6.825413105662742e6 -268095.0330323002 0.0
0.0 0.0 0.0

-1.9858566991654793e6 -221177.94228969433 0.0
-221177.94228969433 2.0093864193357194e6 0.0
0.0 0.0 0.0

-230715.3173940277 2.197570752851333e6 0.0
2.197570752851333e6 -148121.87165109813 0.0
0.0 0.0 0.0

-83388.85674874083 1.4816992526939951e6 0.0
1.4816992526939951e6 -398250.3840510884 0.0
0.0 0.0 0.0

-224045.4271003901 2.8094525576773817e6 0.0
2.8094525576773817e6 -24447.12572452717 0.0
0.0 0.0 0.0

-187324.89588787564 -132980.86703403934 0.0
-132980.86703403934 -280705.7430732754 0.0
0.0 0.0 0.0

-321567.8046110364 2.892443799629815e6 0.0
2.892443799629815e6 3383.6246804949915 0.0
0.0 0.0 0.0

140080.51647236967 1.3032817068922191e6 0.0
1.3032817068922191e6 -785702.5215389786 0.0
0.0 0.0 0.0

1.3847491180975852e6 613615.0049734554 0.0
613615.0049734554 -1.809091784885622e6 0.0
0.0 0.0 0.0

-327512.0799617254 1.2874151333996006e6 0.0
1.2874151333996006e6 159175.51493017355 0.0
0.0 0.0 0.0

801973.8974817088 687773.0317350324 0.0
687773.0317350324 -1.372480318644357e6 0.0
0.0 0.0 0.0

1.3107657867043056e6 651915.34829423 0.0
651915.34829423 -1.7216327718318533e6 0.0
0.0 0.0 0.0

-149873.2016276273 2.120769818808122e6 0.0
2.120769818808122e6 86560.33572869588 0.0
0.0 0.0 0.0

-180290.48830451022 2.0406564462991457e6 0.0
2.0406564462991457e6 52584.96586472041 0.0
0.0 0.0 0.0

368788.67527566303 8902.631413499079 0.0
8902.631413499079 -336157.9391757613 0.0
0.0 0.0 0.0

-1.0253353980326373e6 2.358574310283597e6 0.0
2.358574310283597e6 244958.75271908642 0.0
0.0 0.0 0.0

-124442.55186548826 2.7009016295042583e6 0.0
2.7009016295042583e6 89818.73130706453 0.0
0.0 0.0 0.0

-63441.20101036737 744088.7947435149 0.0
744088.7947435149 -418320.9004304747 0.0
0.0 0.0 0.0

-9916.343570337387 -130189.99062872685 0.0
-130189.99062872685 22292.77942874431 0.0
0.0 0.0 0.0

-138186.3952921455 2.0605161261308254e6 0.0
2.0605161261308254e6 -426336.53928817064 0.0
0.0 0.0 0.0

-962234.5746671102 4.175289372236251e6 0.0
4.175289372236251e6 498096.94543071353 0.0
0.0 0.0 0.0

604093.1290491214 -60487.651662817814 0.0
-60487.651662817814 -792478.5204016657 0.0
0.0 0.0 0.0

1.0043045981451855e6 791123.1607692628 0.0
791123.1607692628 -1.627716696800687e6 0.0
0.0 0.0 0.0

-235451.80628289562 2.305415503101732e6 0.0
2.305415503101732e6 -300904.6188913973 0.0
0.0 0.0 0.0

-351038.19947648735 2.4566336815092354e6 0.0
2.4566336815092354e6 731540.9167330147 0.0
0.0 0.0 0.0

383167.0456109225 4.238538048476103e6 0.0
4.238538048476103e6 -690.6198108902026 0.0
0.0 0.0 0.0

643483.3306556427 418446.5265729631 0.0
418446.5265729631 -1.1494113895994083e6 0.0
0.0 0.0 0.0

264795.3424194318 1.1447001650483883e6 0.0
1.1447001650483883e6 -817496.1477385969 0.0
0.0 0.0 0.0

732318.1767242491 489029.45940295083 0.0
489029.45940295083 -1.071835902447755e6 0.0
0.0 0.0 0.0

1.1923246314836e6 511123.206408573 0.0
511123.206408573 -1.4778807805599552e6 0.0
0.0 0.0 0.0

1.0830339322676323e6 3.284657378668035e6 0.0
3.284657378668035e6 -647220.6200897389 0.0
0.0 0.0 0.0

-1.4821674548697653e6 1.8713800570308291e6 0.0
1.8713800570308291e6 518909.29158313153 0.0
0.0 0.0 0.0

271788.1552046991 1.153468675361074e6 0.0
1.153468675361074e6 -793531.3787759083 0.0
0.0 0.0 0.0

-389207.55259324965 1.6398782720447418e6 0.0
1.6398782720447418e6 -129919.56265937467 0.0
0.0 0.0 0.0

1.4151071464838395e6 587903.7013961191 0.0
587903.7013961191 -1.7418598601358025e6 0.0
0.0 0.0 0.0

-306984.7300677005 1.8400182581226677e6 0.0
1.8400182581226677e6 -2094.06004293132 0.0
0.0 0.0 0.0

-359074.89725457015 5.149411326183265e6 0.0
5.149411326183265e6 318413.0570230294 0.0
0.0 0.0 0.0

-737856.9580702283 27487.26003722284 0.0
27487.26003722284 748263.140158288 0.0
0.0 0.0 0.0

-1.183851510682392e6 6.43968975931754e6 0.0
6.43968975931754e6 47477.33092756581 0.0
0.0 0.0 0.0

-39901.88723698556 2.231057779078555e6 0.0
2.231057779078555e6 -321627.0853874978 0.0
0.0 0.0 0.0

1.4306980118323793e6 596759.5023184271 0.0
596759.5023184271 -1.7699553884744535e6 0.0
0.0 0.0 0.0

270732.7665307499 4.0849386238651616e6 0.0
4.0849386238651616e6 270442.83275159326 0.0
0.0 0.0 0.0

-230791.81364711147 1.9775726398137736e6 0.0
1.9775726398137736e6 100244.33874172736 0.0
0.0 0.0 0.0

1.151471879929995e6 622742.2108699575 0.0
622742.2108699575 -1.5915207263642636e6 0.0
0.0 0.0 0.0

-496465.2444801927 3.798705315623475e6 0.0
3.798705315623475e6 659269.0687746105 0.0
0.0 0.0 0.0

-301451.53939597576 2.162598502690994e6 0.0
2.162598502690994e6 -198785.8463284204 0.0
0.0 0.0 0.0

-139707.06866759752 1.9406907903746786e6 0.0
1.9406907903746786e6 -40012.36122453371 0.0
0.0 0.0 0.0

-135954.13291088172 1.6819299476256266e6 0.0
1.6819299476256266e6 -305946.5123806717 0.0
0.0 0.0 0.0

-310351.97146867414 2.564727150714052e6 0.0
2.564727150714052e6 639438.7400854657 0.0
0.0 0.0 0.0

1.0572244490292436e6 892484.8461237176 0.0
892484.8461237176 -1.7054075401943722e6 0.0
0.0 0.0 0.0

-234642.34189238644 1.7907126749230851e6 0.0
1.7907126749230851e6 128008.11019308057 0.0
0.0 0.0 0.0

-250904.60222956148 -148522.02752673236 0.0
-148522.02752673236 146268.24680318916 0.0
0.0 0.0 0.0

-127977.14256395165 310390.06482745364 0.0
310390.06482745364 189284.62279690435 0.0
0.0 0.0 0.0

1.0324099087360939e6 502816.49652278464 0.0
502816.49652278464 -1.3000156117338953e6 0.0
0.0 0.0 0.0

-341505.62407135963 -255322.68217310257 0.0
-255322.68217310257 440746.50842378044 0.0
0.0 0.0 0.0

-43885.52608013147 2.0117229982169478e6 0.0
2.0117229982169478e6 -615699.138916913 0.0
0.0 0.0 0.0

-587044.9225910895 -546787.9164272718 0.0
-546787.9164272718 874126.884945276 0.0
0.0 0.0 0.0

-48960.37083577363 1.6301077472118088e6 0.0
1.6301077472118088e6 -421179.35576994816 0.0
0.0 0.0 0.0

-818694.3855079045 1.862397122186141e6 0.0
1.862397122186141e6 188546.76722471445 0.0
0.0 0.0 0.0

-418910.49272339855 -213087.3126194002 0.0
-213087.3126194002 379239.598292148 0.0
0.0 0.0 0.0

-159995.72055447838 2.2845399544393835e6 0.0
2.2845399544393835e6 -163490.303718274 0.0
0.0 0.0 0.0

-200607.74831020198 3.1011130350789884e6 0.0
3.1011130350789884e6 70624.86470426191 0.0
0.0 0.0 0.0

-776453.5549681663 2.3112774939160747e6 0.0
2.3112774939160747e6 141948.33661033114 0.0
0.0 0.0 0.0

-224427.58622529721 2.4281605467835567e6 0.0
2.4281605467835567e6 -87697.92285395341 0.0
0.0 0.0 0.0

-844491.9023899469 2.0691634948647243e6 0.0
2.0691634948647243e6 156933.4160218002 0.0
0.0 0.0 0.0

8653.025242104428 1.1576602020909155e6 0.0
1.1576602020909155e6 -684721.3087005899 0.0
0.0 0.0 0.0

-217291.28894090935 4.790379960476769e6 0.0
4.790379960476769e6 65066.98982545883 0.0
0.0 0.0 0.0

-137931.6681085738 1.4250865902811289e6 0.0
1.4250865902811289e6 -472196.9476907015 0.0
0.0 0.0 0.0

-455134.18661168683 1.2601954113149568e6 0.0
1.2601954113149568e6 938301.0409542418 0.0
0.0 0.0 0.0

-507186.947824253 2.1607332976191076e6 0.0
2.1607332976191076e6 404037.0872411692 0.0
0.0 0.0 0.0

158408.9761459424 982236.3168831371 0.0
982236.3168831371 -847912.688116389 0.0
0.0 0.0 0.0

43292.00236991697 632570.1081725527 0.0
632570.1081725527 -506405.8304365674 0.0
0.0 0.0 0.0

-1.118034210053944e6 2.3160520628482266e6 0.0
2.3160520628482266e6 274978.4894191096 0.0
0.0 0.0 0.0

-260275.88377438078 819921.7228755016 0.0
819921.7228755016 87830.53058842276 0.0
0.0 0.0 0.0

-1.0269198280328533e6 4.865272350390384e6 0.0
4.865272350390384e6 512755.92044428526 0.0
0.0 0.0 0.0

-96601.39548881218 1.9256857272143294e6 0.0
1.9256857272143294e6 -684109.8632548358 0.0
0.0 0.0 0.0

-685575.8198188208 1.2714136761767517e6 0.0
1.2714136761767517e6 -86721.5580201647 0.0
0.0 0.0 0.0

1.3123488579406913e6 661025.7274350428 0.0
661025.7274350428 -1.7517113173476935e6 0.0
0.0 0.0 0.0

-276794.5324562056 5.794976090649884e6 0.0
5.794976090649884e6 294194.04674256005 0.0
0.0 0.0 0.0

-966528.1359970504 1.2721631361115691e6 0.0
1.2721631361115691e6 455725.191445797 0.0
0.0 0.0 0.0

176067.0359645394 2.0234571490094548e6 0.0
2.0234571490094548e6 -3793.952796734149 0.0
0.0 0.0 0.0

-2.1982919174087206e6 946479.1414745763 0.0
946479.1414745763 1.137766958859622e6 0.0
0.0 0.0 0.0

1.445114814775421e6 601176.4032713441 0.0
601176.4032713441 -1.8673865109774312e6 0.0
0.0 0.0 0.0

-202163.09865963348 811221.6765734658 0.0
811221.6765734658 284274.0070194744 0.0
0.0 0.0 0.0

597901.3513232903 -11023.924202043916 0.0
-11023.924202043916 -776523.6766960791 0.0
0.0 0.0 0.0

1.1143467994201195e6 457963.73928598943 0.0
457963.73928598943 -1.3533343967918316e6 0.0
0.0 0.0 0.0

-277721.508103652 2.09862594937257e6 0.0
2.09862594937257e6 -218464.3721389256 0.0
0.0 0.0 0.0

-1.6134445257592532e6 1.8539762127237495e6 0.0
1.8539762127237495e6 608577.4938115164 0.0
0.0 0.0 0.0

-717423.5756449315 225628.6465118146 0.0
225628.6465118146 812334.02291373 0.0
0.0 0.0 0.0

-1.2744591710820803e6 910042.6597435928 0.0
910042.6597435928 308404.8573666142 0.0
0.0 0.0 0.0

-169848.7849640929 4.254269235096834e6 0.0
4.254269235096834e6 136943.77026078105 0.0
0.0 0.0 0.0

349320.1775878079 1.905724146714327e6 0.0
1.905724146714327e6 -1.5845128575648894e6 0.0
0.0 0.0 0.0

-192197.16435109917 1.7532221238059625e6 0.0
1.7532221238059625e6 -345974.76218426885 0.0
0.0 0.0 0.0

-453892.1512659791 1.3840173047432576e6 0.0
1.3840173047432576e6 1.2424047917516304e6 0.0
0.0 0.0 0.0

-377614.74639262946 2.9101661040437585e6 0.0
2.9101661040437585e6 304462.1364449099 0.0
0.0 0.0 0.0

-1.130612809802445e6 3.16820740433269e6 0.0
3.16820740433269e6 325722.4006269417 0.0
0.0 0.0 0.0

114529.7598576078 1.8279489082131165e6 0.0
1.8279489082131165e6 -490854.5517590701 0.0
0.0 0.0 0.0

-1.0814035250890572e6 4.753734798807756e6 0.0
4.753734798807756e6 498195.4655522021 0.0
0.0 0.0 0.0

740229.0084065218 -43445.97722848923 0.0
-43445.97722848923 -767102.4839936821 0.0
0.0 0.0 0.0

366444.2597864997 5.350339455230304e6 0.0
5.350339455230304e6 -284436.5637301983 0.0
0.0 0.0 0.0

-516837.10429640557 3.9835397643305375e6 0.0
3.9835397643305375e6 593479.0139396514 0.0
0.0 0.0 0.0

-18099.052393726015 1.5635605683044805e6 0.0
1.5635605683044805e6 -556041.4768095757 0.0
0.0 0.0 0.0

-318814.20629800664 1.6552814088725748e6 0.0
1.6552814088725748e6 -4548.814758778186 0.0
0.0 0.0 0.0

-730581.2858067544 1.115197300573291e6 0.0
1.115197300573291e6 730950.4627282382 0.0
0.0 0.0 0.0

-500672.77291318984 3.943930342054605e6 0.0
3.943930342054605e6 644121.6387888131 0.0
0.0 0.0 0.0

931685.0982527788 661600.7199759155 0.0
661600.7199759155 -1.323827181622737e6 0.0
0.0 0.0 0.0

-434794.1466647563 1.280673165807239e6 0.0
1.280673165807239e6 -5927.791180820233 0.0
0.0 0.0 0.0

-209884.2760236752 2.0085059070574234e6 0.0
2.0085059070574234e6 -91897.26553727462 0.0
0.0 0.0 0.0

-438512.1463040363 1.1098166608972037e6 0.0
1.1098166608972037e6 -63689.873749873645 0.0
0.0 0.0 0.0

-289089.4087479394 1.6759683570550762e6 0.0
1.6759683570550762e6 169128.17388117252 0.0
0.0 0.0 0.0

-1.474201135018167e6 -180847.47800088555 0.0
-180847.47800088555 1.9809555016382178e6 0.0
0.0 0.0 0.0

-80350.97312161312 2.1352116965015884e6 0.0
2.1352116965015884e6 -12231.213166985803 0.0
0.0 0.0 0.0

-322095.36429487617 1.778255436640345e6 0.0
1.778255436640345e6 219353.6209694309 0.0
0.0 0.0 0.0

115695.19936174998 4.386297873373081e6 0.0
4.386297873373081e6 266422.8233914767 0.0
0.0 0.0 0.0

198671.5573732042 1.4744688119326613e6 0.0
1.4744688119326613e6 -854091.3971197013 0.0
0.0 0.0 0.0

1.1529126854222927e6 598265.3858768148 0.0
598265.3858768148 -1.577356400024107e6 0.0
0.0 0.0 0.0

-124629.25664573934 3.0588722821692196e6 0.0
3.0588722821692196e6 145825.07089986018 0.0
0.0 0.0 0.0

-555783.5157990286 768106.8269214067 0.0
768106.8269214067 850876.781238067 0.0
0.0 0.0 0.0

-1.0127978118263014e6 2.678799640854999e6 0.0
2.678799640854999e6 254207.03974979318 0.0
0.0 0.0 0.0

-743230.1266302807 3.639547806848733e6 0.0
3.639547806848733e6 507232.4833967637 0.0
0.0 0.0 0.0

-550861.5584558082 3.2417471334164008e6 0.0
3.2417471334164008e6 501957.08233807236 0.0
0.0 0.0 0.0

-37236.11285467814 2.10048992476221e6 0.0
2.10048992476221e6 -363705.41880790185 0.0
0.0 0.0 0.0

-129459.66074454828 1.395332159356974e6 0.0
1.395332159356974e6 366670.26117749646 0.0
0.0 0.0 0.0

-60622.73759920716 4.295736867143705e6 0.0
4.295736867143705e6 -118372.13767410241 0.0
0.0 0.0 0.0

-3450.242546825495 1.8456873608430414e6 0.0
1.8456873608430414e6 -520938.14861493156 0.0
0.0 0.0 0.0

-1.0635103456138077e6 1.9536630260186372e6 0.0
1.9536630260186372e6 182787.14888238104 0.0
0.0 0.0 0.0

-1.6150463929483858e6 600137.5962489209 0.0
600137.5962489209 1.2831271826319708e6 0.0
0.0 0.0 0.0

1.006751566342721e6 424495.0456005035 0.0
424495.0456005035 -1.3102582786419182e6 0.0
0.0 0.0 0.0

20381.428176785455 2.290714843171638e6 0.0
2.290714843171638e6 -314955.6069921744 0.0
0.0 0.0 0.0

-38651.5437310588 1.1309047111265494e6 0.0
1.1309047111265494e6 -674944.3444178472 0.0
0.0 0.0 0.0

-111180.99339097395 1.6491586195111778e6 0.0
1.6491586195111778e6 -551096.6234474465 0.0
0.0 0.0 0.0

64068.31837470949 -83360.7886455429 0.0
-83360.7886455429 -245860.50633804913 0.0
0.0 0.0 0.0

-163367.06241725638 1.9267106844377574e6 0.0
1.9267106844377574e6 -672148.9462554699 0.0
0.0 0.0 0.0

375327.4961442209 1.8319549919058855e6 0.0
1.8319549919058855e6 -664299.7853014064 0.0
0.0 0.0 0.0

-132677.7190843319 1.7807557576808666e6 0.0
1.7807557576808666e6 -759258.3516026388 0.0
0.0 0.0 0.0

-267873.7135278895 2.326380395906971e6 0.0
2.326380395906971e6 -174283.50612316886 0.0
0.0 0.0 0.0

-324526.2414228486 3.491670998808138e6 0.0
3.491670998808138e6 277740.06135612226 0.0
0.0 0.0 0.0

-1.146503630601714e6 203467.55350149295 0.0
203467.55350149295 1.7158471549193277e6 0.0
0.0 0.0 0.0

-156408.08866142566 2.3231513873629537e6 0.0
2.3231513873629537e6 -14883.69775715263 0.0
0.0 0.0 0.0

-51826.767356854514 1.9427871835620685e6 0.0
1.9427871835620685e6 -489756.2294027184 0.0
0.0 0.0 0.0

-241370.93538806742 2.1047217344757416e6 0.0
2.1047217344757416e6 96665.91713118878 0.0
0.0 0.0 0.0

154065.74910491693 3.9397537345442087e6 0.0
3.9397537345442087e6 591933.2418031441 0.0
0.0 0.0 0.0

-242365.14496355492 1.6842130787777978e6 0.0
1.6842130787777978e6 162878.80824266688 0.0
0.0 0.0 0.0

-203548.25811540696 2.1227062226758236e6 0.0
2.1227062226758236e6 -174682.08818258374 0.0
0.0 0.0 0.0

-1.1277359558316441e6 4.064013051408916e6 0.0
4.064013051408916e6 426023.0013268567 0.0
0.0 0.0 0.0

-338980.179933314 1.2156805702309203e6 0.0
1.2156805702309203e6 79519.60008019782 0.0
0.0 0.0 0.0

-3.999729165247013e6 -612080.0254024989 0.0
-612080.0254024989 5.713451882543107e6 0.0
0.0 0.0 0.0

-325780.34529984056 2.430550284006766e6 0.0
2.430550284006766e6 -173892.6865570457 0.0
0.0 0.0 0.0

-964812.0474329597 2.139441147720244e6 0.0
2.139441147720244e6 233915.36860088195 0.0
0.0 0.0 0.0

-266871.5282362412 -513884.79914652254 0.0
-513884.79914652254 430451.16573024105 0.0
0.0 0.0 0.0

-137645.18162133184 411235.1067672621 0.0
411235.1067672621 256404.64686244552 0.0
0.0 0.0 0.0

-169246.8814595387 2.032213257545735e6 0.0
2.032213257545735e6 80694.86533049535 0.0
0.0 0.0 0.0

1.241898999578122e6 520108.77317296667 0.0
520108.77317296667 -1.5313424995959704e6 0.0
0.0 0.0 0.0

-1.3326765181965416e6 2.294698984461798e6 0.0
2.294698984461798e6 291599.12107527384 0.0
0.0 0.0 0.0

-84104.79879010338 1.9840806664033707e6 0.0
1.9840806664033707e6 -450939.8759166569 0.0
0.0 0.0 0.0

-210731.90339758826 744071.4007307355 0.0
744071.4007307355 256234.4029894614 0.0
0.0 0.0 0.0

1.1377546419995406e6 840999.3163300469 0.0
840999.3163300469 -1.557729172832251e6 0.0
0.0 0.0 0.0

-891390.6740556798 1.9545046015847418e6 0.0
1.9545046015847418e6 217886.88639001746 0.0
0.0 0.0 0.0

6556.7717553630355 1.4027640714142106e6 0.0
1.4027640714142106e6 -710570.1987953106 0.0
0.0 0.0 0.0

123656.46102210233 305891.4051903538 0.0
305891.4051903538 -407618.8977497267 0.0
0.0 0.0 0.0

-122966.2670834224 2.3339649027968147e6 0.0
2.3339649027968147e6 114933.9778726574 0.0
0.0 0.0 0.0

-1.1934276047811443e6 1.3650976723564474e6 0.0
1.3650976723564474e6 307713.9946473943 0.0
0.0 0.0 0.0

54428.40730296544 1.469610353924072e6 0.0
1.469610353924072e6 -485573.7218759665 0.0
0.0 0.0 0.0

-1.305707555541326e6 1.9351735982874553e6 0.0
1.9351735982874553e6 427922.6004440428 0.0
0.0 0.0 0.0

130357.6126996258 59885.94274321566 0.0
59885.94274321566 -93062.28441784071 0.0
0.0 0.0 0.0

1.0199959458958972e6 1.1660315217684899e6 0.0
1.1660315217684899e6 -1.3540406781147346e6 0.0
0.0 0.0 0.0

1.3242137706813724e6 5.203953359270741e6 0.0
5.203953359270741e6 -591552.2523976951 0.0
0.0 0.0 0.0

-1.0793074003903517e6 2.705513067992053e6 0.0
2.705513067992053e6 274805.48814149934 0.0
0.0 0.0 0.0

-471397.0995591682 1.7009104875459133e6 0.0
1.7009104875459133e6 99418.59646295168 0.0
0.0 0.0 0.0

-624219.6396448533 1.5935272624016285e6 0.0
1.5935272624016285e6 118490.7518248428 0.0
0.0 0.0 0.0

-132530.6835993179 1.8471411193779851e6 0.0
1.8471411193779851e6 2.3720142690073247e6 0.0
0.0 0.0 0.0

1.3256314994858182e6 549458.3398622532 0.0
549458.3398622532 -1.6923832790503774e6 0.0
0.0 0.0 0.0

-465080.9604079576 3.170166179922426e6 0.0
3.170166179922426e6 194749.4493831711 0.0
0.0 0.0 0.0

-468500.59621589724 5.132485273283278e6 0.0
5.132485273283278e6 315435.43780595734 0.0
0.0 0.0 0.0

677403.2751404345 844306.4334875123 0.0
844306.4334875123 -1.340507424816839e6 0.0
0.0 0.0 0.0

-1.109858992616913e6 281471.23960697744 0.0
281471.23960697744 1.0318083808136672e6 0.0
0.0 0.0 0.0

-260489.54870642515 1.9522447409185427e6 0.0
1.9522447409185427e6 -76027.77778877616 0.0
0.0 0.0 0.0

29936.77506166682 1.2343916558753392e6 0.0
1.2343916558753392e6 -413651.9805696859 0.0
0.0 0.0 0.0

-51682.65582661683 1.8445955086820074e6 0.0
1.8445955086820074e6 -505756.4852346642 0.0
0.0 0.0 0.0

-154771.524826876 1.5228712898538623e6 0.0
1.5228712898538623e6 1.3120063641247863e6 0.0
0.0 0.0 0.0

-291192.25970609044 5.225590183644472e6 0.0
5.225590183644472e6 277713.69135885406 0.0
0.0 0.0 0.0

-729801.5196894594 -217422.6088590627 0.0
-217422.6088590627 998016.7635639929 0.0
0.0 0.0 0.0

289006.9042695224 6.835374637650587e6 0.0
6.835374637650587e6 -40512.70769381542 0.0
0.0 0.0 0.0

-478198.3840811574 5.2961017452280475e6 0.0
5.2961017452280475e6 171968.74506104412 0.0
0.0 0.0 0.0

978097.8276433559 423041.0595534401 0.0
423041.0595534401 -1.1568308102347841e6 0.0
0.0 0.0 0.0

-798393.619929711 1.9786587950577214e6 0.0
1.9786587950577214e6 173704.87507420918 0.0
0.0 0.0 0.0

1.0559382265095313e6 3.3066046447052704e6 0.0
3.3066046447052704e6 -671536.6131999469 0.0
0.0 0.0 0.0

-3.168373289476904e6 -466961.070485604 0.0
-466961.070485604 3.749038437502954e6 0.0
0.0 0.0 0.0

-349597.149355037 2.5097608570252224e6 0.0
2.5097608570252224e6 -86653.53385700028 0.0
0.0 0.0 0.0

-239002.5412847659 3.666912520766867e6 0.0
3.666912520766867e6 485243.6350725083 0.0
0.0 0.0 0.0

-166448.85538153537 2.1909186692467066e6 0.0
2.1909186692467066e6 -195614.0109163419 0.0
0.0 0.0 0.0

1.3359080802243026e6 595998.2970817966 0.0
595998.2970817966 -1.6979669454194065e6 0.0
0.0 0.0 0.0

-1.0839712390799043e6 3.665567687894774e6 0.0
3.665567687894774e6 357751.5715911463 0.0
0.0 0.0 0.0

-45862.324867175455 1.1040062972490215e6 0.0
1.1040062972490215e6 -618197.8480638501 0.0
0.0 0.0 0.0

-595385.5217127344 4.405920247673057e6 0.0
4.405920247673057e6 512808.02409904863 0.0
0.0 0.0 0.0

-2.990170863060495e6 -198678.40185728317 0.0
-198678.40185728317 3.956576862257138e6 0.0
0.0 0.0 0.0

-166462.18674314528 1.5236658637617044e6 0.0
1.5236658637617044e6 -373062.6954209305 0.0
0.0 0.0 0.0

291469.5478726084 865707.6443187419 0.0
865707.6443187419 -1.0744951732258354e6 0.0
0.0 0.0 0.0

-318428.7762926127 3.0488772374250023e6 0.0
3.0488772374250023e6 132064.434435898 0.0
0.0 0.0 0.0

-56514.814319692305 1.2054716527502602e6 0.0
1.2054716527502602e6 -458674.6589824188 0.0
0.0 0.0 0.0

-1.268312028662692e6 -279620.0957633802 0.0
-279620.0957633802 1.6539099904545494e6 0.0
0.0 0.0 0.0

-354421.86879496544 1.4858657883242965e6 0.0
1.4858657883242965e6 1.472924502743827e6 0.0
0.0 0.0 0.0

776554.851773283 828844.1036677823 0.0
828844.1036677823 -1.320231622366453e6 0.0
0.0 0.0 0.0

-443366.32314010424 4.342380542869463e6 0.0
4.342380542869463e6 585738.0998051183 0.0
0.0 0.0 0.0

-393074.39833289443 1.9946673151440774e6 0.0
1.9946673151440774e6 613110.9234901911 0.0
0.0 0.0 0.0

542738.8574752957 693252.5866826337 0.0
693252.5866826337 -1.0476349809358986e6 0.0
0.0 0.0 0.0

485743.6938646849 4.398183792544059e6 0.0
4.398183792544059e6 -216285.57748011322 0.0
0.0 0.0 0.0

-493097.7927560906 4.267318269119511e6 0.0
4.267318269119511e6 606355.9052036245 0.0
0.0 0.0 0.0

50370.54305300487 -88879.6809653752 0.0
-88879.6809653752 -136045.21258239413 0.0
0.0 0.0 0.0

-1.3432360581204402e6 -258493.64421929396 0.0
-258493.64421929396 1.4135500510217142e6 0.0
0.0 0.0 0.0

1.4469233538825016e6 552906.6589760501 0.0
552906.6589760501 -1.7689101420903243e6 0.0
0.0 0.0 0.0

-515797.8197350894 1.5527121158984008e6 0.0
1.5527121158984008e6 84972.53178194951 0.0
0.0 0.0 0.0

-66435.28241444688 2.166128928153441e6 0.0
2.166128928153441e6 -298716.6885010595 0.0
0.0 0.0 0.0

-386732.93391652434 2.8048438284054976e6 0.0
2.8048438284054976e6 76784.16586232037 0.0
0.0 0.0 0.0

279474.04904379044 -36078.09599306354 0.0
-36078.09599306354 -145142.41448592616 0.0
0.0 0.0 0.0

-561735.1258693058 3.5200904795946237e6 0.0
3.5200904795946237e6 579945.6422156729 0.0
0.0 0.0 0.0

-1.458326988621443e6 -338578.61501077324 0.0
-338578.61501077324 1.6076898719300767e6 0.0
0.0 0.0 0.0

-234124.1056965863 2.845803409872935e6 0.0
2.845803409872935e6 228939.89348115324 0.0
0.0 0.0 0.0

614160.2951756868 988708.7327311587 0.0
988708.7327311587 -1.2009373776949337e6 0.0
0.0 0.0 0.0

852767.5565681583 848977.3941582312 0.0
848977.3941582312 -1.40176474986846e6 0.0
0.0 0.0 0.0

-213382.3349283681 380715.0239771047 0.0
380715.0239771047 315524.4400881929 0.0
0.0 0.0 0.0

-369671.6944312974 1.3953003943241208e6 0.0
1.3953003943241208e6 -84791.00291710581 0.0
0.0 0.0 0.0

-246657.54445953344 -442180.2602912395 0.0
-442180.2602912395 235819.23084086686 0.0
0.0 0.0 0.0

-123688.81785199 1.5518708770560916e6 0.0
1.5518708770560916e6 -328740.26153297996 0.0
0.0 0.0 0.0

-524579.4722664938 1.5841149158004702e6 0.0
1.5841149158004702e6 162378.03823730382 0.0
0.0 0.0 0.0

-156318.3195977395 1.5783220511228917e6 0.0
1.5783220511228917e6 1.5823509329119278e6 0.0
0.0 0.0 0.0

-196620.7184069001 3.677468365275715e6 0.0
3.677468365275715e6 430463.57572700793 0.0
0.0 0.0 0.0

-3.3827701314977696e6 -1.1098790068718928e6 0.0
-1.1098790068718928e6 3.4038551484481776e6 0.0
0.0 0.0 0.0

-1.4337946851305664e6 -42816.12244200659 0.0
-42816.12244200659 1.9544703989345278e6 0.0
0.0 0.0 0.0

-12171.464023264307 402787.3589325133 0.0
402787.3589325133 -73334.01895884618 0.0
0.0 0.0 0.0

-59174.79824388483 1.0407913267709083e6 0.0
1.0407913267709083e6 -11394.619139448692 0.0
0.0 0.0 0.0

364178.2765154242 -95538.19052996351 0.0
-95538.19052996351 -570126.6046655186 0.0
0.0 0.0 0.0

-602468.6782258629 1.62189803064416e6 0.0
1.62189803064416e6 192694.21069597558 0.0
0.0 0.0 0.0

1.2755755988102653e6 592710.8314840826 0.0
592710.8314840826 -1.6191826232930615e6 0.0
0.0 0.0 0.0

262070.19143621007 1.3250365119964045e6 0.0
1.3250365119964045e6 -772734.5968179875 0.0
0.0 0.0 0.0

124894.56059731919 2.0226386070041612e6 0.0
2.0226386070041612e6 -408612.25677284045 0.0
0.0 0.0 0.0

-426262.0612657154 4.991815935053417e6 0.0
4.991815935053417e6 57369.033187366 0.0
0.0 0.0 0.0

-223925.59980507588 2.354250116871424e6 0.0
2.354250116871424e6 -130624.83109947041 0.0
0.0 0.0 0.0

-575895.4244433846 1.4351742018706282e6 0.0
1.4351742018706282e6 26551.578553666943 0.0
0.0 0.0 0.0

-1.0161450756637625e6 3.6645466117088813e6 0.0
3.6645466117088813e6 363581.2168040285 0.0
0.0 0.0 0.0

-65164.97023542889 404932.94514191966 0.0
404932.94514191966 -241734.81167682994 0.0
0.0 0.0 0.0

-1.572791770493532e6 1.9360315746727642e6 0.0
1.9360315746727642e6 451066.71241821174 0.0
0.0 0.0 0.0

-450859.9322220163 1.5763082299625983e6 0.0
1.5763082299625983e6 -47772.459269701416 0.0
0.0 0.0 0.0

328953.15164819604 14549.476221070776 0.0
14549.476221070776 -467572.85944962874 0.0
0.0 0.0 0.0

-520554.8576953286 1.7701107256410925e6 0.0
1.7701107256410925e6 -89324.02998422769 0.0
0.0 0.0 0.0

-341305.6347064057 -219225.29597613966 0.0
-219225.29597613966 457028.92010825244 0.0
0.0 0.0 0.0

24791.440206266692 1.4534449609776835e6 0.0
1.4534449609776835e6 -365633.10590738576 0.0
0.0 0.0 0.0

472008.06559970696 1.0466047484207638e6 0.0
1.0466047484207638e6 -935983.9819791701 0.0
0.0 0.0 0.0

-359057.76066090306 2.0237606064180327e6 0.0
2.0237606064180327e6 -140639.43270425676 0.0
0.0 0.0 0.0

-274163.6521037261 1.5683623111935356e6 0.0
1.5683623111935356e6 942794.2020816866 0.0
0.0 0.0 0.0

-46382.314037145465 2.128119221260547e6 0.0
2.128119221260547e6 -412453.82570028584 0.0
0.0 0.0 0.0

71080.25156061628 547540.759800784 0.0
547540.759800784 -444617.7803980013 0.0
0.0 0.0 0.0

-810439.6933533596 4.109378352128185e6 0.0
4.109378352128185e6 512556.3557650503 0.0
0.0 0.0 0.0

-986990.7977983025 4.391126169600299e6 0.0
4.391126169600299e6 437824.98228564305 0.0
0.0 0.0 0.0

-291603.8351366617 3.1007841080280854e6 0.0
3.1007841080280854e6 69000.65483231202 0.0
0.0 0.0 0.0

225570.09667516212 85784.54997082482 0.0
85784.54997082482 -514051.0609557023 0.0
0.0 0.0 0.0

-53046.407015291596 1.265905044185426e6 0.0
1.265905044185426e6 -591711.0956088398 0.0
0.0 0.0 0.0

-966220.6807623067 1.8814752614370524e6 0.0
1.8814752614370524e6 239724.15587013122 0.0
0.0 0.0 0.0

-929251.4190826828 1.9214459161429834e6 0.0
1.9214459161429834e6 209554.8809479869 0.0
0.0 0.0 0.0

190251.24308483093 1.2597862076186647e6 0.0
1.2597862076186647e6 -817495.4447643177 0.0
0.0 0.0 0.0

-67535.85771100817 1.1812572143040642e6 0.0
1.1812572143040642e6 -480152.0759600255 0.0
0.0 0.0 0.0

58353.18274922679 2.2017743056766116e6 0.0
2.2017743056766116e6 -352002.3123372577 0.0
0.0 0.0 0.0

651962.1610478312 719763.7485104187 0.0
719763.7485104187 -1.2567008254573983e6 0.0
0.0 0.0 0.0

-531621.9259936856 84297.2991296137 0.0
84297.2991296137 840379.5910597055 0.0
0.0 0.0 0.0

868143.4318873165 1.5830325579638109e6 0.0
1.5830325579638109e6 -1.1031331623872016e6 0.0
0.0 0.0 0.0

-631746.5967786555 5.930873172374327e6 0.0
5.930873172374327e6 112461.6957733586 0.0
0.0 0.0 0.0

-22972.361066650017 1.325018142901298e6 0.0
1.325018142901298e6 577786.1172064026 0.0
0.0 0.0 0.0

-259577.5283851754 1.4304236863994803e6 0.0
1.4304236863994803e6 1.4565605759488444e6 0.0
0.0 0.0 0.0

-304219.2847420848 3.1447837809908106e6 0.0
3.1447837809908106e6 802820.9524723924 0.0
0.0 0.0 0.0

-29940.48204287095 1.4073965642629026e6 0.0
1.4073965642629026e6 -356267.1648542704 0.0
0.0 0.0 0.0

-808713.7884813881 4.0784042395367585e6 0.0
4.0784042395367585e6 529919.0888193103 0.0
0.0 0.0 0.0

-924512.1673387648 877098.1699451356 0.0
877098.1699451356 -245940.88221919147 0.0
0.0 0.0 0.0

-92332.22186481816 1.3901411624110707e6 0.0
1.3901411624110707e6 -378580.7643166078 0.0
0.0 0.0 0.0

-149991.77090100417 2.143917013843689e6 0.0
2.143917013843689e6 -111623.802960887 0.0
0.0 0.0 0.0

1.2498669919500002e6 539940.8895248672 0.0
539940.8895248672 -1.4835607774937e6 0.0
0.0 0.0 0.0

-671025.4787925115 1.4504638979522688e6 0.0
1.4504638979522688e6 180047.62662649405 0.0
0.0 0.0 0.0

-1.5939999129331987e6 1.726366675851512e6 0.0
1.726366675851512e6 738381.1110011707 0.0
0.0 0.0 0.0

173188.9184512152 1885.8597768670368 0.0
1885.8597768670368 -111839.27927132511 0.0
0.0 0.0 0.0

-382219.40370750683 4.75894179395449e6 0.0
4.75894179395449e6 287711.07461740216 0.0
0.0 0.0 0.0

-8.607626753474612e6 -1.12337575235759e6 0.0
-1.12337575235759e6 8.222002039950538e6 0.0
0.0 0.0 0.0

53275.34232663747 -89593.06006392391 0.0
-89593.06006392391 -156116.90492592452 0.0
0.0 0.0 0.0

5388.857448885217 1.9505452312420707e6 0.0
1.9505452312420707e6 -776287.7183792623 0.0
0.0 0.0 0.0

-126019.0894172359 1.786998120698904e6 0.0
1.786998120698904e6 -292007.17359489336 0.0
0.0 0.0 0.0

-1.2278920665292712e6 4.0535931490736837e6 0.0
4.0535931490736837e6 412569.8422320122 0.0
0.0 0.0 0.0

-458208.406326713 1.6696337976653709e6 0.0
1.6696337976653709e6 42266.19416427138 0.0
0.0 0.0 0.0

-132653.38782083296 1.5840089139706772e6 0.0
1.5840089139706772e6 234669.49925857558 0.0
0.0 0.0 0.0

-947157.9244582596 3.9863987382858726e6 0.0
3.9863987382858726e6 374711.9378987436 0.0
0.0 0.0 0.0

-1.0468608206450583e6 2.0049351051623349e6 0.0
2.0049351051623349e6 191198.9202911727 0.0
0.0 0.0 0.0

-981683.5942316464 4.209194290304291e6 0.0
4.209194290304291e6 431166.22221243364 0.0
0.0 0.0 0.0

615344.8499766841 1.4306580778505486e6 0.0
1.4306580778505486e6 -1.6904056234055131e6 0.0
0.0 0.0 0.0

-160759.23269185118 2.051259563495871e6 0.0
2.051259563495871e6 29752.502610250376 0.0
0.0 0.0 0.0

-2.0691949579987058e6 -531801.8098455443 0.0
-531801.8098455443 2.393459062481678e6 0.0
0.0 0.0 0.0

326272.59379627137 2.1184131814136673e6 0.0
2.1184131814136673e6 2.2639235592451035e6 0.0
0.0 0.0 0.0

-1.7822347484926486e6 -167756.60950396766 0.0
-167756.60950396766 1.0710279832905116e6 0.0
0.0 0.0 0.0

182085.39752561308 5.189503315706649e6 0.0
5.189503315706649e6 -656427.3458643022 0.0
0.0 0.0 0.0

142445.653561645 1.558242172011425e6 0.0
1.558242172011425e6 -809395.6286882362 0.0
0.0 0.0 0.0

-293901.14557423646 1.0060466090954663e6 0.0
1.0060466090954663e6 -129738.89943914505 0.0
0.0 0.0 0.0

1.0727590876632254e6 5.41860850665646e6 0.0
5.41860850665646e6 -411061.0635845174 0.0
0.0 0.0 0.0

244908.90453768795 1.5977609598890182e6 0.0
1.5977609598890182e6 -270436.848820958 0.0
0.0 0.0 0.0

-351127.1026402409 3.249346680388388e6 0.0
3.249346680388388e6 565150.7926352436 0.0
0.0 0.0 0.0

-1.0037764947094055e6 3.158064303029331e6 0.0
3.158064303029331e6 334150.50059280655 0.0
0.0 0.0 0.0

-453448.7374332028 1.6511645903724346e6 0.0
1.6511645903724346e6 115204.39168427931 0.0
0.0 0.0 0.0

-507903.0262919569 3.2454908121447936e6 0.0
3.2454908121447936e6 76926.99959837925 0.0
0.0 0.0 0.0

-598051.7831736314 1.2754320336902812e6 0.0
1.2754320336902812e6 -125083.54354287122 0.0
0.0 0.0 0.0

-14409.414256144199 1.1108554398104995e6 0.0
1.1108554398104995e6 -625785.110427903 0.0
0.0 0.0 0.0

-90462.6823283647 2.2812203681276445e6 0.0
2.2812203681276445e6 -142342.86306454634 0.0
0.0 0.0 0.0

-310940.36865410296 1.6515031409825715e6 0.0
1.6515031409825715e6 197990.7781779297 0.0
0.0 0.0 0.0

-6.305997025899177e6 -197671.8326075659 0.0
-197671.8326075659 9.385610191675667e6 0.0
0.0 0.0 0.0

-906223.6235409927 2.6730621229578396e6 0.0
2.6730621229578396e6 220793.8116856494 0.0
0.0 0.0 0.0

1.4483051207086532e6 553292.2372694481 0.0
553292.2372694481 -1.6972045039034183e6 0.0
0.0 0.0 0.0

-252416.09942128288 1.836129628679003e6 0.0
1.836129628679003e6 157146.09649851467 0.0
0.0 0.0 0.0

-198278.27365823212 1.4754392778232552e6 0.0
1.4754392778232552e6 204024.57450929744 0.0
0.0 0.0 0.0

-219824.7063746863 3.899496328504041e6 0.0
3.899496328504041e6 510690.7223363608 0.0
0.0 0.0 0.0

-545089.7226396631 3.5095758472697637e6 0.0
3.5095758472697637e6 581135.6303535218 0.0
0.0 0.0 0.0

-1.218598199438443e6 2.188452076644705e6 0.0
2.188452076644705e6 335274.890546372 0.0
0.0 0.0 0.0

-10363.317886209083 333699.79088749416 0.0
333699.79088749416 -85040.34588190919 0.0
0.0 0.0 0.0

-819571.3657049492 1.5821979298447035e6 0.0
1.5821979298447035e6 227760.01768907625 0.0
0.0 0.0 0.0

-896013.4648634957 1.9779530887740885e6 0.0
1.9779530887740885e6 210971.18342824618 0.0
0.0 0.0 0.0

-89153.1791092399 482674.4386810472 0.0
482674.4386810472 -107748.92538417617 0.0
0.0 0.0 0.0

-818.100355983639 5.387326395001985e6 0.0
5.387326395001985e6 -85097.92453816999 0.0
0.0 0.0 0.0

-259208.30776637766 2.372103389249524e6 0.0
2.372103389249524e6 -163131.10464285957 0.0
0.0 0.0 0.0

-965741.7574078734 2.696550141960381e6 0.0
2.696550141960381e6 276756.8826947057 0.0
0.0 0.0 0.0

-496976.7882590046 3.0664367008465943e6 0.0
3.0664367008465943e6 51383.75224213154 0.0
0.0 0.0 0.0

-42419.695627425484 2.348355099898119e6 0.0
2.348355099898119e6 -108464.9006352023 0.0
0.0 0.0 0.0

-373359.902485583 621817.5949666379 0.0
621817.5949666379 158037.08066052975 0.0
0.0 0.0 0.0

-269812.0189131603 1.4344569277988016e6 0.0
1.4344569277988016e6 294610.3041553157 0.0
0.0 0.0 0.0

-236359.0526787074 1.9230210866599274e6 0.0
1.9230210866599274e6 -278731.3297340172 0.0
0.0 0.0 0.0

-352633.9604973281 3.46137107049164e6 0.0
3.46137107049164e6 750928.5500657195 0.0
0.0 0.0 0.0

-205097.2795795045 1.8914220253105024e6 0.0
1.8914220253105024e6 -439418.26487863815 0.0
0.0 0.0 0.0

-509688.46468397736 1.2182217244782832e6 0.0
1.2182217244782832e6 778027.832066822 0.0
0.0 0.0 0.0

-1.0001717886855765e6 644040.3007931665 0.0
644040.3007931665 496097.85089381493 0.0
0.0 0.0 0.0

-205689.33367190888 2.1838336975409184e6 0.0
2.1838336975409184e6 -186942.81374500025 0.0
0.0 0.0 0.0

124961.31223397572 70235.9388145523 0.0
70235.9388145523 -113265.97078976907 0.0
0.0 0.0 0.0

198341.43427205546 1.8961424038620833e6 0.0
1.8961424038620833e6 -140135.7285475973 0.0
0.0 0.0 0.0

-495883.9366097229 5.441802640365839e6 0.0
5.441802640365839e6 73138.16033708287 0.0
0.0 0.0 0.0

-1.847989256736868e6 941297.4015371872 0.0
941297.4015371872 757501.829869998 0.0
0.0 0.0 0.0

-909044.2828874489 5.716899277026604e6 0.0
5.716899277026604e6 488791.53995541995 0.0
0.0 0.0 0.0

-439263.70692104567 1.6171613682866779e6 0.0
1.6171613682866779e6 -38234.84666354589 0.0
0.0 0.0 0.0

-1.085772818163863e6 5.094614361366209e6 0.0
5.094614361366209e6 476798.18831310107 0.0
0.0 0.0 0.0

178664.7952920429 4237.537161511203 0.0
4237.537161511203 -115530.87914360737 0.0
0.0 0.0 0.0

-192722.6347715624 3.9139925180303394e6 0.0
3.9139925180303394e6 483923.73049716576 0.0
0.0 0.0 0.0

-1.081103260754073e6 1.9134688129368185e6 0.0
1.9134688129368185e6 195332.63366134238 0.0
0.0 0.0 0.0

-243508.57308385862 2.0300434672997755e6 0.0
2.0300434672997755e6 -153628.98543637493 0.0
0.0 0.0 0.0

-49601.03037137541 1.5625355305361068e6 0.0
1.5625355305361068e6 -616370.866084069 0.0
0.0 0.0 0.0

-554438.0412057685 1.7074112428700165e6 0.0
1.7074112428700165e6 98883.27305678194 0.0
0.0 0.0 0.0

-148577.99059326696 1.488690593596216e6 0.0
1.488690593596216e6 323354.7235548416 0.0
0.0 0.0 0.0

-935550.9950502786 5.629418794264634e6 0.0
5.629418794264634e6 319958.8038808355 0.0
0.0 0.0 0.0

-876260.7347198675 1.4664361109887154e6 0.0
1.4664361109887154e6 286926.6226459146 0.0
0.0 0.0 0.0

-275670.17130699276 3.6663850618629423e6 0.0
3.6663850618629423e6 428889.91815687553 0.0
0.0 0.0 0.0

432370.8587430405 297840.4649346167 0.0
297840.4649346167 -958737.171406127 0.0
0.0 0.0 0.0

193430.54822294123 1.1980130246311754e6 0.0
1.1980130246311754e6 -739692.8987999638 0.0
0.0 0.0 0.0

225054.14226917154 132651.5122298761 0.0
132651.5122298761 -942901.3050888049 0.0
0.0 0.0 0.0

6178.064458739827 1.3895987038495787e6 0.0
1.3895987038495787e6 506870.3486103381 0.0
0.0 0.0 0.0

-233533.86147052943 2.917566306846273e6 0.0
2.917566306846273e6 43840.95716228959 0.0
0.0 0.0 0.0

-414048.33518460556 4.698472311703002e6 0.0
4.698472311703002e6 345888.8811110653 0.0
0.0 0.0 0.0

-408406.00241924776 384308.1752930432 0.0
384308.1752930432 303960.6895897167 0.0
0.0 0.0 0.0

-516177.2584222838 3.313463606743345e6 0.0
3.313463606743345e6 177247.86648939873 0.0
0.0 0.0 0.0

3483.501181673666 1.9231221307544338e6 0.0
1.9231221307544338e6 518229.7773015623 0.0
0.0 0.0 0.0

819108.4860179216 1.0749394074299927e6 0.0
1.0749394074299927e6 -1.3898782310025687e6 0.0
0.0 0.0 0.0

3347.3051831297053 1.8025817440209694e6 0.0
1.8025817440209694e6 -506475.9099540044 0.0
0.0 0.0 0.0

-743020.2469397859 1.4782996550463804e6 0.0
1.4782996550463804e6 103364.18805241349 0.0
0.0 0.0 0.0

-138663.96656075722 1.4942307708789206e6 0.0
1.4942307708789206e6 -418642.57937018055 0.0
0.0 0.0 0.0

-154809.84944687577 3.803552421720703e6 0.0
3.803552421720703e6 -141731.9663725522 0.0
0.0 0.0 0.0

92376.31873053696 45312.68063822534 0.0
45312.68063822534 -25061.036460308176 0.0
0.0 0.0 0.0

-1.5447274569982854e6 540138.5867108462 0.0
540138.5867108462 258283.76540240413 0.0
0.0 0.0 0.0

-61107.029381589644 6.620446496377464e6 0.0
6.620446496377464e6 -927028.9222308227 0.0
0.0 0.0 0.0

-459244.8447534901 1.678424038646518e6 0.0
1.678424038646518e6 105254.03677961201 0.0
0.0 0.0 0.0

16401.9237750115 1.2919773991619581e6 0.0
1.2919773991619581e6 -460498.0847792289 0.0
0.0 0.0 0.0

-1.8561802221170026e6 227676.10103101813 0.0
227676.10103101813 1.7661271927674203e6 0.0
0.0 0.0 0.0

-36710.432099954574 -92185.67670338527 0.0
-92185.67670338527 -89227.30083568904 0.0
0.0 0.0 0.0

-304293.2667930899 2.314572326441582e6 0.0
2.314572326441582e6 -244302.73955391397 0.0
0.0 0.0 0.0

-299966.63108152803 2.1240653687784984e6 0.0
2.1240653687784984e6 39064.92754666554 0.0
0.0 0.0 0.0

-459625.42890823586 3.0234420226469766e6 0.0
3.0234420226469766e6 358585.5568723738 0.0
0.0 0.0 0.0

-2.582496142301452e6 -97123.53011497432 0.0
-97123.53011497432 3.664071337498657e6 0.0
0.0 0.0 0.0

72547.89387883287 1.6034029684027478e6 0.0
1.6034029684027478e6 -887510.122123474 0.0
0.0 0.0 0.0

-278872.8995091302 2.0494619747624253e6 0.0
2.0494619747624253e6 85565.9995061178 0.0
0.0 0.0 0.0

-62021.07304207771 1.608189284052753e6 0.0
1.608189284052753e6 -631569.3107280156 0.0
0.0 0.0 0.0

-206489.65825775548 3.020445275446785e6 0.0
3.020445275446785e6 605141.4008873741 0.0
0.0 0.0 0.0

-1.622292711771008e6 -121566.2231766476 0.0
-121566.2231766476 2.1704379044570243e6 0.0
0.0 0.0 0.0

-205666.56556759798 2.010883767044576e6 0.0
2.010883767044576e6 -171028.741649599 0.0
0.0 0.0 0.0

-149964.99119018004 2.0616039086703751e6 0.0
2.0616039086703751e6 172279.3656282921 0.0
0.0 0.0 0.0

-469462.77585390897 4.436860113323995e6 0.0
4.436860113323995e6 531754.6406954754 0.0
0.0 0.0 0.0

584759.7521866598 779105.7819083828 0.0
779105.7819083828 -998940.939505198 0.0
0.0 0.0 0.0

-106851.7314076189 1.4232181226268022e6 0.0
1.4232181226268022e6 307082.42632600974 0.0
0.0 0.0 0.0

785652.154379116 999495.5363186075 0.0
999495.5363186075 -1.3663706257895622e6 0.0
0.0 0.0 0.0

-224559.09898269625 1.8625040082992408e6 0.0
1.8625040082992408e6 -160148.2337418593 0.0
0.0 0.0 0.0

-1.7225574731618813e6 -125219.08921092417 0.0
-125219.08921092417 1.8223396783990744e6 0.0
0.0 0.0 0.0

-372527.2833357054 1.9447103127625356e6 0.0
1.9447103127625356e6 -242781.03655085113 0.0
0.0 0.0 0.0

-479213.82821870846 2.9589178947912655e6 0.0
2.9589178947912655e6 294752.45094401704 0.0
0.0 0.0 0.0

963395.8157990429 769986.9591200084 0.0
769986.9591200084 -1.5422496248704502e6 0.0
0.0 0.0 0.0

-887343.5793190792 271619.34664599795 0.0
271619.34664599795 1.4441088980171555e6 0.0
0.0 0.0 0.0

-2594.5628694898624 1.7948070329341944e6 0.0
1.7948070329341944e6 -534530.6157907009 0.0
0.0 0.0 0.0

424085.4654050623 1.0085760968325567e6 0.0
1.0085760968325567e6 -1.11228284645143e6 0.0
0.0 0.0 0.0

1.4573549299627282e6 553649.3622895926 0.0
553649.3622895926 -1.8104307986637345e6 0.0
0.0 0.0 0.0

-235120.96537414624 1.069249248987912e6 0.0
1.069249248987912e6 306183.64006833243 0.0
0.0 0.0 0.0

-368176.64625282295 2.1731840663960916e6 0.0
2.1731840663960916e6 52466.236264297084 0.0
0.0 0.0 0.0

-228027.50791288054 2.1480204748104173e6 0.0
2.1480204748104173e6 -24032.09577915544 0.0
0.0 0.0 0.0

-271470.28016706527 -118504.6057702817 0.0
-118504.6057702817 405518.96605737595 0.0
0.0 0.0 0.0

-549576.0196158986 -304786.43996002874 0.0
-304786.43996002874 610546.2671126878 0.0
0.0 0.0 0.0

-260542.51274062903 742939.6697498704 0.0
742939.6697498704 81278.65579687174 0.0
0.0 0.0 0.0

-131674.91024553185 3.6379640787852895e6 0.0
3.6379640787852895e6 373045.2037721219 0.0
0.0 0.0 0.0

-215527.80143983697 2.8605618089697794e6 0.0
2.8605618089697794e6 863107.0625515752 0.0
0.0 0.0 0.0

-564029.9773254488 1.7182457276080153e6 0.0
1.7182457276080153e6 -117101.43853912732 0.0
0.0 0.0 0.0

-52528.92561870733 1.1440620760543647e6 0.0
1.1440620760543647e6 -533813.9896839496 0.0
0.0 0.0 0.0

-277486.3003394022 2.1842223127322188e6 0.0
2.1842223127322188e6 -244651.98304154206 0.0
0.0 0.0 0.0

-441763.3012008422 1.8523254505208002e6 0.0
1.8523254505208002e6 179630.22661543186 0.0
0.0 0.0 0.0

718540.3930134501 979378.3357575377 0.0
979378.3357575377 -1.3287986540937992e6 0.0
0.0 0.0 0.0

-340272.8685897626 -414587.9433471662 0.0
-414587.9433471662 106514.28072181057 0.0
0.0 0.0 0.0

34352.12737078155 221493.91042970127 0.0
221493.91042970127 107582.51166134389 0.0
0.0 0.0 0.0

28088.810835659882 1.9330101887501369e6 0.0
1.9330101887501369e6 -464777.9647791448 0.0
0.0 0.0 0.0

-259570.6821271216 3.0006135736008165e6 0.0
3.0006135736008165e6 962339.1876823173 0.0
0.0 0.0 0.0

6144.18802324096 1.068713941153856e6 0.0
1.068713941153856e6 -283449.4713652751 0.0
0.0 0.0 0.0

-241824.38072296762 862706.3369662915 0.0
862706.3369662915 93614.40384645166 0.0
0.0 0.0 0.0

-1.2275449869452608e6 132837.9389054491 0.0
132837.9389054491 935135.0190425529 0.0
0.0 0.0 0.0

166535.36889168344 1.984136733112572e6 0.0
1.984136733112572e6 -419089.3025864872 0.0
0.0 0.0 0.0

114090.44672723368 101004.36625930456 0.0
101004.36625930456 -679360.923759709 0.0
0.0 0.0 0.0

-701949.6153751453 1.4631000632159347e6 0.0
1.4631000632159347e6 236127.32217494794 0.0
0.0 0.0 0.0

-434729.98059833713 -186459.13371846732 0.0
-186459.13371846732 597654.2759443998 0.0
0.0 0.0 0.0

-59123.676668310334 2.25498417751047e6 0.0
2.25498417751047e6 -265584.78630119096 0.0
0.0 0.0 0.0

-652456.3103226136 2.6976113713608193e6 0.0
2.6976113713608193e6 717998.4244814018 0.0
0.0 0.0 0.0

-349945.7256651631 2.0959764900532677e6 0.0
2.0959764900532677e6 104496.9854626987 0.0
0.0 0.0 0.0

107766.15072098753 1.2907829399749003e6 0.0
1.2907829399749003e6 -760668.09123458 0.0
0.0 0.0 0.0

-201751.65207387006 3.1411209251535204e6 0.0
3.1411209251535204e6 780232.1288514761 0.0
0.0 0.0 0.0

-60162.81806648584 1.2729256479134448e6 0.0
1.2729256479134448e6 -601535.9908323442 0.0
0.0 0.0 0.0

47058.44513470962 2.098257474100574e6 0.0
2.098257474100574e6 -405412.1408671155 0.0
0.0 0.0 0.0

-332833.3658612105 1.869449395498902e6 0.0
1.869449395498902e6 384999.03404546273 0.0
0.0 0.0 0.0

-174153.23803512123 1.9237859885756355e6 0.0
1.9237859885756355e6 312291.51614066947 0.0
0.0 0.0 0.0

-132292.4653044974 2.2640110916986917e6 0.0
2.2640110916986917e6 -79234.08805168557 0.0
0.0 0.0 0.0

1.1703878667517188e6 550558.8383843958 0.0
550558.8383843958 -1.5631973777036192e6 0.0
0.0 0.0 0.0

-1.2794321748937583e6 4.474045484594904e6 0.0
4.474045484594904e6 385821.9105946674 0.0
0.0 0.0 0.0

-217179.47906041055 2.0392440401299298e6 0.0
2.0392440401299298e6 55561.358389468965 0.0
0.0 0.0 0.0

-172744.19377753048 3.613267320090405e6 0.0
3.613267320090405e6 340408.4271694416 0.0
0.0 0.0 0.0

-532329.1348769085 1.6665619627100423e6 0.0
1.6665619627100423e6 41847.848921103374 0.0
0.0 0.0 0.0

1.3405320860113953e6 594240.1744108741 0.0
594240.1744108741 -1.6729749924836275e6 0.0
0.0 0.0 0.0

-231199.51442649338 1.176031998274833e6 0.0
1.176031998274833e6 -172631.36704950355 0.0
0.0 0.0 0.0

-16107.975199813023 2.902636600274377e6 0.0
2.902636600274377e6 620082.7445482308 0.0
0.0 0.0 0.0

360381.7621718402 4.4385457445119945e6 0.0
4.4385457445119945e6 93810.21476100528 0.0
0.0 0.0 0.0

-988353.7695981326 1.7794245118894295e6 0.0
1.7794245118894295e6 164287.00330224435 0.0
0.0 0.0 0.0

-124387.41164173686 1.9355404886032434e6 0.0
1.9355404886032434e6 -375094.8597413647 0.0
0.0 0.0 0.0

371268.88891649735 8517.483956027649 0.0
8517.483956027649 -384498.6185478419 0.0
0.0 0.0 0.0

-439509.44023061474 -211744.63859503696 0.0
-211744.63859503696 464642.16187310824 0.0
0.0 0.0 0.0

-10498.521023135167 1.8873112377792597e6 0.0
1.8873112377792597e6 -500862.7998398927 0.0
0.0 0.0 0.0

-373493.42159741465 3.166268285969365e6 0.0
3.166268285969365e6 1.0515560212575854e6 0.0
0.0 0.0 0.0

50297.803187993624 13048.344358931772 0.0
13048.344358931772 -55002.43108908685 0.0
0.0 0.0 0.0

-182293.08704290475 1.980683009685502e6 0.0
1.980683009685502e6 -309453.55409265694 0.0
0.0 0.0 0.0

-107772.27811748275 2.0631889864866643e6 0.0
2.0631889864866643e6 73101.01136057303 0.0
0.0 0.0 0.0

61846.1724796732 1.2117643685442337e6 0.0
1.2117643685442337e6 -729332.8170235773 0.0
0.0 0.0 0.0

-1.0397870794818373e6 4.194493144007617e6 0.0
4.194493144007617e6 525688.5785055934 0.0
0.0 0.0 0.0

-488097.3894737695 4.521400387055252e6 0.0
4.521400387055252e6 461706.6754048269 0.0
0.0 0.0 0.0

-1.400171903517997e6 5.573612063719538e6 0.0
5.573612063719538e6 336899.596523117 0.0
0.0 0.0 0.0

-1.6325094267335448e6 1.5737485191779274e6 0.0
1.5737485191779274e6 635977.4148833936 0.0
0.0 0.0 0.0

-3997.6330904597708 1.4603380361465865e6 0.0
1.4603380361465865e6 365265.744193939 0.0
0.0 0.0 0.0

441138.7908351843 1.8293308088157172e6 0.0
1.8293308088157172e6 -1.3151917132506147e6 0.0
0.0 0.0 0.0

197312.2146956849 -71048.42175781468 0.0
-71048.42175781468 -200679.3098276627 0.0
0.0 0.0 0.0

189255.64820243354 2.0918452696608887e6 0.0
2.0918452696608887e6 -556941.0663460603 0.0
0.0 0.0 0.0

-41565.07547693915 1.5955317683567808e6 0.0
1.5955317683567808e6 -598421.7696660763 0.0
0.0 0.0 0.0

45845.315501500445 1.5083630118389293e6 0.0
1.5083630118389293e6 373812.58077916637 0.0
0.0 0.0 0.0

219678.1096030718 1.329472457749806e6 0.0
1.329472457749806e6 -702125.5864867147 0.0
0.0 0.0 0.0

49269.179161104956 1.3977676842895807e6 0.0
1.3977676842895807e6 -718028.8353323858 0.0
0.0 0.0 0.0

-233748.23236862972 3.2680788133788807e6 0.0
3.2680788133788807e6 981521.1551833069 0.0
0.0 0.0 0.0

-189349.7371115873 2.0701443855425634e6 0.0
2.0701443855425634e6 142911.6448583699 0.0
0.0 0.0 0.0

820750.460554475 711560.8916367244 0.0
711560.8916367244 -1.2263455822301824e6 0.0
0.0 0.0 0.0

-24745.843555926956 1.9154591549169817e6 0.0
1.9154591549169817e6 -487514.5997055984 0.0
0.0 0.0 0.0

-259922.76644164446 1.998621708592423e6 0.0
1.998621708592423e6 145222.33464563743 0.0
0.0 0.0 0.0

205544.39633485148 1.688128369798805e6 0.0
1.688128369798805e6 -408274.4978216846 0.0
0.0 0.0 0.0

391806.20611468464 247366.75446146357 0.0
247366.75446146357 -552864.0619457306 0.0
0.0 0.0 0.0

-902481.3965240304 2.3529243976857546e6 0.0
2.3529243976857546e6 217947.76508400316 0.0
0.0 0.0 0.0

-905507.7734930331 1.9969011224790383e6 0.0
1.9969011224790383e6 199643.91676535847 0.0
0.0 0.0 0.0

-944434.442226988 130501.80616936232 0.0
130501.80616936232 963785.8324525735 0.0
0.0 0.0 0.0

59406.28178894927 1.2297420186690453e6 0.0
1.2297420186690453e6 -252686.61193260906 0.0
0.0 0.0 0.0

-159896.0744658903 1.9212451890809988e6 0.0
1.9212451890809988e6 441455.79170283204 0.0
0.0 0.0 0.0

-1.289408915682167e6 1.9755983977157488e6 0.0
1.9755983977157488e6 276952.3127141784 0.0
0.0 0.0 0.0

-208582.33701219666 871123.7421414448 0.0
871123.7421414448 279552.34646925045 0.0
0.0 0.0 0.0

89821.72263451222 -56537.56947819557 0.0
-56537.56947819557 -214571.24264094947 0.0
0.0 0.0 0.0

-875041.924290223 1.8682873673213834e6 0.0
1.8682873673213834e6 165780.9391923828 0.0
0.0 0.0 0.0

-1.0382281668300729e6 4.0065491063346122e6 0.0
4.0065491063346122e6 410483.3277265009 0.0
0.0 0.0 0.0

-391497.97015309375 1.5504943067603228e6 0.0
1.5504943067603228e6 -134598.31181006733 0.0
0.0 0.0 0.0

-966642.7948016925 4.4540681952635255e6 0.0
4.4540681952635255e6 478271.3991143895 0.0
0.0 0.0 0.0

-1.112988903160302e6 4.242419614475938e6 0.0
4.242419614475938e6 393873.64698997466 0.0
0.0 0.0 0.0

-65862.6027872314 2.09949290468408e6 0.0
2.09949290468408e6 -198546.1707841611 0.0
0.0 0.0 0.0

37297.152822867865 1.1424626721332653e6 0.0
1.1424626721332653e6 124323.87305585323 0.0
0.0 0.0 0.0

616330.0000109676 661748.0438505822 0.0
661748.0438505822 -1.1959518903923915e6 0.0
0.0 0.0 0.0

297849.7132874945 2.5898039501529397e6 0.0
2.5898039501529397e6 -506193.90771356213 0.0
0.0 0.0 0.0

-165142.9282171932 2.0793688307788356e6 0.0
2.0793688307788356e6 -120808.27885667945 0.0
0.0 0.0 0.0

-690709.7684352697 1.4567366474505942e6 0.0
1.4567366474505942e6 -296042.93877854553 0.0
0.0 0.0 0.0

-59152.7836891351 1.3648185176837316e6 0.0
1.3648185176837316e6 -770335.2878221348 0.0
0.0 0.0 0.0

-833365.7254487791 746668.4416350627 0.0
746668.4416350627 -172730.7863461348 0.0
0.0 0.0 0.0

-263982.1996868649 1.9028708502215773e6 0.0
1.9028708502215773e6 79551.1781123015 0.0
0.0 0.0 0.0

-755909.5091575438 -344461.1410230153 0.0
-344461.1410230153 908882.7765133658 0.0
0.0 0.0 0.0

-484960.8956874714 4.437266459378106e6 0.0
4.437266459378106e6 543380.1367022408 0.0
0.0 0.0 0.0

-456092.32962057844 1.9762460480387935e6 0.0
1.9762460480387935e6 -143718.04474386203 0.0
0.0 0.0 0.0

-165498.1782610043 1.9987557953842168e6 0.0
1.9987557953842168e6 -311675.8153440453 0.0
0.0 0.0 0.0

-841243.0340657292 1.5264481142473312e6 0.0
1.5264481142473312e6 135588.829099724 0.0
0.0 0.0 0.0

118813.02760733964 43275.317242354715 0.0
43275.317242354715 -70901.53216780562 0.0
0.0 0.0 0.0

808901.075964964 811022.3452973661 0.0
811022.3452973661 -1.2853984595166096e6 0.0
0.0 0.0 0.0

-905162.0326338494 1.4096960915468172e6 0.0
1.4096960915468172e6 169628.39263790497 0.0
0.0 0.0 0.0

35520.55769830468 2.025087403740312e6 0.0
2.025087403740312e6 -422159.91411667276 0.0
0.0 0.0 0.0

216828.79018245972 44061.23939972802 0.0
44061.23939972802 -368685.0582247317 0.0
0.0 0.0 0.0

-544213.2347426133 2.9697272353046215e6 0.0
2.9697272353046215e6 287878.2838789702 0.0
0.0 0.0 0.0

-434560.4260942233 4.011463318485744e6 0.0
4.011463318485744e6 637162.2739410116 0.0
0.0 0.0 0.0

-819983.5004080806 -30812.63616759762 0.0
-30812.63616759762 1.154842639671016e6 0.0
0.0 0.0 0.0

-558351.017436051 1.7027482480792e6 0.0
1.7027482480792e6 88318.90365997088 0.0
0.0 0.0 0.0

-96894.91597886685 1.726058440859113e6 0.0
1.726058440859113e6 -439145.00895044906 0.0
0.0 0.0 0.0

345722.1256963529 711807.5470515974 0.0
711807.5470515974 -1.032127358922608e6 0.0
0.0 0.0 0.0

-352297.87980264367 28630.66583923722 0.0
28630.66583923722 -250154.95140245603 0.0
0.0 0.0 0.0

-101265.98985942957 2.0123372644683267e6 0.0
2.0123372644683267e6 -535566.0717519332 0.0
0.0 0.0 0.0

-538359.7579542807 1.4149007204511035e6 0.0
1.4149007204511035e6 -35707.07310696665 0.0
0.0 0.0 0.0

-831037.4988321348 5.510975551030819e6 0.0
5.510975551030819e6 514196.41901391995 0.0
0.0 0.0 0.0

-190622.2962029879 1.4229119010838293e6 0.0
1.4229119010838293e6 1.1515927829198856e6 0.0
0.0 0.0 0.0

110214.08610744172 1.2924842674176318e6 0.0
1.2924842674176318e6 -9726.815445483233 0.0
0.0 0.0 0.0

-10192.514472070718 1.31743334421454e6 0.0
1.31743334421454e6 220093.98632720264 0.0
0.0 0.0 0.0

-9189.758166724221 1.9614178376419584e6 0.0
1.9614178376419584e6 -30632.53821506762 0.0
0.0 0.0 0.0

-1.2770017719734043e6 127140.93389116626 0.0
127140.93389116626 1.230976228486393e6 0.0
0.0 0.0 0.0

-37119.53183672327 1.161308758136757e6 0.0
1.161308758136757e6 -539429.5237257956 0.0
0.0 0.0 0.0

-1.940184169700529e6 1.1274947444108848e6 0.0
1.1274947444108848e6 1.078092988236398e6 0.0
0.0 0.0 0.0

-168547.8969222096 -57534.96881202617 0.0
-57534.96881202617 292034.68888328806 0.0
0.0 0.0 0.0

-808760.6803088007 -306458.76266457315 0.0
-306458.76266457315 1.0486939232080383e6 0.0
0.0 0.0 0.0

-293247.4945705858 1.9849907164210656e6 0.0
1.9849907164210656e6 -322027.84999903286 0.0
0.0 0.0 0.0

279109.4601218366 460843.86270058434 0.0
460843.86270058434 -267556.78246102977 0.0
0.0 0.0 0.0

920273.3507298833 843464.9459264026 0.0
843464.9459264026 -1.4451334370526045e6 0.0
0.0 0.0 0.0

-2.1662776220202823e6 -62437.248157861766 0.0
-62437.248157861766 2.1527863761784495e6 0.0
0.0 0.0 0.0

494449.614920077 952566.7712109737 0.0
952566.7712109737 -1.1773821045382696e6 0.0
0.0 0.0 0.0

126781.07309956329 -27500.630808810114 0.0
-27500.630808810114 -130106.85673797554 0.0
0.0 0.0 0.0

-708755.0730604781 1.8428832086703079e6 0.0
1.8428832086703079e6 156130.2553791894 0.0
0.0 0.0 0.0

-417429.4121867906 4.069890696403338e6 0.0
4.069890696403338e6 612236.614040605 0.0
0.0 0.0 0.0

-1.0216735643286473e6 2.0876493735182078e6 0.0
2.0876493735182078e6 261322.76876373868 0.0
0.0 0.0 0.0

-1.596780874968866e6 5.193868929917309e6 0.0
5.193868929917309e6 449835.25612718344 0.0
0.0 0.0 0.0

-1.3096596127639604e6 4.798116781265165e6 0.0
4.798116781265165e6 414766.69979714503 0.0
0.0 0.0 0.0

-359336.02728583454 -166535.66499775494 0.0
-166535.66499775494 358051.8138483312 0.0
0.0 0.0 0.0

1.2964180348555553e6 611066.7474464915 0.0
611066.7474464915 -1.7199289706874283e6 0.0
0.0 0.0 0.0

-161939.11691303848 2.0614377398067669e6 0.0
2.0614377398067669e6 -221865.85269011182 0.0
0.0 0.0 0.0

-474905.9705883719 3.211031773108292e6 0.0
3.211031773108292e6 550269.2596971517 0.0
0.0 0.0 0.0

-1491.7647231628653 1.3876800836268133e6 0.0
1.3876800836268133e6 -581338.5013436362 0.0
0.0 0.0 0.0

49966.77958334499 1.7024576380873688e6 0.0
1.7024576380873688e6 -685803.2560564288 0.0
0.0 0.0 0.0

-165149.7168325923 1.8316371907669867e6 0.0
1.8316371907669867e6 -550499.0551546153 0.0
0.0 0.0 0.0

-377593.30263222853 1.3315541493260842e6 0.0
1.3315541493260842e6 115593.91228190172 0.0
0.0 0.0 0.0

-521395.4695759942 1.6702729392697164e6 0.0
1.6702729392697164e6 92679.05983159275 0.0
0.0 0.0 0.0

-59218.57998860773 1.1492370899219646e6 0.0
1.1492370899219646e6 -491745.7907543144 0.0
0.0 0.0 0.0

-285236.26315109065 2.409018153409173e6 0.0
2.409018153409173e6 -179958.42952368595 0.0
0.0 0.0 0.0

1.392593771687313e6 554706.9555651805 0.0
554706.9555651805 -1.7196299720889288e6 0.0
0.0 0.0 0.0

-296212.1557215472 2.220395311371694e6 0.0
2.220395311371694e6 -183393.08915225265 0.0
0.0 0.0 0.0

447641.43549934326 752455.6620460136 0.0
752455.6620460136 -1.1165190800467944e6 0.0
0.0 0.0 0.0

-48807.21202435583 358831.5142590391 0.0
358831.5142590391 -198026.89632946052 0.0
0.0 0.0 0.0

-346732.0874289365 2.6641821047232687e6 0.0
2.6641821047232687e6 -330259.1260542782 0.0
0.0 0.0 0.0

-478866.9998792958 -297502.22812375316 0.0
-297502.22812375316 528791.3205832036 0.0
0.0 0.0 0.0

-732584.5661308853 1.7533816995351394e6 0.0
1.7533816995351394e6 136280.11082289397 0.0
0.0 0.0 0.0

-101460.1257058776 1.6665618314594983e6 0.0
1.6665618314594983e6 -565014.2040417071 0.0
0.0 0.0 0.0

969385.2708159343 908997.3293562243 0.0
908997.3293562243 -1.5840139526181873e6 0.0
0.0 0.0 0.0

-328597.87175136403 1.9204975711055454e6 0.0
1.9204975711055454e6 -247944.16312802752 0.0
0.0 0.0 0.0

-607518.3007897796 1.690501526031413e6 0.0
1.690501526031413e6 -140866.68625136945 0.0
0.0 0.0 0.0

-1.0393124889118971e6 1.2587154196363762e6 0.0
1.2587154196363762e6 196152.43364781124 0.0
0.0 0.0 0.0

-311199.5336496369 2.2353240490644122e6 0.0
2.2353240490644122e6 -96193.1846315912 0.0
0.0 0.0 0.0

286311.8142806477 1.136411392188787e6 0.0
1.136411392188787e6 -804601.048778436 0.0
0.0 0.0 0.0

-228121.7155078617 1.8872204490161324e6 0.0
1.8872204490161324e6 -760405.721959761 0.0
0.0 0.0 0.0

-563646.9426360871 1.8460738981715953e6 0.0
1.8460738981715953e6 -65333.466513591 0.0
0.0 0.0 0.0

-193313.1489705942 2.312275488281751e6 0.0
2.312275488281751e6 -644377.1685982695 0.0
0.0 0.0 0.0

-420514.1525056972 681000.6803701121 0.0
681000.6803701121 329153.08211964456 0.0
0.0 0.0 0.0

253015.50473367976 -62927.17883426872 0.0
-62927.17883426872 -227443.61074379538 0.0
0.0 0.0 0.0

-915177.282388781 4.211582582234036e6 0.0
4.211582582234036e6 429438.1193517648 0.0
0.0 0.0 0.0

-285914.3842520981 1.058546617505511e6 0.0
1.058546617505511e6 137646.46782079557 0.0
0.0 0.0 0.0

95917.49863679017 -38605.368951562996 0.0
-38605.368951562996 -189816.22023781302 0.0
0.0 0.0 0.0

135390.03203719703 1.547278060354982e6 0.0
1.547278060354982e6 -808707.4619415808 0.0
0.0 0.0 0.0

-946403.5949847238 2.693776795030986e6 0.0
2.693776795030986e6 243626.75316049345 0.0
0.0 0.0 0.0

1021.3813354322338 1.963279245180039e6 0.0
1.963279245180039e6 -478145.1274201487 0.0
0.0 0.0 0.0

-516415.071948795 1.6348199378869913e6 0.0
1.6348199378869913e6 115309.43255757468 0.0
0.0 0.0 0.0

-621818.7909399329 1.9677339184682455e6 0.0
1.9677339184682455e6 33312.92519108174 0.0
0.0 0.0 0.0

-213845.63878561906 1.9870646047552582e6 0.0
1.9870646047552582e6 -712818.9084477172 0.0
0.0 0.0 0.0

-156285.8892525901 1.9402573516987348e6 0.0
1.9402573516987348e6 393705.088886736 0.0
0.0 0.0 0.0

-945710.7734617696 982146.0758387242 0.0
982146.0758387242 334919.70653835393 0.0
0.0 0.0 0.0

537292.0905584826 7729.795815144407 0.0
7729.795815144407 -534294.1352773914 0.0
0.0 0.0 0.0

-3.2159518216457716e6 -313349.54291889747 0.0
-313349.54291889747 3.336579259068068e6 0.0
0.0 0.0 0.0

-86686.42590166593 2.3101227928941427e6 0.0
2.3101227928941427e6 -173820.95598517533 0.0
0.0 0.0 0.0

-1.0036756833015599e6 5.363224657375893e6 0.0
5.363224657375893e6 352573.6906831458 0.0
0.0 0.0 0.0

19836.78704210509 1.3976756344786892e6 0.0
1.3976756344786892e6 66122.69360812008 0.0
0.0 0.0 0.0

-248740.5568227299 3.6486097114841053e6 0.0
3.6486097114841053e6 593929.9398603173 0.0
0.0 0.0 0.0

-434263.6977316308 2.0937737560570845e6 0.0
2.0937737560570845e6 -45594.12417854334 0.0
0.0 0.0 0.0

-660513.8378772568 5.053770978343923e6 0.0
5.053770978343923e6 334044.4070704806 0.0
0.0 0.0 0.0

-15740.383997559431 1.641986104670818e6 0.0
1.641986104670818e6 943872.2482642626 0.0
0.0 0.0 0.0

1.1359492241429763e6 783821.2157957234 0.0
783821.2157957234 -1.611989881809327e6 0.0
0.0 0.0 0.0

-484294.9244292332 1.7046250420329883e6 0.0
1.7046250420329883e6 75955.60821722451 0.0
0.0 0.0 0.0

-49062.867293060175 1.9226140691191845e6 0.0
1.9226140691191845e6 -504205.8801496205 0.0
0.0 0.0 0.0

-200204.04470968735 2.4791710024759294e6 0.0
2.4791710024759294e6 -667346.870592153 0.0
0.0 0.0 0.0

-191755.89348473906 1.9756941588854676e6 0.0
1.9756941588854676e6 -179262.31957153467 0.0
0.0 0.0 0.0

1.380158832753291e6 623944.8197968766 0.0
623944.8197968766 -1.7730096983003644e6 0.0
0.0 0.0 0.0

-639090.1131686487 3.2704389371964037e6 0.0
3.2704389371964037e6 457599.31506659254 0.0
0.0 0.0 0.0

-269239.0862854287 2.89243556850213e6 0.0
2.89243556850213e6 49332.90070930714 0.0
0.0 0.0 0.0

-9961.767797598717 4.414162274104029e6 0.0
4.414162274104029e6 -289092.30172882014 0.0
0.0 0.0 0.0

-185165.54397168627 475392.41329650825 0.0
475392.41329650825 75254.24422582898 0.0
0.0 0.0 0.0

120304.2799908854 1.6186969988234756e6 0.0
1.6186969988234756e6 224078.85077186424 0.0
0.0 0.0 0.0

-379379.27251087804 2.2913479425232857e6 0.0
2.2913479425232857e6 7789.659224823641 0.0
0.0 0.0 0.0

-874603.3741918317 4.187289878424263e6 0.0
4.187289878424263e6 408327.236797194 0.0
0.0 0.0 0.0

-1.0767705920993183e6 -296081.0105440831 0.0
-296081.0105440831 1.3897919447362805e6 0.0
0.0 0.0 0.0

-90668.90307832051 2.0627607001751505e6 0.0
2.0627607001751505e6 -265944.41540096205 0.0
0.0 0.0 0.0

-549833.249943777 1.5895510583217526e6 0.0
1.5895510583217526e6 117253.18884661785 0.0
0.0 0.0 0.0

-330051.0351280146 1.1658237541644934e6 0.0
1.1658237541644934e6 -82042.74919496296 0.0
0.0 0.0 0.0

-525152.1967339828 2.679086242585528e6 0.0
2.679086242585528e6 760194.9644065574 0.0
0.0 0.0 0.0

-1.9428907676189826e6 844353.2907630922 0.0
844353.2907630922 1.265542806101852e6 0.0
0.0 0.0 0.0

18444.588268755848 1.7300203209090855e6 0.0
1.7300203209090855e6 -519786.236753426 0.0
0.0 0.0 0.0

178777.10979592623 231921.96394411338 0.0
231921.96394411338 -474143.1136413042 0.0
0.0 0.0 0.0

-367062.8871267063 1.6904692849555162e6 0.0
1.6904692849555162e6 1.3261453836973165e6 0.0
0.0 0.0 0.0

-460984.8361242006 3.560464372827763e6 0.0
3.560464372827763e6 666148.2968281534 0.0
0.0 0.0 0.0

16436.809560982285 5.439246687274735e6 0.0
5.439246687274735e6 189327.37482856447 0.0
0.0 0.0 0.0

-187751.29402670258 1.5730965148827503e6 0.0
1.5730965148827503e6 -625837.6552910489 0.0
0.0 0.0 0.0

-106265.43585272992 965437.5252137405 0.0
965437.5252137405 -256471.04198197048 0.0
0.0 0.0 0.0

-474722.84864665073 1.741061282947607e6 0.0
1.741061282947607e6 -5010.019602291315 0.0
0.0 0.0 0.0

8421.742176636064 1.1813838970271784e6 0.0
1.1813838970271784e6 -773670.8483674331 0.0
0.0 0.0 0.0

-448242.75292178383 3.0864640629694513e6 0.0
3.0864640629694513e6 483327.8792424137 0.0
0.0 0.0 0.0

-203120.4598261193 2.9969198402229245e6 0.0
2.9969198402229245e6 1.0839910730269847e6 0.0
0.0 0.0 0.0

-331386.8379981518 2.0461305707512912e6 0.0
2.0461305707512912e6 130191.71105334982 0.0
0.0 0.0 0.0

-312231.249704488 2.868260536256206e6 0.0
2.868260536256206e6 6823.234074936525 0.0
0.0 0.0 0.0

-486707.79399218527 230431.09354937717 0.0
230431.09354937717 657825.4349206833 0.0
0.0 0.0 0.0

302667.3912293323 687143.2226829246 0.0
687143.2226829246 345590.02482830756 0.0
0.0 0.0 0.0

-286467.98520954733 3.4505275206523e6 0.0
3.4505275206523e6 289263.2178946827 0.0
0.0 0.0 0.0

97866.9245111779 1.8769538818428728e6 0.0
1.8769538818428728e6 -479200.7729465874 0.0
0.0 0.0 0.0

416658.09514930943 4.81597546978758e6 0.0
4.81597546978758e6 -14850.21848614316 0.0
0.0 0.0 0.0

60795.99782338111 -47318.00888990215 0.0
-47318.00888990215 -160117.48768238435 0.0
0.0 0.0 0.0

-452633.4800029518 1.6331938830009496e6 0.0
1.6331938830009496e6 -92248.10576820714 0.0
0.0 0.0 0.0

-577015.8587657858 1.3952736857851988e6 0.0
1.3952736857851988e6 283652.8776917372 0.0
0.0 0.0 0.0

-900985.1477223652 787900.9652583231 0.0
787900.9652583231 -342268.5915256959 0.0
0.0 0.0 0.0

1.6219298763777474e6 936297.9195694027 0.0
936297.9195694027 -1.6067190179707166e6 0.0
0.0 0.0 0.0

-3.785082977878577e6 -767772.3636991145 0.0
-767772.3636991145 3.6267437122464855e6 0.0
0.0 0.0 0.0

-146319.33617287388 1.8621527347726733e6 0.0
1.8621527347726733e6 -98673.67944829343 0.0
0.0 0.0 0.0

-638943.8642468447 1.8923233766592278e6 0.0
1.8923233766592278e6 30195.491383579472 0.0
0.0 0.0 0.0

-516859.6374917719 1.656275544760239e6 0.0
1.656275544760239e6 131087.72063491962 0.0
0.0 0.0 0.0

-543081.101227856 2.8563614018462324e6 0.0
2.8563614018462324e6 309610.3362711858 0.0
0.0 0.0 0.0

-203020.75169675308 1.9882830377185019e6 0.0
1.9882830377185019e6 -392604.5183107522 0.0
0.0 0.0 0.0

-86890.40130971861 2.004405619638216e6 0.0
2.004405619638216e6 -446655.9207651776 0.0
0.0 0.0 0.0

64112.60733467815 1.954219069555451e6 0.0
1.954219069555451e6 -650894.8085713885 0.0
0.0 0.0 0.0

415011.75668104785 1.9021313476071686e6 0.0
1.9021313476071686e6 -850673.4436821097 0.0
0.0 0.0 0.0

691215.413536247 729276.14992733 0.0
729276.14992733 -341919.3545017885 0.0
0.0 0.0 0.0

-482656.8715490635 5.198259104445926e6 0.0
5.198259104445926e6 241539.88953996124 0.0
0.0 0.0 0.0

-225312.4192533653 1.6758978747023148e6 0.0
1.6758978747023148e6 -751041.461034859 0.0
0.0 0.0 0.0

-281706.92985539336 3.64407658186268e6 0.0
3.64407658186268e6 705730.8866007966 0.0
0.0 0.0 0.0

-194635.86864139722 1.559827116770801e6 0.0
1.559827116770801e6 -339099.69114336907 0.0
0.0 0.0 0.0

-854367.970332308 4.1859777265367513e6 0.0
4.1859777265367513e6 459490.06814019114 0.0
0.0 0.0 0.0

-39281.44699086179 1.1365306116769314e6 0.0
1.1365306116769314e6 -567991.5316385817 0.0
0.0 0.0 0.0

-1.2665738757818113e6 384233.7183726964 0.0
384233.7183726964 571894.9002872449 0.0
0.0 0.0 0.0

-65831.39124013597 -111179.30626366824 0.0
-111179.30626366824 117222.96618879939 0.0
0.0 0.0 0.0

-202525.1523811745 681934.8486547734 0.0
681934.8486547734 232741.99190622344 0.0
0.0 0.0 0.0

-41621.148638228595 1.2234584919780435e6 0.0
1.2234584919780435e6 -424865.8808533931 0.0
0.0 0.0 0.0

-190285.19212707484 1.7786513060564273e6 0.0
1.7786513060564273e6 -31587.0116617729 0.0
0.0 0.0 0.0

-623251.7165367772 3.520764350965946e6 0.0
3.520764350965946e6 385846.9759221092 0.0
0.0 0.0 0.0

-262679.038894541 2.481153503883557e6 0.0
2.481153503883557e6 -319760.4898473615 0.0
0.0 0.0 0.0

85681.16995865476 4.709451663493141e6 0.0
4.709451663493141e6 197860.47553065073 0.0
0.0 0.0 0.0

-984133.6518413569 1.5509917946382056e6 0.0
1.5509917946382056e6 230625.66423890606 0.0
0.0 0.0 0.0

-341183.83521983295 3.3158655480776588e6 0.0
3.3158655480776588e6 254276.42679016085 0.0
0.0 0.0 0.0

-250064.1179117208 2.019720237670162e6 0.0
2.019720237670162e6 -232109.22830935047 0.0
0.0 0.0 0.0

-1.1923721575665078e6 2.0686880944841541e6 0.0
2.0686880944841541e6 232580.9367549306 0.0
0.0 0.0 0.0

-299173.19406870974 794295.6896515165 0.0
794295.6896515165 172367.3877202277 0.0
0.0 0.0 0.0

-165224.26645337854 1.8330666107309496e6 0.0
1.8330666107309496e6 172554.04717654013 0.0
0.0 0.0 0.0

25781.84332942234 224799.9902610756 0.0
224799.9902610756 31785.11794635585 0.0
0.0 0.0 0.0

211116.61510989827 2.396960563017753e6 0.0
2.396960563017753e6 -534516.3663772453 0.0
0.0 0.0 0.0

-218961.61296441467 2.1530204892474446e6 0.0
2.1530204892474446e6 -134153.033638365 0.0
0.0 0.0 0.0

-380685.8743223678 904931.5972726789 0.0
904931.5972726789 -377023.85158457584 0.0
0.0 0.0 0.0

-801140.4888878283 1.3859029320892382e6 0.0
1.3859029320892382e6 216219.47487868334 0.0
0.0 0.0 0.0

1.0015582110660602e6 982224.0660525486 0.0
982224.0660525486 -1.6771959295693242e6 0.0
0.0 0.0 0.0

-384661.61576796253 2.0736325656746842e6 0.0
2.0736325656746842e6 -455818.8683718821 0.0
0.0 0.0 0.0

326999.2263611323 1.6778156459729283e6 0.0
1.6778156459729283e6 -650577.3290083824 0.0
0.0 0.0 0.0

1.3246736658498063e6 600593.272176778 0.0
600593.272176778 -1.785507089722049e6 0.0
0.0 0.0 0.0

-101610.19990581952 6.256663788014211e6 0.0
6.256663788014211e6 104523.99868945894 0.0
0.0 0.0 0.0

497597.892459427 787060.3820776747 0.0
787060.3820776747 -982819.2210470773 0.0
0.0 0.0 0.0

-4.324174915299819e6 -79794.73845021418 0.0
-79794.73845021418 4.343770832058735e6 0.0
0.0 0.0 0.0

-218116.02383478198 514420.37573483033 0.0
514420.37573483033 226195.9701891389 0.0
0.0 0.0 0.0

-285758.09383044066 1.8252202685054122e6 0.0
1.8252202685054122e6 87865.73777656344 0.0
0.0 0.0 0.0

-239045.88757007258 1.8172946606169853e6 0.0
1.8172946606169853e6 243566.96494665236 0.0
0.0 0.0 0.0

-260944.48488090246 650620.3274534264 0.0
650620.3274534264 305808.73222054157 0.0
0.0 0.0 0.0

-670070.5137435261 1.8931629548647862e6 0.0
1.8931629548647862e6 135532.9278682236 0.0
0.0 0.0 0.0

278453.55962274247 1.6468911534552283e6 0.0
1.6468911534552283e6 928178.5646224011 0.0
0.0 0.0 0.0

254206.41569362953 -109784.75258160045 0.0
-109784.75258160045 -315029.74453796714 0.0
0.0 0.0 0.0

-249738.30492568022 2.4036571839677696e6 0.0
2.4036571839677696e6 -131885.41133045778 0.0
0.0 0.0 0.0

735724.8655369873 1.365714471385797e6 0.0
1.365714471385797e6 -1.5440722095845146e6 0.0
0.0 0.0 0.0

-1.1521564678546004e6 1.6040815316357114e6 0.0
1.6040815316357114e6 320854.3644123516 0.0
0.0 0.0 0.0

-412376.9654970817 3.7613365280753835e6 0.0
3.7613365280753835e6 614624.4204312107 0.0
0.0 0.0 0.0

-167747.84860133546 2.2651407620417494e6 0.0
2.2651407620417494e6 -128999.29935471143 0.0
0.0 0.0 0.0

-169400.3156588315 483872.3739858239 0.0
483872.3739858239 125216.6773639517 0.0
0.0 0.0 0.0

-1.2754247355634335e6 1.329124501251239e6 0.0
1.329124501251239e6 639893.0560335638 0.0
0.0 0.0 0.0

-349432.298986885 2.8346482052854486e6 0.0
2.8346482052854486e6 139527.89039750755 0.0
0.0 0.0 0.0

174843.15500006755 1.2151451525247933e6 0.0
1.2151451525247933e6 -766161.7273565808 0.0
0.0 0.0 0.0

-1.3870026188067554e6 1.5812026744773092e6 0.0
1.5812026744773092e6 605195.5838420775 0.0
0.0 0.0 0.0

467895.380606024 6.297418348435364e6 0.0
6.297418348435364e6 -255365.8679874852 0.0
0.0 0.0 0.0

-332914.61629904027 2.099593971312073e6 0.0
2.099593971312073e6 -164819.35323305687 0.0
0.0 0.0 0.0

16155.06369595381 1.3288215665460739e6 0.0
1.3288215665460739e6 -878290.5539023296 0.0
0.0 0.0 0.0

21523.109506699257 1.7772445993949403e6 0.0
1.7772445993949403e6 -754385.7571063848 0.0
0.0 0.0 0.0

-169045.48036174627 5.323138443233242e6 0.0
5.323138443233242e6 247192.1454654628 0.0
0.0 0.0 0.0

-112364.62851307198 1.6169231582202462e6 0.0
1.6169231582202462e6 -408475.1311551297 0.0
0.0 0.0 0.0

-964816.3699929753 4.77426213774567e6 0.0
4.77426213774567e6 441013.4653690018 0.0
0.0 0.0 0.0

777992.108329279 1.09622343168096e6 0.0
1.09622343168096e6 -1.4205941096488114e6 0.0
0.0 0.0 0.0

35560.78361616572 2.1905021523596956e6 0.0
2.1905021523596956e6 -370042.98029761005 0.0
0.0 0.0 0.0

-1.0183356885420798e6 1.085547462874975e6 0.0
1.085547462874975e6 528038.9622341663 0.0
0.0 0.0 0.0

-815394.0282435288 1.918840485943455e6 0.0
1.918840485943455e6 159975.22631349228 0.0
0.0 0.0 0.0

-50134.56821910251 3.25934893165089e6 0.0
3.25934893165089e6 526739.2202492701 0.0
0.0 0.0 0.0

-1.244849636399407e6 2.2702035027977927e6 0.0
2.2702035027977927e6 330670.7534900235 0.0
0.0 0.0 0.0

13726.682074319724 1.1241520165879575e6 0.0
1.1241520165879575e6 164067.00013413586 0.0
0.0 0.0 0.0

-663036.5987463596 -334219.11589463725 0.0
-334219.11589463725 748553.8015259469 0.0
0.0 0.0 0.0

-405717.53910786833 5.644778696421641e6 0.0
5.644778696421641e6 329068.96642875916 0.0
0.0 0.0 0.0

-74146.23079097626 1.679813662222829e6 0.0
1.679813662222829e6 -502874.9110028554 0.0
0.0 0.0 0.0

1.316797602378238e6 645065.9948110633 0.0
645065.9948110633 -1.7102672299491502e6 0.0
0.0 0.0 0.0

-205355.22754135574 2.828606888757973e6 0.0
2.828606888757973e6 68426.79603849642 0.0
0.0 0.0 0.0

-155434.8999240691 1.487191357359548e6 0.0
1.487191357359548e6 -185209.86999289016 0.0
0.0 0.0 0.0

-188234.07785703967 2.115761997331214e6 0.0
2.115761997331214e6 -370001.4915664495 0.0
0.0 0.0 0.0

-741878.6016359958 1.17404683313131e6 0.0
1.17404683313131e6 329156.4862296879 0.0
0.0 0.0 0.0

-125207.0829448835 2.1601428026769008e6 0.0
2.1601428026769008e6 -156173.0259262297 0.0
0.0 0.0 0.0

-295717.78761003294 3.2859401703358106e6 0.0
3.2859401703358106e6 304421.2307660906 0.0
0.0 0.0 0.0

1.2208392759537254e6 660554.4803245858 0.0
660554.4803245858 -1.6214257753745303e6 0.0
0.0 0.0 0.0

-479391.3582033578 3.215038747658132e6 0.0
3.215038747658132e6 484231.9223617064 0.0
0.0 0.0 0.0

-398931.4380949666 2.413896617049616e6 0.0
2.413896617049616e6 -55591.36928053867 0.0
0.0 0.0 0.0

-525212.3463569084 2.0289077961246867e6 0.0
2.0289077961246867e6 -64885.79791193841 0.0
0.0 0.0 0.0

-202947.64922563528 4.781341946541062e6 0.0
4.781341946541062e6 318892.2097452278 0.0
0.0 0.0 0.0

-270897.005566412 1.733213393303935e6 0.0
1.733213393303935e6 132480.32005268917 0.0
0.0 0.0 0.0

-262107.54362897805 1.546539353709196e6 0.0
1.546539353709196e6 170636.53412897585 0.0
0.0 0.0 0.0

-8.216421197317827e6 1.563549861765293e6 0.0
1.563549861765293e6 1.127140198000949e7 0.0
0.0 0.0 0.0

-1.5127731495547518e6 1.9863501020476914e6 0.0
1.9863501020476914e6 346812.32155017636 0.0
0.0 0.0 0.0

-190453.54180481556 2.1377465154134566e6 0.0
2.1377465154134566e6 -165746.03249488646 0.0
0.0 0.0 0.0

633311.7069687429 826038.6830050322 0.0
826038.6830050322 -1.0629057269118014e6 0.0
0.0 0.0 0.0

764378.9407436629 748918.4080795891 0.0
748918.4080795891 -1.190086636717723e6 0.0
0.0 0.0 0.0

1.3453380204975912e6 568824.414779902 0.0
568824.414779902 -1.643177992592035e6 0.0
0.0 0.0 0.0

-339504.1246427635 1.3340458763378053e6 0.0
1.3340458763378053e6 247293.2366651792 0.0
0.0 0.0 0.0

1.2853248529049002e6 525662.2460564094 0.0
525662.2460564094 -1.5943098477636618e6 0.0
0.0 0.0 0.0

-282923.01191851264 -80224.59788658826 0.0
-80224.59788658826 249322.70264087105 0.0
0.0 0.0 0.0

-310253.9101818894 1.6128440555891884e6 0.0
1.6128440555891884e6 258207.60996613756 0.0
0.0 0.0 0.0

-281158.78263494186 1.8689531323955136e6 0.0
1.8689531323955136e6 -358332.180667702 0.0
0.0 0.0 0.0

-503632.8213430515 4.0469649127248996e6 0.0
4.0469649127248996e6 576969.6267193806 0.0
0.0 0.0 0.0

-389385.0796186918 4.9527779681183025e6 0.0
4.9527779681183025e6 438325.7804226114 0.0
0.0 0.0 0.0

-20414.440721996827 1.86443619301845e6 0.0
1.86443619301845e6 -505777.2328452844 0.0
0.0 0.0 0.0

755604.9973433109 1.0030056647960697e6 0.0
1.0030056647960697e6 -1.3725345930719965e6 0.0
0.0 0.0 0.0

1.3451923452202594e6 646974.0616077279 0.0
646974.0616077279 -1.7633936286612677e6 0.0
0.0 0.0 0.0

-1.0209426636938778e6 1.2251728312932781e6 0.0
1.2251728312932781e6 -42251.57580560498 0.0
0.0 0.0 0.0

-134814.99068370427 3.4789914243804854e6 0.0
3.4789914243804854e6 837501.9025599321 0.0
0.0 0.0 0.0

-444032.22621717805 4.8586335234033875e6 0.0
4.8586335234033875e6 468898.5341711792 0.0
0.0 0.0 0.0

34257.39118935804 2.1639444742162963e6 0.0
2.1639444742162963e6 53358.37385834118 0.0
0.0 0.0 0.0

73952.45662069845 2.0386092728256304e6 0.0
2.0386092728256304e6 -402807.3543408787 0.0
0.0 0.0 0.0

-1.3000034711052622e6 -105040.08754200344 0.0
-105040.08754200344 1.3383743707532114e6 0.0
0.0 0.0 0.0

-664762.1599207476 1.559694798912283e6 0.0
1.559694798912283e6 177606.2746016674 0.0
0.0 0.0 0.0

-549661.8999786905 3.3602232309815544e6 0.0
3.3602232309815544e6 100412.79209152391 0.0
0.0 0.0 0.0

102959.09275401852 -10743.08292544418 0.0
-10743.08292544418 -158069.28641432725 0.0
0.0 0.0 0.0

-7.703503116717731e6 1.0194924682052444e6 0.0
1.0194924682052444e6 1.2423206333868107e7 0.0
0.0 0.0 0.0

-230307.63795942042 2.392912866505812e6 0.0
2.392912866505812e6 -192902.8689774825 0.0
0.0 0.0 0.0

90033.3078023443 408204.1369552719 0.0
408204.1369552719 -244384.75039537065 0.0
0.0 0.0 0.0

-4.659915726069804e6 -591456.9767376567 0.0
-591456.9767376567 4.596959818420843e6 0.0
0.0 0.0 0.0

1.4322129826698515e6 595241.2815808387 0.0
595241.2815808387 -1.787678410534482e6 0.0
0.0 0.0 0.0

-150735.38777089558 2.0104339717465495e6 0.0
2.0104339717465495e6 176806.49294744967 0.0
0.0 0.0 0.0

-680000.5848576266 1.7720434312244318e6 0.0
1.7720434312244318e6 97070.0814385186 0.0
0.0 0.0 0.0

-221440.80994476366 1.9430861524878575e6 0.0
1.9430861524878575e6 -387310.00135078555 0.0
0.0 0.0 0.0

195953.45006291315 680640.987525655 0.0
680640.987525655 200866.00291309957 0.0
0.0 0.0 0.0

-178955.68530448858 2.0247571608909357e6 0.0
2.0247571608909357e6 -133749.9969841851 0.0
0.0 0.0 0.0

-38400.794964873465 4.835133437103281e6 0.0
4.835133437103281e6 273631.47768240457 0.0
0.0 0.0 0.0

50215.121261877975 -157421.53597449075 0.0
-157421.53597449075 -165178.92268483207 0.0
0.0 0.0 0.0

-135153.63417654738 3.045247281634711e6 0.0
3.045247281634711e6 319812.58123346756 0.0
0.0 0.0 0.0

-527680.9608934239 6.2546964949146435e6 0.0
6.2546964949146435e6 41248.49842540405 0.0
0.0 0.0 0.0

1.3940302741640126e6 558634.6965986423 0.0
558634.6965986423 -1.7192751460068503e6 0.0
0.0 0.0 0.0

-240711.97583648498 1.3199241175213142e6 0.0
1.3199241175213142e6 -215373.01646217922 0.0
0.0 0.0 0.0

107720.05680404045 1.6423237641304722e6 0.0
1.6423237641304722e6 1.3661116015588348e6 0.0
0.0 0.0 0.0

2.5802230030943346e6 1.531566150342589e6 0.0
1.531566150342589e6 -2.516084074975526e6 0.0
0.0 0.0 0.0

-871319.067875237 1.5676596201031827e6 0.0
1.5676596201031827e6 284838.25403799437 0.0
0.0 0.0 0.0

-601630.3828640658 1.7191367372931405e6 0.0
1.7191367372931405e6 107966.61743449775 0.0
0.0 0.0 0.0

665242.4272312686 953150.3098408584 0.0
953150.3098408584 -1.262467347091817e6 0.0
0.0 0.0 0.0

-590881.6427752114 1.423265449238107e6 0.0
1.423265449238107e6 189530.06186696657 0.0
0.0 0.0 0.0

-145572.67355077123 2.49884985085619e6 0.0
2.49884985085619e6 403037.62056721025 0.0
0.0 0.0 0.0

-6.19189781943718e6 -1.318235798305688e6 0.0
-1.318235798305688e6 5.392586904536824e6 0.0
0.0 0.0 0.0

-192191.70268463937 1.978303852025524e6 0.0
1.978303852025524e6 68286.29668639175 0.0
0.0 0.0 0.0

56533.76143477936 1.7397799880207053e6 0.0
1.7397799880207053e6 -466544.72009033745 0.0
0.0 0.0 0.0

-587916.9848399847 3.053785129636083e6 0.0
3.053785129636083e6 352686.3524257124 0.0
0.0 0.0 0.0

-218361.21316963132 3.2158927618731596e6 0.0
3.2158927618731596e6 131379.14002413856 0.0
0.0 0.0 0.0

-274413.1554477717 2.4093116973130316e6 0.0
2.4093116973130316e6 -107938.49598140296 0.0
0.0 0.0 0.0

-294759.39369034866 2.543621715749345e6 0.0
2.543621715749345e6 -307940.44348520506 0.0
0.0 0.0 0.0

147973.46321228522 1.7928759432662788e6 0.0
1.7928759432662788e6 114948.48539421741 0.0
0.0 0.0 0.0

16520.245522750163 2.0392063843389929e6 0.0
2.0392063843389929e6 -411514.95427134406 0.0
0.0 0.0 0.0

-54927.30456291571 1.9798982554130612e6 0.0
1.9798982554130612e6 -474370.11684796016 0.0
0.0 0.0 0.0

89986.07957664691 1.2097272655072268e6 0.0
1.2097272655072268e6 -747840.9019057921 0.0
0.0 0.0 0.0

-727322.3693752808 1.7496234294797396e6 0.0
1.7496234294797396e6 174408.81760636115 0.0
0.0 0.0 0.0

-676418.0728850341 1.5013032041800322e6 0.0
1.5013032041800322e6 -160413.3666930126 0.0
0.0 0.0 0.0

-771005.7380838332 1.6412884167536465e6 0.0
1.6412884167536465e6 202477.14677302795 0.0
0.0 0.0 0.0

-101680.88047564578 2.3006809769865447e6 0.0
2.3006809769865447e6 -111701.83144791308 0.0
0.0 0.0 0.0

1.125864310765985e6 599242.2033935579 0.0
599242.2033935579 -1.4758454725916423e6 0.0
0.0 0.0 0.0

-267788.4121208633 2.3574999411459304e6 0.0
2.3574999411459304e6 -251285.38186417165 0.0
0.0 0.0 0.0

-399399.9042078409 4.846049470663387e6 0.0
4.846049470663387e6 219642.3234520823 0.0
0.0 0.0 0.0

-75247.15757324031 -63948.092088110476 0.0
-63948.092088110476 25159.19325924561 0.0
0.0 0.0 0.0

-168007.88293660595 2.1174996327665057e6 0.0
2.1174996327665057e6 -55525.46165334058 0.0
0.0 0.0 0.0

-187126.70334810013 2.0762026600776429e6 0.0
2.0762026600776429e6 -157849.78012087086 0.0
0.0 0.0 0.0

-175434.6212895068 3.4263495823602383e6 0.0
3.4263495823602383e6 295574.21575108665 0.0
0.0 0.0 0.0

142125.0982009563 76601.6741619777 0.0
76601.6741619777 -78364.43713066808 0.0
0.0 0.0 0.0

91786.19815432225 1.4377478151885285e6 0.0
1.4377478151885285e6 -83741.45214813374 0.0
0.0 0.0 0.0

-386839.54859243316 1.923961301197965e6 0.0
1.923961301197965e6 119306.66978655651 0.0
0.0 0.0 0.0

48677.25579731868 1.5625522328119413e6 0.0
1.5625522328119413e6 -761015.54272831 0.0
0.0 0.0 0.0

-653628.8727647685 5.687272112664011e6 0.0
5.687272112664011e6 407088.34762840555 0.0
0.0 0.0 0.0

-919552.8846769573 1.683201084686732e6 0.0
1.683201084686732e6 253561.0661860989 0.0
0.0 0.0 0.0

97182.02447252626 101352.83328664007 0.0
101352.83328664007 -76061.24598751187 0.0
0.0 0.0 0.0

-231107.8342877218 2.0547837748658455e6 0.0
2.0547837748658455e6 -201730.74078486633 0.0
0.0 0.0 0.0

-1.0205702266812474e6 1.8284807635873698e6 0.0
1.8284807635873698e6 265548.9909048903 0.0
0.0 0.0 0.0

-874115.0417210844 1.7417540977007654e6 0.0
1.7417540977007654e6 222448.6337684641 0.0
0.0 0.0 0.0

99773.7938034336 1.774174294523535e6 0.0
1.774174294523535e6 -508446.51800321025 0.0
0.0 0.0 0.0

6200.962687209278 1.7392572018414352e6 0.0
1.7392572018414352e6 -612828.6526246639 0.0
0.0 0.0 0.0

482651.12500743096 4.952674859429448e6 0.0
4.952674859429448e6 112089.81669174219 0.0
0.0 0.0 0.0

-1.3774083176018961e6 -123099.94476937609 0.0
-123099.94476937609 888611.4428197617 0.0
0.0 0.0 0.0

-784998.3572064075 1.3648891154072513e6 0.0
1.3648891154072513e6 104012.79217328702 0.0
0.0 0.0 0.0

1.4092193129475045e6 556020.4988099284 0.0
556020.4988099284 -1.7631221015072055e6 0.0
0.0 0.0 0.0

-487233.9674220701 2.6332691107998076e6 0.0
2.6332691107998076e6 156397.3545679648 0.0
0.0 0.0 0.0

-568162.8831872569 1.5186841884362735e6 0.0
1.5186841884362735e6 160075.42588416263 0.0
0.0 0.0 0.0

-312190.60520284023 -34991.65685137108 0.0
-34991.65685137108 285555.2274772293 0.0
0.0 0.0 0.0

335465.88167531544 858520.8658460041 0.0
858520.8658460041 -1.1207477804625724e6 0.0
0.0 0.0 0.0

5474.927128204232 1.3324413327424128e6 0.0
1.3324413327424128e6 -713899.4928459766 0.0
0.0 0.0 0.0

-171051.4477871952 2.726640879747883e6 0.0
2.726640879747883e6 241061.0978060124 0.0
0.0 0.0 0.0

-991921.6893316073 1.205539533837962e6 0.0
1.205539533837962e6 35661.69786870881 0.0
0.0 0.0 0.0

-65300.8468946583 1.662297130110911e6 0.0
1.662297130110911e6 -337012.92226092063 0.0
0.0 0.0 0.0

-442070.7648004367 1.641325932108418e6 0.0
1.641325932108418e6 81782.02189657278 0.0
0.0 0.0 0.0

-885602.5898591267 1.987482159750571e6 0.0
1.987482159750571e6 205654.7226257219 0.0
0.0 0.0 0.0

-1.689274058638236e6 -92989.65078646991 0.0
-92989.65078646991 2.0103212037127581e6 0.0
0.0 0.0 0.0

74227.2316481254 -139700.11647894222 0.0
-139700.11647894222 -150649.8308928986 0.0
0.0 0.0 0.0

-119251.09024443825 1.8461709863519454e6 0.0
1.8461709863519454e6 -792420.7528473139 0.0
0.0 0.0 0.0

-26808.013728007943 -9436.273772366776 0.0
-9436.273772366776 110395.8529454984 0.0
0.0 0.0 0.0

-147887.55138535984 1.9967491294037465e6 0.0
1.9967491294037465e6 -503912.5970616011 0.0
0.0 0.0 0.0

-289568.7453691761 2.9630330167664867e6 0.0
2.9630330167664867e6 32990.73710231672 0.0
0.0 0.0 0.0

-492916.60806450865 1.6242884185444892e6 0.0
1.6242884185444892e6 -35208.98113992682 0.0
0.0 0.0 0.0

-590061.7357445399 1.3151838330082577e6 0.0
1.3151838330082577e6 183095.8363076821 0.0
0.0 0.0 0.0

-505785.0120323291 2.1424019034647592e6 0.0
2.1424019034647592e6 43773.360269173485 0.0
0.0 0.0 0.0

-151457.0681745707 1.3105491609729114e6 0.0
1.3105491609729114e6 -504856.94910085923 0.0
0.0 0.0 0.0

-158838.4710254398 1.9379565020330427e6 0.0
1.9379565020330427e6 -529461.5819117826 0.0
0.0 0.0 0.0

-45002.91605472806 1.9175592389428283e6 0.0
1.9175592389428283e6 -565836.3998428376 0.0
0.0 0.0 0.0

-245227.23241017148 1.3064131223017683e6 0.0
1.3064131223017683e6 -794096.1499919156 0.0
0.0 0.0 0.0

156988.79725025813 -24128.158014576846 0.0
-24128.158014576846 -150157.00312752745 0.0
0.0 0.0 0.0

-47033.312917057905 1.26056725308242e6 0.0
1.26056725308242e6 -371526.670528332 0.0
0.0 0.0 0.0

-333734.9904460836 2.734441443687344e6 0.0
2.734441443687344e6 54160.969584576276 0.0
0.0 0.0 0.0

271789.4225957176 416712.4617449564 0.0
416712.4617449564 -963678.8320832131 0.0
0.0 0.0 0.0

-1.5725983257595818e6 343954.8111745532 0.0
343954.8111745532 -211146.71115922864 0.0
0.0 0.0 0.0

-246549.71776895665 2.962586668453759e6 0.0
2.962586668453759e6 30237.08147043371 0.0
0.0 0.0 0.0

145188.1194581907 3.8183822681337018e6 0.0
3.8183822681337018e6 425941.49489579786 0.0
0.0 0.0 0.0

-1.4628686712819121e6 1.668782183284105e6 0.0
1.668782183284105e6 470325.91052288515 0.0
0.0 0.0 0.0

348689.1578411561 -9978.850201715082 0.0
-9978.850201715082 -236091.9939427266 0.0
0.0 0.0 0.0

-458777.0205431971 2.595674610153856e6 0.0
2.595674610153856e6 98721.987679782 0.0
0.0 0.0 0.0

-418963.72460137226 1.7698611863032065e6 0.0
1.7698611863032065e6 -204774.44515474647 0.0
0.0 0.0 0.0

-1.3387570626219464e6 1.199957554041906e6 0.0
1.199957554041906e6 349413.8408038586 0.0
0.0 0.0 0.0

197428.72172003283 1.1976674105000282e6 0.0
1.1976674105000282e6 -725387.1213748878 0.0
0.0 0.0 0.0

51185.747070123616 1.9945343277275006e6 0.0
1.9945343277275006e6 -447650.1367267622 0.0
0.0 0.0 0.0

20935.819395436323 1.1399182042056976e6 0.0
1.1399182042056976e6 -718505.6110543978 0.0
0.0 0.0 0.0

-1.3967417340898346e6 1.4349681207020218e6 0.0
1.4349681207020218e6 474470.6750340394 0.0
0.0 0.0 0.0

-514009.667651511 3.5992742226527114e6 0.0
3.5992742226527114e6 608200.7146897262 0.0
0.0 0.0 0.0

-276971.6777518146 1.8573785434841258e6 0.0
1.8573785434841258e6 -113860.93484311493 0.0
0.0 0.0 0.0

560085.820683016 902712.8602942036 0.0
902712.8602942036 -1.0161352223561989e6 0.0
0.0 0.0 0.0

-651479.505501423 -94773.27533351791 0.0
-94773.27533351791 766345.913015018 0.0
0.0 0.0 0.0

-661202.1882524721 3.4739819246992003e6 0.0
3.4739819246992003e6 309779.52111277985 0.0
0.0 0.0 0.0

-278863.5859480343 3.210621074763858e6 0.0
3.210621074763858e6 120524.61333511567 0.0
0.0 0.0 0.0

99849.425575014 1.216719656057492e6 0.0
1.216719656057492e6 -758785.7239269445 0.0
0.0 0.0 0.0

-563889.0687757974 1.618195743045092e6 0.0
1.618195743045092e6 42871.759354034555 0.0
0.0 0.0 0.0

-351100.75188397785 6.421521812523039e6 0.0
6.421521812523039e6 -167294.27857840928 0.0
0.0 0.0 0.0

-212175.98807616407 1.9809575227607589e6 0.0
1.9809575227607589e6 -199317.9049910665 0.0
0.0 0.0 0.0

-694185.1427015266 1.569822964623549e6 0.0
1.569822964623549e6 79258.99532447802 0.0
0.0 0.0 0.0

-254326.1024256685 661238.4401284765 0.0
661238.4401284765 67480.38855823127 0.0
0.0 0.0 0.0

-298960.730136026 2.42889928782159e6 0.0
2.42889928782159e6 -142099.61769565602 0.0
0.0 0.0 0.0

-655145.7319890953 1.7000639079356797e6 0.0
1.7000639079356797e6 152889.52200352628 0.0
0.0 0.0 0.0

188297.38595878315 1.2218040286460407e6 0.0
1.2218040286460407e6 -756782.2998805358 0.0
0.0 0.0 0.0

1.1520163163872915e6 537003.3552852988 0.0
537003.3552852988 -1.506061391210671e6 0.0
0.0 0.0 0.0

22207.180406715313 1.1854078924320752e6 0.0
1.1854078924320752e6 -785736.3203482312 0.0
0.0 0.0 0.0

-789080.3658925589 1.858988131621296e6 0.0
1.858988131621296e6 178269.0422038047 0.0
0.0 0.0 0.0

-48441.82267604225 1.996973021627457e6 0.0
1.996973021627457e6 -161472.73987581878 0.0
0.0 0.0 0.0

-61819.25479336078 1.1155406883728912e6 0.0
1.1155406883728912e6 -206064.18038304202 0.0
0.0 0.0 0.0

-750997.3793736091 320303.4856717572 0.0
320303.4856717572 757276.3272169736 0.0
0.0 0.0 0.0

-352072.39125774184 2.523725695533648e6 0.0
2.523725695533648e6 -264300.78754893044 0.0
0.0 0.0 0.0

48405.102192042046 1.836429175029551e6 0.0
1.836429175029551e6 1.0884360859613884e6 0.0
0.0 0.0 0.0

-551956.3568036488 -140080.16683447806 0.0
-140080.16683447806 527859.4873620141 0.0
0.0 0.0 0.0

1.3645650413040826e6 626860.018353431 0.0
626860.018353431 -1.800019308165839e6 0.0
0.0 0.0 0.0

56890.40186284535 1.2694583313117672e6 0.0
1.2694583313117672e6 -792332.1056082187 0.0
0.0 0.0 0.0

-663430.0669878052 1.6201161352588984e6 0.0
1.6201161352588984e6 88624.07440999555 0.0
0.0 0.0 0.0

271046.22808392416 3.282671748770325e6 0.0
3.282671748770325e6 -411363.3735329337 0.0
0.0 0.0 0.0

79464.93468137694 56708.922173349565 0.0
56708.922173349565 -109381.83278303707 0.0
0.0 0.0 0.0

-723124.6256761164 1.890051676830528e6 0.0
1.890051676830528e6 105274.88961935171 0.0
0.0 0.0 0.0

-237484.57036278863 2.0960044847930295e6 0.0
2.0960044847930295e6 -68984.367919489 0.0
0.0 0.0 0.0

-1.5788776077157792e6 1.3091224048130757e6 0.0
1.3091224048130757e6 632092.5467853582 0.0
0.0 0.0 0.0

1.2936716473887477e6 632819.0470072189 0.0
632819.0470072189 -1.744727290221918e6 0.0
0.0 0.0 0.0

-375703.24685310037 4.543980427695825e6 0.0
4.543980427695825e6 495603.2052451218 0.0
0.0 0.0 0.0

-5.418411556286544e6 -247070.81046427393 0.0
-247070.81046427393 5.699864622152129e6 0.0
0.0 0.0 0.0

-479713.37447578 1.6004895859959568e6 0.0
1.6004895859959568e6 156614.08298991405 0.0
0.0 0.0 0.0

-81988.4182486411 2.0483808971896442e6 0.0
2.0483808971896442e6 -435167.69886503834 0.0
0.0 0.0 0.0

-12199.252861780638 -158746.53595361716 0.0
-158746.53595361716 9209.415996777381 0.0
0.0 0.0 0.0

102163.70308368308 1.1970946309817845e6 0.0
1.1970946309817845e6 157561.05085077195 0.0
0.0 0.0 0.0

-181995.41243507955 2.0549679424247611e6 0.0
2.0549679424247611e6 2305.476936000232 0.0
0.0 0.0 0.0

-203984.08920939933 1.9030482762297075e6 0.0
1.9030482762297075e6 395953.9191957484 0.0
0.0 0.0 0.0

-215802.35554107514 2.114310172046011e6 0.0
2.114310172046011e6 -193324.4827109021 0.0
0.0 0.0 0.0

-285256.1176746174 2.9436013561355285e6 0.0
2.9436013561355285e6 913.3457174087089 0.0
0.0 0.0 0.0

-225243.0382911914 1.830593621633994e6 0.0
1.830593621633994e6 -281881.4592629032 0.0
0.0 0.0 0.0

147055.75847693277 1.2508816956127821e6 0.0
1.2508816956127821e6 -774415.2142879053 0.0
0.0 0.0 0.0

-124463.79680248362 967189.7248656808 0.0
967189.7248656808 -258007.01226280638 0.0
0.0 0.0 0.0

-345173.2248827993 716350.8919292593 0.0
716350.8919292593 557068.7921125484 0.0
0.0 0.0 0.0

161436.33852033285 -8669.9515918917 0.0
-8669.9515918917 -145761.38437415287 0.0
0.0 0.0 0.0

-344302.05276433984 1.7553430627066628e6 0.0
1.7553430627066628e6 -72667.82073449309 0.0
0.0 0.0 0.0

-411046.8367475349 1.7087704783254256e6 0.0
1.7087704783254256e6 63603.39131596428 0.0
0.0 0.0 0.0

-284259.22561844555 4.713071335931442e6 0.0
4.713071335931442e6 362514.0504489504 0.0
0.0 0.0 0.0

-101377.43003509728 28229.46424755687 0.0
28229.46424755687 53759.1173340395 0.0
0.0 0.0 0.0

168490.51176112745 1.2421213463680856e6 0.0
1.2421213463680856e6 -760882.929311117 0.0
0.0 0.0 0.0

-522292.943173948 1.6828811599497392e6 0.0
1.6828811599497392e6 105007.15772431999 0.0
0.0 0.0 0.0

-248484.22087998624 1.8531745581015307e6 0.0
1.8531745581015307e6 -267974.5926676337 0.0
0.0 0.0 0.0

-538538.0865294841 3.4939846970477467e6 0.0
3.4939846970477467e6 39852.327043534635 0.0
0.0 0.0 0.0

263645.68278646254 -104505.3318042488 0.0
-104505.3318042488 -307553.4869371573 0.0
0.0 0.0 0.0

-797737.2147700546 1.5931842768081343e6 0.0
1.5931842768081343e6 125935.10556149221 0.0
0.0 0.0 0.0

-876832.7644445201 2.6406559246229855e6 0.0
2.6406559246229855e6 158058.77011371305 0.0
0.0 0.0 0.0

60576.42891121993 1.6743221682182082e6 0.0
1.6743221682182082e6 372546.078129777 0.0
0.0 0.0 0.0

-481590.5119962745 -341633.67647351313 0.0
-341633.67647351313 519337.80131237453 0.0
0.0 0.0 0.0

-217066.56282330534 2.2535801823599413e6 0.0
2.2535801823599413e6 -65851.0905117914 0.0
0.0 0.0 0.0

993670.2777874797 928914.3382040351 0.0
928914.3382040351 -1.6127644741291371e6 0.0
0.0 0.0 0.0

-736354.6491193072 5.594428450780496e6 0.0
5.594428450780496e6 255532.1856862827 0.0
0.0 0.0 0.0

-214546.0530256561 1.8976622466304004e6 0.0
1.8976622466304004e6 81436.52518348827 0.0
0.0 0.0 0.0

746649.3943653894 64332.357089272686 0.0
64332.357089272686 -1.0730997932577003e6 0.0
0.0 0.0 0.0

-51472.6052939518 2.232494616371697e6 0.0
2.232494616371697e6 -334980.47636750387 0.0
0.0 0.0 0.0

794323.5929844255 1.039404814284955e6 0.0
1.039404814284955e6 -1.3960369810245184e6 0.0
0.0 0.0 0.0

-59602.07172167965 1.4647611263187295e6 0.0
1.4647611263187295e6 -606943.131491074 0.0
0.0 0.0 0.0

-1.2368636567839563e6 1.740859940220119e6 0.0
1.740859940220119e6 343575.7335722383 0.0
0.0 0.0 0.0

-100245.64505611012 2.0009605117734151e6 0.0
2.0009605117734151e6 -334152.1521589084 0.0
0.0 0.0 0.0

-141514.9269178591 2.241786366744856e6 0.0
2.241786366744856e6 31523.440037524357 0.0
0.0 0.0 0.0

-533897.1480059184 1.4476793693553e6 0.0
1.4476793693553e6 108699.48561902257 0.0
0.0 0.0 0.0

-305615.6138106981 2.4743188967390745e6 0.0
2.4743188967390745e6 39920.572412391164 0.0
0.0 0.0 0.0

-166150.49093046872 2.6740323353172103e6 0.0
2.6740323353172103e6 30764.12855325095 0.0
0.0 0.0 0.0

-214476.43330760533 1.9631533947812978e6 0.0
1.9631533947812978e6 182396.11347955122 0.0
0.0 0.0 0.0

-111382.04342683805 2.2269069760810984e6 0.0
2.2269069760810984e6 -145423.73684970263 0.0
0.0 0.0 0.0

-3.55268028543885e6 -79419.8782257056 0.0
-79419.8782257056 5.393275513913885e6 0.0
0.0 0.0 0.0

-553991.9001905606 3.4712086190623874e6 0.0
3.4712086190623874e6 79771.7905772239 0.0
0.0 0.0 0.0

14452.203126241686 1.8398302070017068e6 0.0
1.8398302070017068e6 -705022.6794191604 0.0
0.0 0.0 0.0

-206943.9579241894 2.1560812610976757e6 0.0
2.1560812610976757e6 -322966.67666733335 0.0
0.0 0.0 0.0

-187172.86955326563 2.0319080263509587e6 0.0
2.0319080263509587e6 67119.04986218565 0.0
0.0 0.0 0.0

-250191.12514687888 2.0196140331447716e6 0.0
2.0196140331447716e6 -6001.522035469854 0.0
0.0 0.0 0.0

-164332.82171026044 1.8925915203022321e6 0.0
1.8925915203022321e6 -547776.0780955917 0.0
0.0 0.0 0.0

-842450.884056282 1.8683003704052696e6 0.0
1.8683003704052696e6 172916.57703880395 0.0
0.0 0.0 0.0

-137296.28399217472 2.110545896765721e6 0.0
2.110545896765721e6 -169506.22035088763 0.0
0.0 0.0 0.0

-2.150176049704815e6 -474849.81136227964 0.0
-474849.81136227964 2.765101666272012e6 0.0
0.0 0.0 0.0

75658.18631371959 120043.36698994994 0.0
120043.36698994994 -111387.51032852253 0.0
0.0 0.0 0.0

-285417.3457392067 2.0328797183044336e6 0.0
2.0328797183044336e6 -220777.0301421953 0.0
0.0 0.0 0.0

-1.1175020513518301e6 1.069624585039906e6 0.0
1.069624585039906e6 177091.4662751978 0.0
0.0 0.0 0.0

308913.5986909446 -37616.09346736559 0.0
-37616.09346736559 -277671.6886336528 0.0
0.0 0.0 0.0

-2.221780221580975e6 -288821.7577871654 0.0
-288821.7577871654 2.307546374657986e6 0.0
0.0 0.0 0.0

-420152.281184716 214782.51626189143 0.0
214782.51626189143 400304.4286020546 0.0
0.0 0.0 0.0

-522749.52714735776 252717.21194240532 0.0
252717.21194240532 231598.26612149153 0.0
0.0 0.0 0.0

-88515.01863830627 1.477256500126581e6 0.0
1.477256500126581e6 -868395.4974712122 0.0
0.0 0.0 0.0

-816443.6972928158 2.640511621203136e6 0.0
2.640511621203136e6 140516.64618865546 0.0
0.0 0.0 0.0

-290820.60756738053 2.0212949168572933e6 0.0
2.0212949168572933e6 59791.49512214749 0.0
0.0 0.0 0.0

-278013.0045886586 1.7929399418220473e6 0.0
1.7929399418220473e6 184268.3617839686 0.0
0.0 0.0 0.0

-3965.1919134435884 1.1372208008205772e6 0.0
1.1372208008205772e6 -672921.1594716249 0.0
0.0 0.0 0.0

-123322.66001945047 1.4493252130752485e6 0.0
1.4493252130752485e6 288575.05955024424 0.0
0.0 0.0 0.0

177067.66665947568 2.236216701726835e6 0.0
2.236216701726835e6 -529715.1100973849 0.0
0.0 0.0 0.0

-230412.28872978996 2.1018321817420237e6 0.0
2.1018321817420237e6 -143205.879719372 0.0
0.0 0.0 0.0

775596.9026619592 1.2132224372784898e6 0.0
1.2132224372784898e6 -1.4292013579691863e6 0.0
0.0 0.0 0.0

766133.4113737312 991431.8517969361 0.0
991431.8517969361 -1.33394271569605e6 0.0
0.0 0.0 0.0

-206746.5941051051 2.3695124568923526e6 0.0
2.3695124568923526e6 -28360.240670992243 0.0
0.0 0.0 0.0

-646486.3353898043 1.9809037630788647e6 0.0
1.9809037630788647e6 144262.153002299 0.0
0.0 0.0 0.0

-449390.6688013171 1.5807561686892202e6 0.0
1.5807561686892202e6 100754.12364458808 0.0
0.0 0.0 0.0

33619.62000242194 1.2270373352495376e6 0.0
1.2270373352495376e6 -317963.3659587974 0.0
0.0 0.0 0.0

-147603.73545907403 1.0818459734119808e6 0.0
1.0818459734119808e6 210899.6901715441 0.0
0.0 0.0 0.0

-226240.87759482398 1.7315697854904584e6 0.0
1.7315697854904584e6 -288600.7324575326 0.0
0.0 0.0 0.0

-157128.54409676007 3.4524404307500934e6 0.0
3.4524404307500934e6 316744.19247377024 0.0
0.0 0.0 0.0

-4.229013769127348e6 259003.2418260281 0.0
259003.2418260281 6.454114974455589e6 0.0
0.0 0.0 0.0

-64043.62903933524 2.332636739364982e6 0.0
2.332636739364982e6 -131627.9858367667 0.0
0.0 0.0 0.0

-498500.2618141924 1.6977266258768123e6 0.0
1.6977266258768123e6 51218.963212981966 0.0
0.0 0.0 0.0

-104181.4087127764 1.169332714194728e6 0.0
1.169332714194728e6 -577114.5588187489 0.0
0.0 0.0 0.0

-2.859518707273065e6 -255596.96446334213 0.0
-255596.96446334213 2.8945859263509763e6 0.0
0.0 0.0 0.0

-194348.6983150312 2.2347157611325183e6 0.0
2.2347157611325183e6 -171534.83735283944 0.0
0.0 0.0 0.0

-305968.51453002053 2.3032609034421872e6 0.0
2.3032609034421872e6 -251595.43089750689 0.0
0.0 0.0 0.0

37628.61562407651 1.4898206189757697e6 0.0
1.4898206189757697e6 -739303.373911977 0.0
0.0 0.0 0.0

831978.7096067207 860445.4262045467 0.0
860445.4262045467 -1.4649035435503395e6 0.0
0.0 0.0 0.0

559304.7875394613 878300.7181477747 0.0
878300.7181477747 -1.2227015426994264e6 0.0
0.0 0.0 0.0

249803.69630707736 1.5335559805746023e6 0.0
1.5335559805746023e6 -836437.1089740682 0.0
0.0 0.0 0.0

-743562.925295732 1.7713448572240279e6 0.0
1.7713448572240279e6 157885.9886773707 0.0
0.0 0.0 0.0

-253283.41528502718 2.2089653260269007e6 0.0
2.2089653260269007e6 61627.890036192985 0.0
0.0 0.0 0.0

-120700.85026372533 1.6417525188959031e6 0.0
1.6417525188959031e6 -350518.92824117566 0.0
0.0 0.0 0.0

61858.186997299716 4.1886490402799672e6 0.0
4.1886490402799672e6 391312.9106616333 0.0
0.0 0.0 0.0

-1.6990881639233332e6 -272519.2174122498 0.0
-272519.2174122498 2.187188429344099e6 0.0
0.0 0.0 0.0

772239.1257144724 1.039550294302119e6 0.0
1.039550294302119e6 -1.3979335183062016e6 0.0
0.0 0.0 0.0

665431.6224461563 913708.7322807971 0.0
913708.7322807971 -1.109474726856814e6 0.0
0.0 0.0 0.0

-4.1666636316853454e6 -240691.81967862678 0.0
-240691.81967862678 6.017439532897299e6 0.0
0.0 0.0 0.0

-225837.87523603407 3.1497546173321465e6 0.0
3.1497546173321465e6 355083.2636331238 0.0
0.0 0.0 0.0

-1.8397063630660847e6 -183797.00092724836 0.0
-183797.00092724836 2.4783926047268817e6 0.0
0.0 0.0 0.0

-274315.70579288143 -153272.6712126642 0.0
-153272.6712126642 399706.271326846 0.0
0.0 0.0 0.0

-846142.620834077 1.9982381682800534e6 0.0
1.9982381682800534e6 195546.66032786103 0.0
0.0 0.0 0.0

184808.20713988575 1.0463666123682449e6 0.0
1.0463666123682449e6 -1.081890877816998e6 0.0
0.0 0.0 0.0

-896602.2856769536 1.6763268495552847e6 0.0
1.6763268495552847e6 146856.7253934883 0.0
0.0 0.0 0.0

-1.660318357453966e6 85159.61867145766 0.0
85159.61867145766 2.389162706368135e6 0.0
0.0 0.0 0.0

94057.08460948037 62409.9824017025 0.0
62409.9824017025 -111494.01266341246 0.0
0.0 0.0 0.0

-347644.37165499455 4.607415966280531e6 0.0
4.607415966280531e6 447837.6777145874 0.0
0.0 0.0 0.0

-194769.5215038245 1.9412427060415244e6 0.0
1.9412427060415244e6 146308.67925811675 0.0
0.0 0.0 0.0

-433916.0481289538 3.634859668690502e6 0.0
3.634859668690502e6 664920.0497151631 0.0
0.0 0.0 0.0

-308989.0643392989 1.8442764650250126e6 0.0
1.8442764650250126e6 -119.51804390296456 0.0
0.0 0.0 0.0

22049.115407692414 1.2017444458457262e6 0.0
1.2017444458457262e6 -731337.6168542136 0.0
0.0 0.0 0.0

-216680.67499804348 2.8910518204960525e6 0.0
2.8910518204960525e6 24327.86048079765 0.0
0.0 0.0 0.0

-203233.68126475817 1.6614650124665487e6 0.0
1.6614650124665487e6 1.2997113359142414e6 0.0
0.0 0.0 0.0

-1.069240344916417e6 -311275.2288202243 0.0
-311275.2288202243 1.034784172624093e6 0.0
0.0 0.0 0.0

-342427.2817854849 1.1054860457141853e6 0.0
1.1054860457141853e6 -95372.62554922116 0.0
0.0 0.0 0.0

6361.737008946782 1.903993948526234e6 0.0
1.903993948526234e6 21205.815020465845 0.0
0.0 0.0 0.0

67375.52555785347 1.160003193956218e6 0.0
1.160003193956218e6 224585.09099714403 0.0
0.0 0.0 0.0

-715828.7434298842 5.744917641085891e6 0.0
5.744917641085891e6 181957.2863874211 0.0
0.0 0.0 0.0

500412.5656975598 262594.26108702575 0.0
262594.26108702575 -1.1508984673559526e6 0.0
0.0 0.0 0.0

-1.1176688107165038e6 1.8609975394185518e6 0.0
1.8609975394185518e6 214904.6708711256 0.0
0.0 0.0 0.0

-1.5239708039191212e6 -44635.74278834145 0.0
-44635.74278834145 1.8015195922368933e6 0.0
0.0 0.0 0.0

-236774.17010997017 2.194277271423128e6 0.0
2.194277271423128e6 -285311.86877650354 0.0
0.0 0.0 0.0

-2.7008132782540782e6 119567.9198721846 0.0
119567.9198721846 2.643452612631657e6 0.0
0.0 0.0 0.0

-194422.00419230157 1.8863618493979166e6 0.0
1.8863618493979166e6 -217169.17903915816 0.0
0.0 0.0 0.0

-271108.7336547965 1.9360923811388756e6 0.0
1.9360923811388756e6 16291.04669973912 0.0
0.0 0.0 0.0

-847707.1419995415 3.072396754868623e6 0.0
3.072396754868623e6 158177.91258745163 0.0
0.0 0.0 0.0

-200952.9055672441 2.0131870127264862e6 0.0
2.0131870127264862e6 -192135.6065648823 0.0
0.0 0.0 0.0

1.3475999227055726e6 617983.4904615824 0.0
617983.4904615824 -1.7752530717867448e6 0.0
0.0 0.0 0.0

-164422.78201043038 1.4123897506387825e6 0.0
1.4123897506387825e6 -548075.8758275951 0.0
0.0 0.0 0.0

-159075.47161915747 3.5789877714873664e6 0.0
3.5789877714873664e6 378794.31196470733 0.0
0.0 0.0 0.0

-149674.86912229995 1.5807632221190808e6 0.0
1.5807632221190808e6 -398321.61928047345 0.0
0.0 0.0 0.0

-352157.2137211035 1.8739327127012825e6 0.0
1.8739327127012825e6 343379.917046951 0.0
0.0 0.0 0.0

720774.0298871251 983885.2910801226 0.0
983885.2910801226 -1.3230277257067682e6 0.0
0.0 0.0 0.0

-554173.891897664 3.512211509109642e6 0.0
3.512211509109642e6 543348.4392294593 0.0
0.0 0.0 0.0

-231332.43539713413 2.2896818352548666e6 0.0
2.2896818352548666e6 596946.6157659166 0.0
0.0 0.0 0.0

-126767.77196933591 5.480634170102459e6 0.0
5.480634170102459e6 9255.868719779734 0.0
0.0 0.0 0.0

679023.9113680976 938823.2892101167 0.0
938823.2892101167 -1.2190278197440277e6 0.0
0.0 0.0 0.0

-1.1635758064655766e6 -61028.08295959528 0.0
-61028.08295959528 1.5661441507068272e6 0.0
0.0 0.0 0.0

192069.25659344008 2.0519884982906093e6 0.0
2.0519884982906093e6 -223987.01705727674 0.0
0.0 0.0 0.0

-1.0355251916969909e6 1.71833137151465e6 0.0
1.71833137151465e6 197946.11221431685 0.0
0.0 0.0 0.0

-410644.86850366177 2.8224395329664564e6 0.0
2.8224395329664564e6 355574.24877504585 0.0
0.0 0.0 0.0

-481198.8191578498 1.7084250463157902e6 0.0
1.7084250463157902e6 85100.39726590549 0.0
0.0 0.0 0.0

-6.199443805201793e6 -238758.39243872036 0.0
-238758.39243872036 6.510898069124506e6 0.0
0.0 0.0 0.0

-144680.1172684066 2.1496506342999684e6 0.0
2.1496506342999684e6 -424897.56274778175 0.0
0.0 0.0 0.0

-483474.6662676983 4.591634512656242e6 0.0
4.591634512656242e6 418698.43662242166 0.0
0.0 0.0 0.0

-66540.41878988821 1.526962175875799e6 0.0
1.526962175875799e6 -89346.35087030682 0.0
0.0 0.0 0.0

-1.5807243083455488e6 155023.41236771323 0.0
155023.41236771323 1.1792953990314533e6 0.0
0.0 0.0 0.0

-273569.35123524035 1.8500528934928095e6 0.0
1.8500528934928095e6 -314074.0921794036 0.0
0.0 0.0 0.0

-47830.875899676976 -22240.279270334715 0.0
-22240.279270334715 25990.9212808076 0.0
0.0 0.0 0.0

-1.9648747479600888e6 351318.6806057228 0.0
351318.6806057228 3.00877879704143e6 0.0
0.0 0.0 0.0

-805424.5914401145 1.8360577291170112e6 0.0
1.8360577291170112e6 181156.38441269886 0.0
0.0 0.0 0.0

-1.1912227323647807e6 1.8171653146806005e6 0.0
1.8171653146806005e6 258549.7094976775 0.0
0.0 0.0 0.0

-2.2371238981364793e6 -56860.37574458841 0.0
-56860.37574458841 3.202983264030436e6 0.0
0.0 0.0 0.0

-215115.61033888898 2.0861919564846966e6 0.0
2.0861919564846966e6 -120116.00706798701 0.0
0.0 0.0 0.0

-250410.57834608527 2.9749259635301325e6 0.0
2.9749259635301325e6 51804.73350731761 0.0
0.0 0.0 0.0

-26363.07969614395 1.5340232709650379e6 0.0
1.5340232709650379e6 -567395.6624403485 0.0
0.0 0.0 0.0

146505.8351065818 1.373941045613405e6 0.0
1.373941045613405e6 141496.92550333077 0.0
0.0 0.0 0.0

-938248.740987782 1.8549717156506537e6 0.0
1.8549717156506537e6 159691.12698966585 0.0
0.0 0.0 0.0

-618371.5957364683 446825.24899364036 0.0
446825.24899364036 504181.3625589949 0.0
0.0 0.0 0.0

614327.6240896918 940231.8494606575 0.0
940231.8494606575 -1.2235116122813798e6 0.0
0.0 0.0 0.0

-831207.5194442951 1.2531187838880538e6 0.0
1.2531187838880538e6 94194.23047645163 0.0
0.0 0.0 0.0

-463851.3674835439 3.9503617441821205e6 0.0
3.9503617441821205e6 647652.124921581 0.0
0.0 0.0 0.0

1.2041495924352058e6 744251.409027059 0.0
744251.409027059 -1.712299006842989e6 0.0
0.0 0.0 0.0

-94386.87928297625 2.1213822674218537e6 0.0
2.1213822674218537e6 328068.679542847 0.0
0.0 0.0 0.0

-778996.4933886995 2.0538077529423735e6 0.0
2.0538077529423735e6 117217.92092607461 0.0
0.0 0.0 0.0

-218606.69017153926 2.1804551006199303e6 0.0
2.1804551006199303e6 -265199.2215665968 0.0
0.0 0.0 0.0

-936956.026703883 1.6157221694092753e6 0.0
1.6157221694092753e6 173787.08983489097 0.0
0.0 0.0 0.0

-948109.9768057796 3.09797577573164e6 0.0
3.09797577573164e6 206832.60836019355 0.0
0.0 0.0 0.0

-828369.2977763432 1.7973878117618836e6 0.0
1.7973878117618836e6 191778.62939728342 0.0
0.0 0.0 0.0

-7289.095637498522 135175.08963794936 0.0
135175.08963794936 -68029.449761882 0.0
0.0 0.0 0.0

7990.633925997041 1.546514771740481e6 0.0
1.546514771740481e6 -244049.90195573977 0.0
0.0 0.0 0.0

-109072.21537528411 1.477816973988299e6 0.0
1.477816973988299e6 -560299.942344054 0.0
0.0 0.0 0.0

-302124.08806221106 1.8602746119061273e6 0.0
1.8602746119061273e6 -329891.940924071 0.0
0.0 0.0 0.0

-208051.88356705848 1.866970021503562e6 0.0
1.866970021503562e6 -388539.570087784 0.0
0.0 0.0 0.0

51936.565646356175 402451.5220427861 0.0
402451.5220427861 -756183.2763897816 0.0
0.0 0.0 0.0

-244520.13707514212 3.1626216687341738e6 0.0
3.1626216687341738e6 1.2065085824040323e6 0.0
0.0 0.0 0.0

-267746.9394690442 -204207.03244404908 0.0
-204207.03244404908 407412.5516934731 0.0
0.0 0.0 0.0

-6053.854350088433 1.4903447487473695e6 0.0
1.4903447487473695e6 33772.98946155265 0.0
0.0 0.0 0.0

-741468.4899490529 1.866534347670535e6 0.0
1.866534347670535e6 159776.39189182036 0.0
0.0 0.0 0.0

-20526.318769664416 1.5083692827964053e6 0.0
1.5083692827964053e6 -671015.803049434 0.0
0.0 0.0 0.0

-404711.9442719667 4.483101069565173e6 0.0
4.483101069565173e6 520468.8639955844 0.0
0.0 0.0 0.0

-85975.51014484867 2.218519245658899e6 0.0
2.218519245658899e6 -335761.71966152743 0.0
0.0 0.0 0.0

416196.1096367472 909700.401858357 0.0
909700.401858357 -863202.4868178873 0.0
0.0 0.0 0.0

-480879.2350269495 3.663482937649172e6 0.0
3.663482937649172e6 620737.8591651629 0.0
0.0 0.0 0.0

-145523.16378346953 1.6027017666705921e6 0.0
1.6027017666705921e6 -512939.3297133671 0.0
0.0 0.0 0.0

516552.39344280923 -46231.845228119004 0.0
-46231.845228119004 -834136.5538779136 0.0
0.0 0.0 0.0

-158329.20278682138 2.002358439208003e6 0.0
2.002358439208003e6 293994.0300760747 0.0
0.0 0.0 0.0

-200798.47338587744 1.9765408866518112e6 0.0
1.9765408866518112e6 23890.845227726022 0.0
0.0 0.0 0.0

-764721.3360907878 1.8706380888069726e6 0.0
1.8706380888069726e6 166260.42694857 0.0
0.0 0.0 0.0

-60858.87321823924 2.355659979432606e6 0.0
2.355659979432606e6 -201313.75077899417 0.0
0.0 0.0 0.0

56648.851434398 -218118.72532050335 0.0
-218118.72532050335 -66487.31548177118 0.0
0.0 0.0 0.0

-1.5580602149040732e6 -62689.951716077594 0.0
-62689.951716077594 1.5408668376357148e6 0.0
0.0 0.0 0.0

-220336.24554021418 2.0155603367848604e6 0.0
2.0155603367848604e6 -337718.0244365158 0.0
0.0 0.0 0.0

696619.2044001243 1.4695739434293858e6 0.0
1.4695739434293858e6 -1.1530625195655995e6 0.0
0.0 0.0 0.0

-64470.22590252927 -260703.8889734071 0.0
-260703.8889734071 -74714.39349391389 0.0
0.0 0.0 0.0

176186.50971875244 -19557.23566256789 0.0
-19557.23566256789 -100960.78092848451 0.0
0.0 0.0 0.0

-127302.69186592454 876033.2493776752 0.0
876033.2493776752 -216124.89528629475 0.0
0.0 0.0 0.0

-515816.8790012577 4.1873815358827123e6 0.0
4.1873815358827123e6 626992.4651886113 0.0
0.0 0.0 0.0

340689.68468972907 1.106691517812253e6 0.0
1.106691517812253e6 -913054.7878796263 0.0
0.0 0.0 0.0

145322.2038566431 341626.5078126742 0.0
341626.5078126742 -483009.4315292124 0.0
0.0 0.0 0.0

-965473.832551684 2.0038994171004968e6 0.0
2.0038994171004968e6 196899.54632730165 0.0
0.0 0.0 0.0

-417346.67028228205 3.691163623051191e6 0.0
3.691163623051191e6 665023.6044248501 0.0
0.0 0.0 0.0

-1.8134383913657768e6 1.8363494924848506e6 0.0
1.8363494924848506e6 546546.3713452936 0.0
0.0 0.0 0.0

-859977.751338952 1.8760726794821802e6 0.0
1.8760726794821802e6 168040.39655458357 0.0
0.0 0.0 0.0

-913163.1373530522 1.7449185074677381e6 0.0
1.7449185074677381e6 301785.30324506544 0.0
0.0 0.0 0.0

-149979.69783050392 2.071875993321541e6 0.0
2.071875993321541e6 -192494.9431589269 0.0
0.0 0.0 0.0

586802.9681041786 1.3374874732783034e6 0.0
1.3374874732783034e6 -1.157037514123686e6 0.0
0.0 0.0 0.0

-217636.38397751254 1.856791555929276e6 0.0
1.856791555929276e6 -332292.9876045366 0.0
0.0 0.0 0.0

-1.1196145665815515e6 -242151.72775246474 0.0
-242151.72775246474 1.181833556280276e6 0.0
0.0 0.0 0.0

-2.2282090743724722e6 -422649.89110693114 0.0
-422649.89110693114 2.535405565145856e6 0.0
0.0 0.0 0.0

1.1510632660955833e6 652052.3085637413 0.0
652052.3085637413 -1.6156429341317983e6 0.0
0.0 0.0 0.0

-309258.3595104898 1.7902082231418202e6 0.0
1.7902082231418202e6 48414.23937278717 0.0
0.0 0.0 0.0

-3.754355368908181e6 313815.09003067587 0.0
313815.09003067587 5.753221022827582e6 0.0
0.0 0.0 0.0

-178802.33445538292 1.7325158764448627e6 0.0
1.7325158764448627e6 -449812.2100305852 0.0
0.0 0.0 0.0

-7.031873853567524e6 439827.5586948136 0.0
439827.5586948136 7.270028229833255e6 0.0
0.0 0.0 0.0

-548871.9183628629 3.9191082446206505e6 0.0
3.9191082446206505e6 598737.9485781079 0.0
0.0 0.0 0.0

-766418.8922330028 5.212507646724068e6 0.0
5.212507646724068e6 351757.2847206449 0.0
0.0 0.0 0.0

-22509.498145933103 2.201331714116251e6 0.0
2.201331714116251e6 -358382.76458667504 0.0
0.0 0.0 0.0

136635.6003988475 14459.36774748259 0.0
14459.36774748259 -84764.24443772351 0.0
0.0 0.0 0.0

89729.10831477534 2.301703554127063e6 0.0
2.301703554127063e6 -232975.08199984222 0.0
0.0 0.0 0.0

-116408.23722710124 873584.2274696802 0.0
873584.2274696802 -212897.93940701624 0.0
0.0 0.0 0.0

1.2996563405078533e6 578042.7301462023 0.0
578042.7301462023 -1.69624765035109e6 0.0
0.0 0.0 0.0

-227418.11923123358 2.8655277662592838e6 0.0
2.8655277662592838e6 26858.789604061516 0.0
0.0 0.0 0.0

-933233.0178931516 713307.3050534417 0.0
713307.3050534417 574867.1036362967 0.0
0.0 0.0 0.0

-740507.1384432039 1.3148144481535228e6 0.0
1.3148144481535228e6 -28802.23764524306 0.0
0.0 0.0 0.0

-1.0263598827070126e6 2.369282824629989e6 0.0
2.369282824629989e6 280847.01896451303 0.0
0.0 0.0 0.0

-392084.82186011306 2.380320835531713e6 0.0
2.380320835531713e6 -109674.43471467367 0.0
0.0 0.0 0.0

-257090.5381400782 1.946910403639419e6 0.0
1.946910403639419e6 -163963.6427789065 0.0
0.0 0.0 0.0

-971424.9071907199 4.675430240257008e6 0.0
4.675430240257008e6 470124.3340982588 0.0
0.0 0.0 0.0

-163917.7504915344 1.899867579524132e6 0.0
1.899867579524132e6 595161.5089034704 0.0
0.0 0.0 0.0

-133907.3078891518 2.310241072015895e6 0.0
2.310241072015895e6 -137750.10979638857 0.0
0.0 0.0 0.0

-250062.35675919967 2.270392022299134e6 0.0
2.270392022299134e6 74809.40400840112 0.0
0.0 0.0 0.0

-1.2481122982310557e6 2.2712027481281525e6 0.0
2.2712027481281525e6 344524.10111917317 0.0
0.0 0.0 0.0

-223261.36746638536 -93137.41144500782 0.0
-93137.41144500782 165564.0096842511 0.0
0.0 0.0 0.0

1.1327440608814633e6 577402.2220237609 0.0
577402.2220237609 -1.4413002307698128e6 0.0
0.0 0.0 0.0

-1.0311597008693629e6 4.410338947207771e6 0.0
4.410338947207771e6 483156.0316603847 0.0
0.0 0.0 0.0

-59283.75629436008 1.484086673428116e6 0.0
1.484086673428116e6 -570320.0486931492 0.0
0.0 0.0 0.0

-298585.54775922315 -178869.91981865582 0.0
-178869.91981865582 211366.69155938982 0.0
0.0 0.0 0.0

-391903.19363992196 1.6453247950783577e6 0.0
1.6453247950783577e6 -70320.5804662126 0.0
0.0 0.0 0.0

-468379.0618385801 1.9008247831738e6 0.0
1.9008247831738e6 143094.78535012255 0.0
0.0 0.0 0.0

256966.28426944494 1.2092330752836117e6 0.0
1.2092330752836117e6 -803125.0528331463 0.0
0.0 0.0 0.0

-267318.4566424195 2.903124358021546e6 0.0
2.903124358021546e6 1.135255581986485e6 0.0
0.0 0.0 0.0

-34440.69261235293 262318.9651999275 0.0
262318.9651999275 -298710.51836834155 0.0
0.0 0.0 0.0

80170.15503585077 -208840.39940169253 0.0
-208840.39940169253 6052.90778855226 0.0
0.0 0.0 0.0

-304399.7659083982 4.651863550230044e6 0.0
4.651863550230044e6 420675.21837930626 0.0
0.0 0.0 0.0

-9961.950222572843 -42611.99190641473 0.0
-42611.99190641473 51510.83560295025 0.0
0.0 0.0 0.0

-227429.39300008188 2.299423806664778e6 0.0
2.299423806664778e6 -198540.80839178897 0.0
0.0 0.0 0.0

-262304.5902861351 1.900993091480048e6 0.0
1.900993091480048e6 -234389.64272263958 0.0
0.0 0.0 0.0

-299203.7808658003 4.289506493227415e6 0.0
4.289506493227415e6 333988.3605223895 0.0
0.0 0.0 0.0

-138374.01135401078 2.1434329864495024e6 0.0
2.1434329864495024e6 -460514.4047986867 0.0
0.0 0.0 0.0

23751.35978872265 1.4990358656829111e6 0.0
1.4990358656829111e6 806677.6559245738 0.0
0.0 0.0 0.0

-419079.9989292255 1.6851664396505745e6 0.0
1.6851664396505745e6 64567.65547840332 0.0
0.0 0.0 0.0

-494144.3071478624 -182616.34520952526 0.0
-182616.34520952526 713538.6691494306 0.0
0.0 0.0 0.0

-812082.8393815507 4.727249309945344e6 0.0
4.727249309945344e6 510673.99684710184 0.0
0.0 0.0 0.0

106789.60458033862 2.143699017279388e6 0.0
2.143699017279388e6 42839.37406370951 0.0
0.0 0.0 0.0

-91687.68585868532 1.3333820964067343e6 0.0
1.3333820964067343e6 -817329.152117533 0.0
0.0 0.0 0.0

1.2991655093576082e6 650135.244629324 0.0
650135.244629324 -1.692733415724731e6 0.0
0.0 0.0 0.0

-907182.2415859314 3.5317061806328855e6 0.0
3.5317061806328855e6 223904.0490679214 0.0
0.0 0.0 0.0

107864.75048555917 229013.61106719563 0.0
229013.61106719563 -791979.4915665362 0.0
0.0 0.0 0.0

-691987.7421350791 328954.87180871965 0.0
328954.87180871965 965929.9607059469 0.0
0.0 0.0 0.0

17786.29613167385 1.4862574393062314e6 0.0
1.4862574393062314e6 -743821.9746654779 0.0
0.0 0.0 0.0

585228.4834745186 1.195267699082428e6 0.0
1.195267699082428e6 -1.1950697759962822e6 0.0
0.0 0.0 0.0

-798046.2247049742 4.824258971209805e6 0.0
4.824258971209805e6 517729.1660100711 0.0
0.0 0.0 0.0

-89661.43423462674 2.3455689126315867e6 0.0
2.3455689126315867e6 -211876.4542142693 0.0
0.0 0.0 0.0

-2.1278146982652596e6 190253.11740669774 0.0
190253.11740669774 1.5771519077672637e6 0.0
0.0 0.0 0.0

48747.64853462315 1.5676815375135522e6 0.0
1.5676815375135522e6 1.0532001566138922e6 0.0
0.0 0.0 0.0

-2.1543640352016054e6 972285.1301976793 0.0
972285.1301976793 1.1657327974063596e6 0.0
0.0 0.0 0.0

425309.93597382284 896329.1547450918 0.0
896329.1547450918 -1.1729279370644307e6 0.0
0.0 0.0 0.0

110572.94909882387 761869.4572757424 0.0
761869.4572757424 -325173.4689109913 0.0
0.0 0.0 0.0

-300270.0328546339 -52688.14815610629 0.0
-52688.14815610629 400609.0965335906 0.0
0.0 0.0 0.0

637199.0998952915 105894.45827615295 0.0
105894.45827615295 -832547.1818529905 0.0
0.0 0.0 0.0

-382827.08203373186 -116523.51743135368 0.0
-116523.51743135368 566078.0351153441 0.0
0.0 0.0 0.0

-196945.50723200766 -27080.453181593184 0.0
-27080.453181593184 147907.9287508541 0.0
0.0 0.0 0.0

-130170.09912206573 1.854335534578205e6 0.0
1.854335534578205e6 -370842.12567944586 0.0
0.0 0.0 0.0

-181181.77460129204 1.5084751601349732e6 0.0
1.5084751601349732e6 -603939.2374852273 0.0
0.0 0.0 0.0

-169584.773944039 1.7625228526018632e6 0.0
1.7625228526018632e6 -565282.5740600362 0.0
0.0 0.0 0.0

-287309.136059982 1.8377193519520818e6 0.0
1.8377193519520818e6 -267200.1904275036 0.0
0.0 0.0 0.0

-788439.2271855278 4.914424658657741e6 0.0
4.914424658657741e6 477055.69838214805 0.0
0.0 0.0 0.0

283723.5644476948 50532.6809916672 0.0
50532.6809916672 -306404.91635923134 0.0
0.0 0.0 0.0

-245892.78272365825 2.1845798086411757e6 0.0
2.1845798086411757e6 -364336.12844873464 0.0
0.0 0.0 0.0

-626496.376645569 1.7494981196311042e6 0.0
1.7494981196311042e6 130525.36308717579 0.0
0.0 0.0 0.0

849374.5459649962 707597.2517723107 0.0
707597.2517723107 -1.4232692484490678e6 0.0
0.0 0.0 0.0

-111431.19013085894 -65872.45531085186 0.0
-65872.45531085186 211912.88935289875 0.0
0.0 0.0 0.0

-672180.8725786156 4.668298867898067e6 0.0
4.668298867898067e6 533956.5187866667 0.0
0.0 0.0 0.0

-128090.07275884804 2.304687586120258e6 0.0
2.304687586120258e6 -223515.00596360856 0.0
0.0 0.0 0.0

-157513.2255695394 2.2577901934619835e6 0.0
2.2577901934619835e6 -229777.227368968 0.0
0.0 0.0 0.0

-195711.4875877003 2.159379600951033e6 0.0
2.159379600951033e6 80493.72514577859 0.0
0.0 0.0 0.0

-30.32185643743287 1.3092340201759113e6 0.0
1.3092340201759113e6 -68473.18070907307 0.0
0.0 0.0 0.0

-321433.4520364973 2.27334295378312e6 0.0
2.27334295378312e6 -135007.36534079938 0.0
0.0 0.0 0.0

-3.2134199780056765e6 24185.718738258965 0.0
24185.718738258965 3.1261692582981866e6 0.0
0.0 0.0 0.0

-782332.9169104978 -207504.52826873754 0.0
-207504.52826873754 823794.3187009615 0.0
0.0 0.0 0.0

53508.45764552214 1.16054492775161e6 0.0
1.16054492775161e6 -523202.75977174065 0.0
0.0 0.0 0.0

1.208377954443389e6 635875.2055770801 0.0
635875.2055770801 -1.6892515288940514e6 0.0
0.0 0.0 0.0

-199271.29535724243 2.274193519643962e6 0.0
2.274193519643962e6 -278226.83760437975 0.0
0.0 0.0 0.0

-211543.22458267683 2.4043162157432274e6 0.0
2.4043162157432274e6 285456.3982157594 0.0
0.0 0.0 0.0

113287.5750217275 213818.65320734106 0.0
213818.65320734106 -689821.948344973 0.0
0.0 0.0 0.0

136209.50149548647 1.2343533173717302e6 0.0
1.2343533173717302e6 -712516.1728659141 0.0
0.0 0.0 0.0

592290.5252939265 1.1293252431018492e6 0.0
1.1293252431018492e6 -1.1928104282922663e6 0.0
0.0 0.0 0.0

-107329.90186366053 1.1160350498871873e6 0.0
1.1160350498871873e6 -284185.9324573743 0.0
0.0 0.0 0.0

-262846.8383234063 1.8385364758775677e6 0.0
1.8385364758775677e6 56298.37832213912 0.0
0.0 0.0 0.0

-417553.05143483676 2.1815797774111144e6 0.0
2.1815797774111144e6 -114597.44680615651 0.0
0.0 0.0 0.0

-1.4236640674302543e6 -277819.58557251893 0.0
-277819.58557251893 1.9184405374304012e6 0.0
0.0 0.0 0.0

595795.1937294826 1.0884304170324393e6 0.0
1.0884304170324393e6 -1.180838391198073e6 0.0
0.0 0.0 0.0

-3.6679376514135525e6 -81705.62814386394 0.0
-81705.62814386394 3.695095396931654e6 0.0
0.0 0.0 0.0

-172201.91186945754 2.1925860947880223e6 0.0
2.1925860947880223e6 -231664.25661284 0.0
0.0 0.0 0.0

-955428.0618874895 4.882422776559628e6 0.0
4.882422776559628e6 426936.3278862227 0.0
0.0 0.0 0.0

-603885.02331289 1.5451066028218959e6 0.0
1.5451066028218959e6 47381.87277762819 0.0
0.0 0.0 0.0

-454413.5475148575 289351.80382758606 0.0
289351.80382758606 681204.6981959133 0.0
0.0 0.0 0.0

-117252.59033115036 1.630153212213796e6 0.0
1.630153212213796e6 -678541.6089319575 0.0
0.0 0.0 0.0

44199.8843580274 1.755858899990312e6 0.0
1.755858899990312e6 -535749.9372918141 0.0
0.0 0.0 0.0

1.0515421839453564e6 640946.199067537 0.0
640946.199067537 -1.5494548029182306e6 0.0
0.0 0.0 0.0

-255734.70893338628 1.33214703203125e6 0.0
1.33214703203125e6 -140374.16713936167 0.0
0.0 0.0 0.0

-1.2084618257792303e6 20645.30823287908 0.0
20645.30823287908 1.6829265397964418e6 0.0
0.0 0.0 0.0

-257225.5258872622 1.9873496200146258e6 0.0
1.9873496200146258e6 57079.82817052971 0.0
0.0 0.0 0.0

-1.402700582070402e6 860871.4484845345 0.0
860871.4484845345 266793.8448997276 0.0
0.0 0.0 0.0

57149.50735642336 1.5492514811967327e6 0.0
1.5492514811967327e6 -786099.3433998557 0.0
0.0 0.0 0.0

626498.3792508962 800808.166306487 0.0
800808.166306487 -1.2852323419289468e6 0.0
0.0 0.0 0.0

582881.1496446063 1.0618570905105097e6 0.0
1.0618570905105097e6 -1.1460997792581532e6 0.0
0.0 0.0 0.0

173206.57619865175 389240.9887965047 0.0
389240.9887965047 -1.0732541295163482e6 0.0
0.0 0.0 0.0

-376290.038673244 2.6977933080085497e6 0.0
2.6977933080085497e6 258277.38558755192 0.0
0.0 0.0 0.0

-238839.72889481514 2.692136487251049e6 0.0
2.692136487251049e6 -9709.296772238245 0.0
0.0 0.0 0.0

-1.5513743914361896e6 1.46909760020398e6 0.0
1.46909760020398e6 803075.3044113119 0.0
0.0 0.0 0.0

-89801.30422540654 -60483.310174611215 0.0
-60483.310174611215 -34138.49495876827 0.0
0.0 0.0 0.0

-76708.08630844989 1.5974594810332076e6 0.0
1.5974594810332076e6 -500477.0918012839 0.0
0.0 0.0 0.0

-432678.8213891909 573675.9777633712 0.0
573675.9777633712 679766.180739924 0.0
0.0 0.0 0.0

178278.45316443834 12208.66814998879 0.0
12208.66814998879 -121671.0141986207 0.0
0.0 0.0 0.0

1.2065521428480246e6 566723.9816545481 0.0
566723.9816545481 -1.6028877049570377e6 0.0
0.0 0.0 0.0

181006.10708953528 50371.342906614605 0.0
50371.342906614605 -128853.71845429818 0.0
0.0 0.0 0.0

-70136.96616566156 -2767.78050823931 0.0
-2767.78050823931 193152.69026318067 0.0
0.0 0.0 0.0

575231.9146822691 32545.16239536506 0.0
32545.16239536506 -747674.3250242665 0.0
0.0 0.0 0.0

-211700.29940685866 1.8643818026190433e6 0.0
1.8643818026190433e6 134133.67483662034 0.0
0.0 0.0 0.0

-126439.96802828618 1.699804404107648e6 0.0
1.699804404107648e6 -151560.0304909431 0.0
0.0 0.0 0.0

1.528458331891383e6 717918.1262966495 0.0
717918.1262966495 -1.001538559048645e6 0.0
0.0 0.0 0.0

-623851.5092749766 -158960.67855169385 0.0
-158960.67855169385 811315.9825264127 0.0
0.0 0.0 0.0

22720.589723236822 626521.1193302285 0.0
626521.1193302285 45448.44009966785 0.0
0.0 0.0 0.0

799982.1950674218 787553.4329756692 0.0
787553.4329756692 -1.2583907749112172e6 0.0
0.0 0.0 0.0

981870.3579006458 704690.0264201013 0.0
704690.0264201013 -1.4142555292631856e6 0.0
0.0 0.0 0.0

-438234.12400411296 151724.44205975183 0.0
151724.44205975183 124271.94053859566 0.0
0.0 0.0 0.0

33151.33321303371 116992.74270530729 0.0
116992.74270530729 85235.25712811698 0.0
0.0 0.0 0.0

78263.80725828686 1.241589463067545e6 0.0
1.241589463067545e6 -788774.8782346838 0.0
0.0 0.0 0.0

1.2345792225357527e6 618738.2416690073 0.0
618738.2416690073 -1.6737866718136347e6 0.0
0.0 0.0 0.0

-774518.3597917901 1.2934209258757986e6 0.0
1.2934209258757986e6 21372.40252013193 0.0
0.0 0.0 0.0

-300795.91608398536 897953.5725156082 0.0
897953.5725156082 135193.67070976307 0.0
0.0 0.0 0.0

-577797.7380960229 4.432956452767274e6 0.0
4.432956452767274e6 585675.107036243 0.0
0.0 0.0 0.0

8558.26933224374 1.3514783549143113e6 0.0
1.3514783549143113e6 -326786.97872925905 0.0
0.0 0.0 0.0

150750.50245847748 3.0515250633528517e6 0.0
3.0515250633528517e6 1524.2985116460986 0.0
0.0 0.0 0.0

-427077.14257519715 1.8905116903040449e6 0.0
1.8905116903040449e6 86789.39331837484 0.0
0.0 0.0 0.0

-1.0176700172699667e6 -151251.14592208498 0.0
-151251.14592208498 1.3467814679213036e6 0.0
0.0 0.0 0.0

-226730.61413908904 1.902630938030544e6 0.0
1.902630938030544e6 41036.674245564005 0.0
0.0 0.0 0.0

-236453.7246030682 2.739090101011842e6 0.0
2.739090101011842e6 2540.727472917555 0.0
0.0 0.0 0.0

-371262.72300764977 643696.3949532463 0.0
643696.3949532463 597580.0197031265 0.0
0.0 0.0 0.0

109707.66464977176 -29160.94396226522 0.0
-29160.94396226522 -151810.90605235152 0.0
0.0 0.0 0.0

-961135.7633157867 4.69023171629013e6 0.0
4.69023171629013e6 454497.4325251769 0.0
0.0 0.0 0.0

582054.5509467634 781881.4937201217 0.0
781881.4937201217 -1.250303987355043e6 0.0
0.0 0.0 0.0

-388755.43449746876 3.7373350417479104e6 0.0
3.7373350417479104e6 652580.254460423 0.0
0.0 0.0 0.0

1.1567160824613497e6 663997.5279606631 0.0
663997.5279606631 -1.5902108568657343e6 0.0
0.0 0.0 0.0

253278.9577212986 960043.715733447 0.0
960043.715733447 344988.63645768433 0.0
0.0 0.0 0.0

-602840.0335010043 3.1359410973388767e6 0.0
3.1359410973388767e6 454046.32992948336 0.0
0.0 0.0 0.0

373949.50073113525 -46228.08061486513 0.0
-46228.08061486513 -425985.0696567978 0.0
0.0 0.0 0.0

-72148.31867845019 1.1404367599106708e6 0.0
1.1404367599106708e6 -503947.0731122921 0.0
0.0 0.0 0.0

1.3077465211635064e6 617835.38892315 0.0
617835.38892315 -1.6710319658290008e6 0.0
0.0 0.0 0.0

-273915.2149974264 4.27395103012592e6 0.0
4.27395103012592e6 375025.7374877023 0.0
0.0 0.0 0.0

-29645.26426536085 238814.89380724146 0.0
238814.89380724146 -480390.09716876 0.0
0.0 0.0 0.0

105073.33539762489 42655.483767702324 0.0
42655.483767702324 -123061.12106760468 0.0
0.0 0.0 0.0

-715349.6773620653 1.8603372641084888e6 0.0
1.8603372641084888e6 167471.11514487644 0.0
0.0 0.0 0.0

533781.8774607203 1.03546812388741e6 0.0
1.03546812388741e6 -1.0787101500191088e6 0.0
0.0 0.0 0.0

-198147.36223655677 1.6358144253785373e6 0.0
1.6358144253785373e6 -660491.1856509106 0.0
0.0 0.0 0.0

-183244.8502478731 1.6025353584896144e6 0.0
1.6025353584896144e6 -610816.0600788327 0.0
0.0 0.0 0.0

-149044.27165814408 1.7240932807316696e6 0.0
1.7240932807316696e6 -241046.82524395437 0.0
0.0 0.0 0.0

-16857.01805072947 855671.9384297115 0.0
855671.9384297115 -276603.1893363981 0.0
0.0 0.0 0.0

114965.94574466058 2.0276196632260282e6 0.0
2.0276196632260282e6 -223593.92180075543 0.0
0.0 0.0 0.0

180974.82250737693 -9621.058594892947 0.0
-9621.058594892947 -115802.7629015859 0.0
0.0 0.0 0.0

-159531.0214304211 2.0779422436338295e6 0.0
2.0779422436338295e6 -157658.44017646773 0.0
0.0 0.0 0.0

-312701.1131877493 1.2306560088706072e6 0.0
1.2306560088706072e6 157272.62961620442 0.0
0.0 0.0 0.0

-142062.13937866388 409948.80600035656 0.0
409948.80600035656 -295488.1650818844 0.0
0.0 0.0 0.0

158183.51603268384 30260.489184781658 0.0
30260.489184781658 -156973.61682401568 0.0
0.0 0.0 0.0

-292531.1352575694 2.0887778057060444e6 0.0
2.0887778057060444e6 -225042.881189322 0.0
0.0 0.0 0.0

-455130.3309944364 577374.989680369 0.0
577374.989680369 319869.7265434727 0.0
0.0 0.0 0.0

38572.7191041443 2.3551655953197e6 0.0
2.3551655953197e6 -138971.706468072 0.0
0.0 0.0 0.0

124681.79508817398 102178.61944734602 0.0
102178.61944734602 -104746.34103968277 0.0
0.0 0.0 0.0

-292409.06284708605 2.666065324106081e6 0.0
2.666065324106081e6 -54356.82763011599 0.0
0.0 0.0 0.0

-408131.38337155385 1.709300029699214e6 0.0
1.709300029699214e6 72637.51068381127 0.0
0.0 0.0 0.0

-847030.7427277693 899.5211321765264 0.0
899.5211321765264 1.221058201158902e6 0.0
0.0 0.0 0.0

-48849.179290132335 283214.1106643969 0.0
283214.1106643969 -871696.798491938 0.0
0.0 0.0 0.0

-668615.3531736134 -146438.95199565866 0.0
-146438.95199565866 681668.5466253527 0.0
0.0 0.0 0.0

-200035.3089675803 2.1349596146012335e6 0.0
2.1349596146012335e6 -448126.19597930426 0.0
0.0 0.0 0.0

-243676.26228532055 1.8277038661640899e6 0.0
1.8277038661640899e6 91165.26922876712 0.0
0.0 0.0 0.0

-189328.18617931445 2.147120015076958e6 0.0
2.147120015076958e6 -249959.2243207315 0.0
0.0 0.0 0.0

141667.295713252 549169.9790250832 0.0
549169.9790250832 -502866.2037371469 0.0
0.0 0.0 0.0

66274.39129113429 -59435.64214510756 0.0
-59435.64214510756 -37799.35576152055 0.0
0.0 0.0 0.0

-6.372679914167132e6 429986.18036660994 0.0
429986.18036660994 6.428437157595867e6 0.0
0.0 0.0 0.0

-1.945011027328603e6 29035.512245235717 0.0
29035.512245235717 2.823554065555472e6 0.0
0.0 0.0 0.0

-216010.49935457986 1.3788422366511542e6 0.0
1.3788422366511542e6 89866.82419091111 0.0
0.0 0.0 0.0

155434.0960505551 63758.15079850072 0.0
63758.15079850072 -151987.63666414336 0.0
0.0 0.0 0.0

-61462.96587223799 909338.5305090733 0.0
909338.5305090733 -382487.5028978238 0.0
0.0 0.0 0.0

-702127.2999386007 3.7195369963452118e6 0.0
3.7195369963452118e6 408342.29132571863 0.0
0.0 0.0 0.0

-302633.7079084174 2.246371498954056e6 0.0
2.246371498954056e6 -282405.542047294 0.0
0.0 0.0 0.0

-228890.38213428337 1.7486043783536542e6 0.0
1.7486043783536542e6 220033.72853885358 0.0
0.0 0.0 0.0

-950870.955056496 1.823242628158347e6 0.0
1.823242628158347e6 160243.49435745034 0.0
0.0 0.0 0.0

-863285.8201928395 78684.24158669476 0.0
78684.24158669476 868541.5462203177 0.0
0.0 0.0 0.0

-50904.15556059472 1.3992378256580236e6 0.0
1.3992378256580236e6 489041.07848209067 0.0
0.0 0.0 0.0

-159004.9924452568 1.8383350968830476e6 0.0
1.8383350968830476e6 -248485.60940314524 0.0
0.0 0.0 0.0

278624.3331589709 1.1131529291879535e6 0.0
1.1131529291879535e6 -778855.9380320164 0.0
0.0 0.0 0.0

1.4496187654911473e6 586094.0129888236 0.0
586094.0129888236 -1.7968942506096e6 0.0
0.0 0.0 0.0

-272989.9104951266 -153959.1812750911 0.0
-153959.1812750911 268553.01458574395 0.0
0.0 0.0 0.0

-273148.3462857831 1.7264945251913592e6 0.0
1.7264945251913592e6 186762.2549870983 0.0
0.0 0.0 0.0

-673814.3936175304 1.0162186161223785e6 0.0
1.0162186161223785e6 1.3834154104215375e6 0.0
0.0 0.0 0.0

-8.005364433218728e6 1.169499225167098e6 0.0
1.169499225167098e6 9.935378670008017e6 0.0
0.0 0.0 0.0

-363369.9942883672 2.3086040455880486e6 0.0
2.3086040455880486e6 -169861.98433079536 0.0
0.0 0.0 0.0

-70135.6364280641 1.4066131820585174e6 0.0
1.4066131820585174e6 -233785.4036792571 0.0
0.0 0.0 0.0

114377.02107897785 -21030.06093343205 0.0
-21030.06093343205 -170106.0717803425 0.0
0.0 0.0 0.0

-724863.7313858742 -26103.85500218965 0.0
-26103.85500218965 495444.0867460304 0.0
0.0 0.0 0.0

530719.3647915587 734643.8668279699 0.0
734643.8668279699 -1.1796583131742189e6 0.0
0.0 0.0 0.0

138974.94512629864 15417.217103157775 0.0
15417.217103157775 -85689.70426464707 0.0
0.0 0.0 0.0

506973.63378136203 859768.2922292338 0.0
859768.2922292338 -1.2006899264155906e6 0.0
0.0 0.0 0.0

-1.2982515045430732e6 428138.9070703582 0.0
428138.9070703582 2.076747346883316e6 0.0
0.0 0.0 0.0

1.278939446437063e6 551388.3616911403 0.0
551388.3616911403 -1.4704741295348997e6 0.0
0.0 0.0 0.0

-284526.02345837123 4.257193094726134e6 0.0
4.257193094726134e6 434160.5937828037 0.0
0.0 0.0 0.0

-318528.62783046474 2.120281190036803e6 0.0
2.120281190036803e6 -296793.74132372654 0.0
0.0 0.0 0.0

-40971.32266811954 1.0597003593251908e6 0.0
1.0597003593251908e6 -43726.12055299407 0.0
0.0 0.0 0.0

2.19325188639306e6 769108.9261341866 0.0
769108.9261341866 -1.3486765477218498e6 0.0
0.0 0.0 0.0

-3.717125740975789e6 403599.35766759515 0.0
403599.35766759515 3.398505206820341e6 0.0
0.0 0.0 0.0

-370286.7886546681 2.5399595404754914e6 0.0
2.5399595404754914e6 -309715.27570909844 0.0
0.0 0.0 0.0

-569231.8190116803 -72319.07718116755 0.0
-72319.07718116755 529268.3508842066 0.0
0.0 0.0 0.0

-265061.85063308047 884054.3635955639 0.0
884054.3635955639 -566624.9008004455 0.0
0.0 0.0 0.0

-269816.21841018426 2.0205216076619832e6 0.0
2.0205216076619832e6 -243703.40560122847 0.0
0.0 0.0 0.0

-223242.43161389887 1.0122405935382025e6 0.0
1.0122405935382025e6 336370.63158283883 0.0
0.0 0.0 0.0

146130.91749385183 48332.119157317844 0.0
48332.119157317844 -111848.93593150261 0.0
0.0 0.0 0.0

779969.4972526554 613659.106309226 0.0
613659.106309226 -1.2941662764597805e6 0.0
0.0 0.0 0.0

286059.8222697826 1.1739384288804345e6 0.0
1.1739384288804345e6 -783222.3854746289 0.0
0.0 0.0 0.0

119751.36042876981 -181461.53229397588 0.0
-181461.53229397588 -250735.55664707953 0.0
0.0 0.0 0.0

1.0396084273561479e6 487869.3718604623 0.0
487869.3718604623 -1.2421172174534618e6 0.0
0.0 0.0 0.0

-436880.66307956586 2.487361415600132e6 0.0
2.487361415600132e6 31536.71362905609 0.0
0.0 0.0 0.0

-181830.39072135702 3.5542191873657415e6 0.0
3.5542191873657415e6 6921.193483949981 0.0
0.0 0.0 0.0

1.2348427248370284e6 680845.4511880772 0.0
680845.4511880772 -1.6425448195856172e6 0.0
0.0 0.0 0.0

-49550.48693366103 50491.7455170704 0.0
50491.7455170704 -26767.41466649974 0.0
0.0 0.0 0.0

-249995.74412975533 733772.7134683799 0.0
733772.7134683799 341393.8234749416 0.0
0.0 0.0 0.0

-22677.75552888328 149009.21925818856 0.0
149009.21925818856 -516832.01908253203 0.0
0.0 0.0 0.0

107812.05519989796 69521.53492796837 0.0
69521.53492796837 -70078.89430915107 0.0
0.0 0.0 0.0

1.1939876427199314e6 730211.4608861773 0.0
730211.4608861773 -1.6466673366914745e6 0.0
0.0 0.0 0.0

207871.93120162704 1.5255912427907544e6 0.0
1.5255912427907544e6 692906.5531410897 0.0
0.0 0.0 0.0

-370701.94988687604 2.697242277819515e6 0.0
2.697242277819515e6 888247.2016109641 0.0
0.0 0.0 0.0

-17862.46689314593 1.130545190916319e6 0.0
1.130545190916319e6 -732720.0717782422 0.0
0.0 0.0 0.0

-456897.8248246601 2.714720321088165e6 0.0
2.714720321088165e6 -15950.847495216207 0.0
0.0 0.0 0.0

-241486.42489029036 1.1951811249404587e6 0.0
1.1951811249404587e6 367662.27919370914 0.0
0.0 0.0 0.0

-254793.79791593307 3.2088604778956436e6 0.0
3.2088604778956436e6 153975.9472293618 0.0
0.0 0.0 0.0

311265.3760179562 952357.4182327488 0.0
952357.4182327488 -1.1269942670694839e6 0.0
0.0 0.0 0.0

-954890.9146136423 4.953290505153752e6 0.0
4.953290505153752e6 418686.54713838955 0.0
0.0 0.0 0.0

-88468.66255702046 1.4067571469660774e6 0.0
1.4067571469660774e6 -359652.5045691857 0.0
0.0 0.0 0.0

-1.3389799428305589e6 -315076.0015911524 0.0
-315076.0015911524 1.3937119489974556e6 0.0
0.0 0.0 0.0

3.566039051916786e6 1.2982447672364146e6 0.0
1.2982447672364146e6 -2.189645440926739e6 0.0
0.0 0.0 0.0

-278322.3306992322 1.8264065335554625e6 0.0
1.8264065335554625e6 154576.53814472246 0.0
0.0 0.0 0.0

-2.596977564201097e6 -600977.6889205991 0.0
-600977.6889205991 2.460418763370546e6 0.0
0.0 0.0 0.0

60062.50427471951 2.292211445620253e6 0.0
2.292211445620253e6 -236631.13400181828 0.0
0.0 0.0 0.0

-455350.2817251695 3.452096374315413e6 0.0
3.452096374315413e6 521428.47659178183 0.0
0.0 0.0 0.0

15809.199816884453 1.1344652619638653e6 0.0
1.1344652619638653e6 52697.348345182705 0.0
0.0 0.0 0.0

184044.4613531714 26270.72968218778 0.0
26270.72968218778 -141746.62908762193 0.0
0.0 0.0 0.0

-275061.9404393735 978188.5316329583 0.0
978188.5316329583 70772.8837894187 0.0
0.0 0.0 0.0

-1.1775053867008404e6 1.2394632597465036e6 0.0
1.2394632597465036e6 1741.4666511505493 0.0
0.0 0.0 0.0

1.1766024429307801e6 517380.57071032503 0.0
517380.57071032503 -1.5231187584639564e6 0.0
0.0 0.0 0.0

-203802.55747843062 2.110178978130039e6 0.0
2.110178978130039e6 -265568.430478501 0.0
0.0 0.0 0.0

-41413.55037824562 1.5180363432542428e6 0.0
1.5180363432542428e6 723962.0240913973 0.0
0.0 0.0 0.0

-239078.34758199836 1.7773250637086257e6 0.0
1.7773250637086257e6 -796927.7916899002 0.0
0.0 0.0 0.0

-149168.19526216728 1.4547409134232707e6 0.0
1.4547409134232707e6 -497227.12124344136 0.0
0.0 0.0 0.0

505558.8036332022 1.0310547857163599e6 0.0
1.0310547857163599e6 -1.033876034981146e6 0.0
0.0 0.0 0.0

173903.34136326326 379.25666540221073 0.0
379.25666540221073 -137302.21262577805 0.0
0.0 0.0 0.0

-726075.4162973405 1.335239560739913e6 0.0
1.335239560739913e6 287274.66515036894 0.0
0.0 0.0 0.0

-29646.81070513156 380127.1445295669 0.0
380127.1445295669 -542237.267948724 0.0
0.0 0.0 0.0

-3.07071527696071e6 424303.43632954406 0.0
424303.43632954406 2.770749810366394e6 0.0
0.0 0.0 0.0

212248.05435088027 3606.5858520409734 0.0
3606.5858520409734 -232279.8613453849 0.0
0.0 0.0 0.0

-825704.9122286853 1.7578064200154338e6 0.0
1.7578064200154338e6 129324.45088963496 0.0
0.0 0.0 0.0

-1.279993199350867e6 1.5469347428342397e6 0.0
1.5469347428342397e6 351542.107723485 0.0
0.0 0.0 0.0

-84950.13712489368 -26631.855691463083 0.0
-26631.855691463083 138062.45168953468 0.0
0.0 0.0 0.0

-96907.65984354017 1.15551569834867e6 0.0
1.15551569834867e6 -529505.2447903281 0.0
0.0 0.0 0.0

-423823.64717760077 3.352979999205311e6 0.0
3.352979999205311e6 564608.5122099894 0.0
0.0 0.0 0.0

129418.20806028582 -73817.81981086067 0.0
-73817.81981086067 -141812.84988706314 0.0
0.0 0.0 0.0

-337735.5518020637 4.243999361536666e6 0.0
4.243999361536666e6 469946.4491461465 0.0
0.0 0.0 0.0

137557.026349581 20649.73837868257 0.0
20649.73837868257 -152346.003846596 0.0
0.0 0.0 0.0

1.2689847555861976e6 559317.1642053439 0.0
559317.1642053439 -1.6451521789405076e6 0.0
0.0 0.0 0.0

1.1207099702138794e6 531627.159808069 0.0
531627.159808069 -1.4956123473624105e6 0.0
0.0 0.0 0.0

-254351.93990870542 1.971393647643095e6 0.0
1.971393647643095e6 -374943.53779513674 0.0
0.0 0.0 0.0

-280337.2986324942 2.6307918581843353e6 0.0
2.6307918581843353e6 -36253.5539445581 0.0
0.0 0.0 0.0

1.209776423859795e6 722262.7155571169 0.0
722262.7155571169 -1.6808570159106005e6 0.0
0.0 0.0 0.0

-176103.8027092127 2.1114821810314003e6 0.0
2.1114821810314003e6 115953.83485042909 0.0
0.0 0.0 0.0

-91210.58890736593 1.8778098254724029e6 0.0
1.8778098254724029e6 -637171.6174663708 0.0
0.0 0.0 0.0

-359196.1316983536 434004.04855353764 0.0
434004.04855353764 196734.04200583158 0.0
0.0 0.0 0.0

-288049.51923275087 2.2907337910653115e6 0.0
2.2907337910653115e6 7008.550517928597 0.0
0.0 0.0 0.0

536103.9887554955 854370.0100571136 0.0
854370.0100571136 -973630.2452954222 0.0
0.0 0.0 0.0

-1.8256137541012648e6 721328.8060141328 0.0
721328.8060141328 1.3405336943209083e6 0.0
0.0 0.0 0.0

1.345199086274115e6 559307.1617272877 0.0
559307.1617272877 -1.7268567441924769e6 0.0
0.0 0.0 0.0

1.181474296051364e6 590231.1178527653 0.0
590231.1178527653 -1.5170108862652192e6 0.0
0.0 0.0 0.0

-250188.08649967218 2.427869990183301e6 0.0
2.427869990183301e6 -124219.0888528477 0.0
0.0 0.0 0.0

-393130.24140247284 20204.898809774848 0.0
20204.898809774848 275492.14698980807 0.0
0.0 0.0 0.0

-177814.1343461465 1.9075657009200624e6 0.0
1.9075657009200624e6 337650.9739265274 0.0
0.0 0.0 0.0

-1.1791978231459004e6 993005.4105622591 0.0
993005.4105622591 2.1355137075247774e6 0.0
0.0 0.0 0.0

-776098.7568320833 1.7919850934523419e6 0.0
1.7919850934523419e6 146423.81113078236 0.0
0.0 0.0 0.0

-847325.2255520888 1.7269320921491366e6 0.0
1.7269320921491366e6 132859.81646258483 0.0
0.0 0.0 0.0

125349.66136604759 53202.970004035684 0.0
53202.970004035684 -185705.81127753042 0.0
0.0 0.0 0.0

-4.68343294981092e6 347953.78691333224 0.0
347953.78691333224 7.369186735706988e6 0.0
0.0 0.0 0.0

-966297.6904794722 1.9953241875673106e6 0.0
1.9953241875673106e6 198223.91360550717 0.0
0.0 0.0 0.0

-232172.53630529932 2.0612740169279212e6 0.0
2.0612740169279212e6 -213629.39543757922 0.0
0.0 0.0 0.0

-179446.97743728204 1.7587971581794422e6 0.0
1.7587971581794422e6 -246478.3606896838 0.0
0.0 0.0 0.0

-330658.23077251785 3.689564194542793e6 0.0
3.689564194542793e6 355605.20010373683 0.0
0.0 0.0 0.0

202395.44219616934 47967.89539310487 0.0
47967.89539310487 -189369.36230453275 0.0
0.0 0.0 0.0

1.349959252567763e6 599980.9529888758 0.0
599980.9529888758 -1.6982012023921306e6 0.0
0.0 0.0 0.0

-340534.74094996095 2.5435376799485995e6 0.0
2.5435376799485995e6 120084.56051611592 0.0
0.0 0.0 0.0

-292931.5968498286 1.725047172815831e6 0.0
1.725047172815831e6 -347205.5134360374 0.0
0.0 0.0 0.0

-905587.6029573723 650612.3018069229 0.0
650612.3018069229 389459.7909356404 0.0
0.0 0.0 0.0

-44609.919743745355 -66873.36127881816 0.0
-66873.36127881816 128299.14884096343 0.0
0.0 0.0 0.0

-2.029453833210593e6 2.1606024292228213e6 0.0
2.1606024292228213e6 -852419.8525804506 0.0
0.0 0.0 0.0

-190771.0130202509 2.1521628399979756e6 0.0
2.1521628399979756e6 -635903.2617227553 0.0
0.0 0.0 0.0

124641.61224766793 1.4339429738323183e6 0.0
1.4339429738323183e6 415472.1703401591 0.0
0.0 0.0 0.0

6180.754102462262 1.7077316514062537e6 0.0
1.7077316514062537e6 -825882.617526094 0.0
0.0 0.0 0.0

-731808.9831075941 1.5357498976978739e6 0.0
1.5357498976978739e6 251259.0529288926 0.0
0.0 0.0 0.0

60745.07983056827 559706.82647665 0.0
559706.82647665 -247193.2965690329 0.0
0.0 0.0 0.0

737118.9979475706 705414.2322819389 0.0
705414.2322819389 -1.133944802335841e6 0.0
0.0 0.0 0.0

-234213.9401870138 913795.4801175464 0.0
913795.4801175464 354460.4024704675 0.0
0.0 0.0 0.0

170014.05354269728 1.1533663261801128e6 0.0
1.1533663261801128e6 -1.0876346526868541e6 0.0
0.0 0.0 0.0

-806736.2020819925 1.776311939382452e6 0.0
1.776311939382452e6 138498.2075168859 0.0
0.0 0.0 0.0

-221433.8420824187 28369.20610765923 0.0
28369.20610765923 169662.25532464124 0.0
0.0 0.0 0.0

155651.42606177475 -18022.203367149526 0.0
-18022.203367149526 -161613.78253130068 0.0
0.0 0.0 0.0

852721.2756736265 579955.0299523468 0.0
579955.0299523468 -1.315351932533836e6 0.0
0.0 0.0 0.0

-471843.0904089159 1.8773505246735865e6 0.0
1.8773505246735865e6 -171287.56190740416 0.0
0.0 0.0 0.0

-774866.0720436892 5.4790230284632e6 0.0
5.4790230284632e6 305738.53700763686 0.0
0.0 0.0 0.0

-185576.99403101965 593171.6145905233 0.0
593171.6145905233 210629.7750807818 0.0
0.0 0.0 0.0

1.1145664146961835e6 562815.8379119112 0.0
562815.8379119112 -1.524695481984299e6 0.0
0.0 0.0 0.0

1.1893793648343033e6 700507.0554367676 0.0
700507.0554367676 -1.6507172066138973e6 0.0
0.0 0.0 0.0

-4.774167379843546e6 -96160.0630219416 0.0
-96160.0630219416 5.167263382847153e6 0.0
0.0 0.0 0.0

37895.14079284677 37662.72519148873 0.0
37662.72519148873 74795.46810907713 0.0
0.0 0.0 0.0

-359284.2489934715 4.213920834826386e6 0.0
4.213920834826386e6 489449.731323887 0.0
0.0 0.0 0.0

-940980.8146847901 3.5300954662789404e6 0.0
3.5300954662789404e6 230705.10418832552 0.0
0.0 0.0 0.0

-273426.7749777479 -62103.180052534895 0.0
-62103.180052534895 443030.9961193205 0.0
0.0 0.0 0.0

505343.4891340874 241995.19512231598 0.0
241995.19512231598 -1.0335823611026059e6 0.0
0.0 0.0 0.0

-680827.5666901076 2.0450370853578697e6 0.0
2.0450370853578697e6 43447.840375462925 0.0
0.0 0.0 0.0

-636533.1630389105 1.473189341330744e6 0.0
1.473189341330744e6 -124204.74004783625 0.0
0.0 0.0 0.0

501012.258349372 69555.8144428254 0.0
69555.8144428254 -981424.3574119783 0.0
0.0 0.0 0.0

1.2122969405931407e6 598854.7866954643 0.0
598854.7866954643 -1.5729650660248948e6 0.0
0.0 0.0 0.0

57346.14710528724 1.24691951546898e6 0.0
1.24691951546898e6 -1.0198278177626273e6 0.0
0.0 0.0 0.0

342319.2620369084 -73408.23450827067 0.0
-73408.23450827067 -369038.7553254075 0.0
0.0 0.0 0.0

87693.92055277826 129003.02516590955 0.0
129003.02516590955 -75561.1322632345 0.0
0.0 0.0 0.0

433785.4595179064 1.0747822229015871e6 0.0
1.0747822229015871e6 -931042.9512009198 0.0
0.0 0.0 0.0

1.2433394002149524e6 581441.480599406 0.0
581441.480599406 -1.5594923641545977e6 0.0
0.0 0.0 0.0

-907054.7415958887 3.7906727963382993e6 0.0
3.7906727963382993e6 266470.8854147658 0.0
0.0 0.0 0.0

955862.1639997533 628664.2825461342 0.0
628664.2825461342 -1.318977210403635e6 0.0
0.0 0.0 0.0

408207.76463237184 -36777.09360772786 0.0
-36777.09360772786 -314996.77762190986 0.0
0.0 0.0 0.0

-192417.50881090862 2.6865621477811257e6 0.0
2.6865621477811257e6 -641391.6973167362 0.0
0.0 0.0 0.0

349048.7996576273 1.7815900879365916e6 0.0
1.7815900879365916e6 1.1634964429066232e6 0.0
0.0 0.0 0.0

-161478.8512702461 1.8774743634678551e6 0.0
1.8774743634678551e6 -204625.01567693643 0.0
0.0 0.0 0.0

-416584.6531077202 -87467.23360309665 0.0
-87467.23360309665 576867.3936735581 0.0
0.0 0.0 0.0

261693.39357612882 -116403.34130143886 0.0
-116403.34130143886 -277505.36082670663 0.0
0.0 0.0 0.0

163425.50501363567 1.0632162499355099e6 0.0
1.0632162499355099e6 544751.4338891522 0.0
0.0 0.0 0.0

9820.311739105067 1.738051747624116e6 0.0
1.738051747624116e6 32734.358462477405 0.0
0.0 0.0 0.0

-5.285028145734988e6 526746.6027619778 0.0
526746.6027619778 8.402626332798386e6 0.0
0.0 0.0 0.0

994796.0980694015 565728.5086899983 0.0
565728.5086899983 -1.4293001536202023e6 0.0
0.0 0.0 0.0

-459823.22185614373 3.1398687329671206e6 0.0
3.1398687329671206e6 368590.9205222246 0.0
0.0 0.0 0.0

186630.9535572372 1.3373193417159242e6 0.0
1.3373193417159242e6 -715477.498998411 0.0
0.0 0.0 0.0

-649575.7623653425 1.7699673322796717e6 0.0
1.7699673322796717e6 144744.49708858106 0.0
0.0 0.0 0.0

-256791.35697449656 2.0179000706476704e6 0.0
2.0179000706476704e6 -36734.80624562903 0.0
0.0 0.0 0.0

-828974.9416771597 4.717585062955883e6 0.0
4.717585062955883e6 457670.47982688755 0.0
0.0 0.0 0.0

368088.327064294 2.7941353230281197e6 0.0
2.7941353230281197e6 -473918.8738795683 0.0
0.0 0.0 0.0

-390724.2926661406 4.1828665714017567e6 0.0
4.1828665714017567e6 523665.969165066 0.0
0.0 0.0 0.0

-1.5153420793246224e6 279642.8595448917 0.0
279642.8595448917 1.3995410194421941e6 0.0
0.0 0.0 0.0

-110893.96327725379 734540.0092104643 0.0
734540.0092104643 -529968.4342563879 0.0
0.0 0.0 0.0

1.0556356014203853e6 550286.3816288174 0.0
550286.3816288174 -1.4568698241655754e6 0.0
0.0 0.0 0.0

-380509.3704916733 2.868018773808734e6 0.0
2.868018773808734e6 89813.39969997629 0.0
0.0 0.0 0.0

-565343.4344580964 3.4535234442805746e6 0.0
3.4535234442805746e6 -60618.52592508921 0.0
0.0 0.0 0.0

735901.3511978148 715641.7390492839 0.0
715641.7390492839 -1.324465250103205e6 0.0
0.0 0.0 0.0

-566215.4756493508 1.6438751890960396e6 0.0
1.6438751890960396e6 148284.5100177585 0.0
0.0 0.0 0.0

-497323.00641490397 2.1707707981376965e6 0.0
2.1707707981376965e6 -179259.38226781297 0.0
0.0 0.0 0.0

-268586.3195748459 2.3916542199199325e6 0.0
2.3916542199199325e6 -43641.002229285856 0.0
0.0 0.0 0.0

539584.5491662285 988496.0633591454 0.0
988496.0633591454 -1.0014050011011158e6 0.0
0.0 0.0 0.0

-419797.1796843314 4.0961229645432564e6 0.0
4.0961229645432564e6 571234.2818708911 0.0
0.0 0.0 0.0

-336332.6949766458 2.575615582526471e6 0.0
2.575615582526471e6 112897.01082180958 0.0
0.0 0.0 0.0

-78070.68147674335 1.14484632650738e6 0.0
1.14484632650738e6 -481589.0685590987 0.0
0.0 0.0 0.0

1.097354506500089e6 814978.6202234213 0.0
814978.6202234213 -1.1401830124445627e6 0.0
0.0 0.0 0.0

-213070.25130764153 1.0638060688757168e6 0.0
1.0638060688757168e6 -135614.1207832711 0.0
0.0 0.0 0.0

781842.4154454961 32126.58288490258 0.0
32126.58288490258 -967798.7522955865 0.0
0.0 0.0 0.0

121032.89507497997 -15192.990768559352 0.0
-15192.990768559352 -96300.70420995321 0.0
0.0 0.0 0.0

1.320969880042108e6 560762.7154166594 0.0
560762.7154166594 -1.6022371410758044e6 0.0
0.0 0.0 0.0

595898.5810624155 483324.11389232427 0.0
483324.11389232427 -963100.727418208 0.0
0.0 0.0 0.0

1.1676337068831893e6 559116.1667402508 0.0
559116.1667402508 -1.448970002422204e6 0.0
0.0 0.0 0.0

-28578.198229619302 1.1412052342862405e6 0.0
1.1412052342862405e6 -671513.1002975056 0.0
0.0 0.0 0.0

-417548.347961664 4.13973392621608e6 0.0
4.13973392621608e6 546530.3103495501 0.0
0.0 0.0 0.0

-1.1997552814166145e6 388082.49096171523 0.0
388082.49096171523 1.195032064685372e6 0.0
0.0 0.0 0.0

-221473.72535976226 1.06974806418847e6 0.0
1.06974806418847e6 -145850.65774523595 0.0
0.0 0.0 0.0

1.0207804569529609e6 532744.2551404008 0.0
532744.2551404008 -1.396299981475077e6 0.0
0.0 0.0 0.0

316224.3409126159 -16234.466924801894 0.0
-16234.466924801894 -342143.53263515787 0.0
0.0 0.0 0.0

-511724.3230324303 503582.3521283973 0.0
503582.3521283973 391038.63309073204 0.0
0.0 0.0 0.0

-218264.3311137646 2.28630563248758e6 0.0
2.28630563248758e6 -234517.5326696068 0.0
0.0 0.0 0.0

-222622.02164217646 2.0697014437884e6 0.0
2.0697014437884e6 -165177.0231424279 0.0
0.0 0.0 0.0

-659860.6752103218 1.7203667285651187e6 0.0
1.7203667285651187e6 150037.7757242955 0.0
0.0 0.0 0.0

-12054.149675162946 1.8766346935192726e6 0.0
1.8766346935192726e6 -644557.3364133933 0.0
0.0 0.0 0.0

1.0705890118205638e6 587585.3125974282 0.0
587585.3125974282 -1.4014213697543964e6 0.0
0.0 0.0 0.0

996045.0454529785 537902.161636393 0.0
537902.161636393 -1.3757687244653262e6 0.0
0.0 0.0 0.0

-232411.87011303692 848982.4748410321 0.0
848982.4748410321 -210343.37402548708 0.0
0.0 0.0 0.0

917694.3369612842 555329.778624122 0.0
555329.778624122 -1.342468929016774e6 0.0
0.0 0.0 0.0

980929.2655047316 535101.0349429323 0.0
535101.0349429323 -1.2469182892646699e6 0.0
0.0 0.0 0.0

-1.091240879438385e6 1.6622357096767093e6 0.0
1.6622357096767093e6 249636.23227886052 0.0
0.0 0.0 0.0

-403981.42706792615 4.63863764903442e6 0.0
4.63863764903442e6 396318.5425014965 0.0
0.0 0.0 0.0

-276056.4307428815 1.937369493397316e6 0.0
1.937369493397316e6 -15821.537078594309 0.0
0.0 0.0 0.0

786615.7073644784 501169.96314980625 0.0
501169.96314980625 -1.1844848850639272e6 0.0
0.0 0.0 0.0

-730516.8216764153 3.678021915713983e6 0.0
3.678021915713983e6 342201.9030004042 0.0
0.0 0.0 0.0

-84955.28544507045 1.176530381674265e6 0.0
1.176530381674265e6 -429907.7450975588 0.0
0.0 0.0 0.0

-183325.6140970354 3.1015107509083506e6 0.0
3.1015107509083506e6 -611085.7352363102 0.0
0.0 0.0 0.0

391374.9465918562 2.075795417727097e6 0.0
2.075795417727097e6 1.304586489096896e6 0.0
0.0 0.0 0.0

-220913.55087431817 3.4724331243619537e6 0.0
3.4724331243619537e6 291933.8134267209 0.0
0.0 0.0 0.0

-91824.1680545981 4.011773188858553e6 0.0
4.011773188858553e6 112666.74218881989 0.0
0.0 0.0 0.0

1.1194741860433538e6 810646.6888619022 0.0
810646.6888619022 -1.670597992024254e6 0.0
0.0 0.0 0.0

-172996.85134363268 2.18686159082554e6 0.0
2.18686159082554e6 -375237.3529349851 0.0
0.0 0.0 0.0

-695.9567445537177 2.3808145569469933e6 0.0
2.3808145569469933e6 -178400.30604038897 0.0
0.0 0.0 0.0

-421151.27303873195 -31652.607783406136 0.0
-31652.607783406136 424225.70764385164 0.0
0.0 0.0 0.0

-1.62187250420947e6 387847.70964591554 0.0
387847.70964591554 2.502954440629811e6 0.0
0.0 0.0 0.0

-137248.50288206313 2.1896338556755595e6 0.0
2.1896338556755595e6 -102521.41345127788 0.0
0.0 0.0 0.0

-561149.8761216477 3.4393905849310975e6 0.0
3.4393905849310975e6 -35789.42015102142 0.0
0.0 0.0 0.0

-395422.6345644427 1.9466310445553442e6 0.0
1.9466310445553442e6 59933.324229658436 0.0
0.0 0.0 0.0

-260547.60015133038 1.2447469601121491e6 0.0
1.2447469601121491e6 334060.82276484824 0.0
0.0 0.0 0.0

-159211.3903046347 557602.1239249433 0.0
557602.1239249433 -484464.26663999236 0.0
0.0 0.0 0.0

-372445.4774908346 1.3245878942434245e6 0.0
1.3245878942434245e6 57073.804680175046 0.0
0.0 0.0 0.0

1.1552336159042493e6 691801.1365413006 0.0
691801.1365413006 -1.569954221853397e6 0.0
0.0 0.0 0.0

315709.7756720149 436621.0502553861 0.0
436621.0502553861 -803028.3703408453 0.0
0.0 0.0 0.0

-373780.4745633023 2.465210225103957e6 0.0
2.465210225103957e6 -80743.03924267604 0.0
0.0 0.0 0.0

-17264.510515427333 1.522569204160365e6 0.0
1.522569204160365e6 -969145.9372727174 0.0
0.0 0.0 0.0

-1.0518442855430464e6 -50591.074361417464 0.0
-50591.074361417464 1.4348287112108557e6 0.0
0.0 0.0 0.0

37.574739706387845 -135554.22432254654 0.0
-135554.22432254654 23971.469974488384 0.0
0.0 0.0 0.0

-2.103463837994568e6 -275047.67148601764 0.0
-275047.67148601764 2.7095070244889106e6 0.0
0.0 0.0 0.0

-459773.8169480568 2.554931882834889e6 0.0
2.554931882834889e6 107484.19742552383 0.0
0.0 0.0 0.0

-288071.0511307811 1.857124568992106e6 0.0
1.857124568992106e6 32907.75147380977 0.0
0.0 0.0 0.0

28595.48812236369 295565.376897592 0.0
295565.376897592 -616818.3315141028 0.0
0.0 0.0 0.0

-429728.15906657546 3.501063180921408e6 0.0
3.501063180921408e6 520012.60313740035 0.0
0.0 0.0 0.0

734559.0980456474 19496.282993724195 0.0
19496.282993724195 -988291.7032532609 0.0
0.0 0.0 0.0

-326142.5911227479 1.0909162779520233e6 0.0
1.0909162779520233e6 203048.434904608 0.0
0.0 0.0 0.0

-9518.613869035868 5.400410180813325e6 0.0
5.400410180813325e6 -108985.5170157915 0.0
0.0 0.0 0.0

-304761.683982886 618765.4106603563 0.0
618765.4106603563 177764.25180004264 0.0
0.0 0.0 0.0

-163087.62096449494 -275186.1636990578 0.0
-275186.1636990578 147422.1398024293 0.0
0.0 0.0 0.0

-970696.1442877997 -54825.51523716416 0.0
-54825.51523716416 653641.9306616248 0.0
0.0 0.0 0.0

1.2761706744654155e6 544700.8445926679 0.0
544700.8445926679 -1.62666280230466e6 0.0
0.0 0.0 0.0

-620709.7951833786 1.6432654286764408e6 0.0
1.6432654286764408e6 104956.10529357009 0.0
0.0 0.0 0.0

269059.4211531334 -66380.0204296594 0.0
-66380.0204296594 -311448.1700738629 0.0
0.0 0.0 0.0

-170534.06511463484 1.79900338319818e6 0.0
1.79900338319818e6 -326655.0935797502 0.0
0.0 0.0 0.0

107336.0214871293 6074.2827508599285 0.0
6074.2827508599285 -139041.29655859317 0.0
0.0 0.0 0.0

-245786.3629221831 2.125029161319779e6 0.0
2.125029161319779e6 -314996.6561717933 0.0
0.0 0.0 0.0

28936.417501129217 -24159.992528634826 0.0
-24159.992528634826 -109824.25182021833 0.0
0.0 0.0 0.0

-269258.5130909352 2.236965105328215e6 0.0
2.236965105328215e6 -354388.8898641229 0.0
0.0 0.0 0.0

-1.048054454191333e6 433337.8281270218 0.0
433337.8281270218 956408.4145973581 0.0
0.0 0.0 0.0

281879.4242523059 112223.32729647154 0.0
112223.32729647154 -868332.9005388678 0.0
0.0 0.0 0.0

-4.428561819772258e6 413320.75073166995 0.0
413320.75073166995 4.12061136077167e6 0.0
0.0 0.0 0.0

-241.84216325019952 417380.9036697522 0.0
417380.9036697522 -286125.2255506013 0.0
0.0 0.0 0.0

-721989.1095957961 2.060446796275067e6 0.0
2.060446796275067e6 99804.89013567791 0.0
0.0 0.0 0.0

1.0656939420482763e6 699102.965157602 0.0
699102.965157602 -1.5117363031385138e6 0.0
0.0 0.0 0.0

-2.475796913415483e6 462779.55812445167 0.0
462779.55812445167 2.2090695597457704e6 0.0
0.0 0.0 0.0

-118448.86834837619 3.1674052632947173e6 0.0
3.1674052632947173e6 394257.40672363434 0.0
0.0 0.0 0.0

-602229.4192487705 28787.442982779867 0.0
28787.442982779867 866037.7975859535 0.0
0.0 0.0 0.0

599101.4512987379 912236.1102306781 0.0
912236.1102306781 -1.0647917755352417e6 0.0
0.0 0.0 0.0

-150833.34164518837 614556.9705887835 0.0
614556.9705887835 -458413.9579977078 0.0
0.0 0.0 0.0

13510.120101021705 787003.7059852865 0.0
787003.7059852865 -121334.46147690907 0.0
0.0 0.0 0.0

69219.6604862216 -126991.7665495932 0.0
-126991.7665495932 -153763.9966435706 0.0
0.0 0.0 0.0

152192.40909936413 -42741.648769685395 0.0
-42741.648769685395 -165847.8172506676 0.0
0.0 0.0 0.0

-160607.46795256605 1.981951525456634e6 0.0
1.981951525456634e6 -677585.8777806587 0.0
0.0 0.0 0.0

274924.60361106275 14592.60072347067 0.0
14592.60072347067 -213297.4426410182 0.0
0.0 0.0 0.0

-299319.05239045894 1.8629059284922732e6 0.0
1.8629059284922732e6 1251.3812230986077 0.0
0.0 0.0 0.0

-583477.6770411845 2.981443045404649e6 0.0
2.981443045404649e6 817044.3524635034 0.0
0.0 0.0 0.0

-63499.42076840624 377573.2171696668 0.0
377573.2171696668 -279763.68326174095 0.0
0.0 0.0 0.0

-367487.8489092089 2.608033096770672e6 0.0
2.608033096770672e6 191059.1497836176 0.0
0.0 0.0 0.0

268320.7054694766 499010.10817719356 0.0
499010.10817719356 -928083.1482761385 0.0
0.0 0.0 0.0

-696720.3183902034 4.481918918355218e6 0.0
4.481918918355218e6 507581.0411561727 0.0
0.0 0.0 0.0

533290.358869464 1.4936552360611067e6 0.0
1.4936552360611067e6 -1.2057493100352306e6 0.0
0.0 0.0 0.0

148505.0852364312 122606.87481720405 0.0
122606.87481720405 -624365.6557003625 0.0
0.0 0.0 0.0

885250.6825306984 474611.03516725363 0.0
474611.03516725363 -1.2109115315723256e6 0.0
0.0 0.0 0.0

-49571.58961549919 1.2080399043926457e6 0.0
1.2080399043926457e6 -587714.0478939228 0.0
0.0 0.0 0.0

-129302.57017813965 115431.48256315487 0.0
115431.48256315487 -407374.2923996412 0.0
0.0 0.0 0.0

244650.61894159176 3.0159607896893127e6 0.0
3.0159607896893127e6 -497360.38940027036 0.0
0.0 0.0 0.0

-192665.07703116932 1.5256323807375361e6 0.0
1.5256323807375361e6 371036.33684882405 0.0
0.0 0.0 0.0

77556.9352944212 420689.7479096391 0.0
420689.7479096391 -189824.37529408978 0.0
0.0 0.0 0.0

-41529.706420876246 2.1888907788515287e6 0.0
2.1888907788515287e6 -386582.8188714754 0.0
0.0 0.0 0.0

-1.837975114199034e6 15460.04551291341 0.0
15460.04551291341 1.8354793346404517e6 0.0
0.0 0.0 0.0

-902346.6941480403 2.164790472886895e6 0.0
2.164790472886895e6 232721.55837590154 0.0
0.0 0.0 0.0

-300361.49253537157 95043.26710165154 0.0
95043.26710165154 262391.33830731956 0.0
0.0 0.0 0.0

-75609.34902185597 1.6800432313537365e6 0.0
1.6800432313537365e6 -880187.6909965044 0.0
0.0 0.0 0.0

90224.26742427456 2.185088280620495e6 0.0
2.185088280620495e6 -163358.98741934117 0.0
0.0 0.0 0.0

-616263.9623882952 4.233433034989081e6 0.0
4.233433034989081e6 553170.1282615464 0.0
0.0 0.0 0.0

-556130.2576503387 3.091906306143035e6 0.0
3.091906306143035e6 83084.4127904659 0.0
0.0 0.0 0.0

-450752.4703491592 3.717826132929413e6 0.0
3.717826132929413e6 622894.1878766847 0.0
0.0 0.0 0.0

-364646.00814598816 2.8133414839878106e6 0.0
2.8133414839878106e6 137216.38352244368 0.0
0.0 0.0 0.0

203032.50577087307 -124261.82850354059 0.0
-124261.82850354059 -291973.9841085534 0.0
0.0 0.0 0.0

-424078.88219978847 2.493770354592696e6 0.0
2.493770354592696e6 30774.305935684068 0.0
0.0 0.0 0.0

-669288.9295087524 6.216417437095968e6 0.0
6.216417437095968e6 324097.9747674125 0.0
0.0 0.0 0.0

-342359.6950820619 3.1351904848773214e6 0.0
3.1351904848773214e6 137750.08536189666 0.0
0.0 0.0 0.0

-198551.20343536147 2.229248952882357e6 0.0
2.229248952882357e6 -299114.5910653931 0.0
0.0 0.0 0.0

-94052.37428008391 1.1818020640919306e6 0.0
1.1818020640919306e6 -388364.89133446175 0.0
0.0 0.0 0.0

-475933.0129338534 2.165661723050189e6 0.0
2.165661723050189e6 -171882.4943136987 0.0
0.0 0.0 0.0

1.3893526702342308e6 560187.0487244095 0.0
560187.0487244095 -1.7106249396685848e6 0.0
0.0 0.0 0.0

48858.59940001514 300232.72060876247 0.0
300232.72060876247 -694782.7639228516 0.0
0.0 0.0 0.0

-135582.35704671283 343347.71759869263 0.0
343347.71759869263 -853492.8620812882 0.0
0.0 0.0 0.0

-308306.5059969614 1.8450671627427917e6 0.0
1.8450671627427917e6 -132840.8033850047 0.0
0.0 0.0 0.0

349964.5043348952 311526.4864210924 0.0
311526.4864210924 -957363.7897410901 0.0
0.0 0.0 0.0

-371904.9943567329 2.336686441065641e6 0.0
2.336686441065641e6 -136161.25538941202 0.0
0.0 0.0 0.0

-21113.669061111585 2.374058466554497e6 0.0
2.374058466554497e6 -198951.70476522984 0.0
0.0 0.0 0.0

151668.66615809282 1.36216315511659e6 0.0
1.36216315511659e6 -707763.912879274 0.0
0.0 0.0 0.0

398688.2929191903 -2281.8204455673313 0.0
-2281.8204455673313 -318152.4145636917 0.0
0.0 0.0 0.0

-1.5300975756935503e6 915719.5483958136 0.0
915719.5483958136 285037.8919425281 0.0
0.0 0.0 0.0

387464.60318139795 1.0140713526260423e6 0.0
1.0140713526260423e6 -862026.2815179647 0.0
0.0 0.0 0.0

-619048.2571913347 -147988.4812701983 0.0
-147988.4812701983 884591.0484885771 0.0
0.0 0.0 0.0

76751.93707941865 289676.5380248549 0.0
289676.5380248549 -703947.1939089478 0.0
0.0 0.0 0.0

-262305.6948143107 1.61550739772197e6 0.0
1.61550739772197e6 759042.0927010305 0.0
0.0 0.0 0.0

392235.49501393136 1.138494731396172e6 0.0
1.138494731396172e6 -848366.6870438331 0.0
0.0 0.0 0.0

47182.988775502774 1.6602085222841934e6 0.0
1.6602085222841934e6 -771046.3970326589 0.0
0.0 0.0 0.0

120251.91153564928 -136961.76770241078 0.0
-136961.76770241078 -116916.8684116376 0.0
0.0 0.0 0.0

102045.81360204692 111823.29125368524 0.0
111823.29125368524 -120269.14367075224 0.0
0.0 0.0 0.0

-348605.61801698094 2.5451774053564537e6 0.0
2.5451774053564537e6 -280965.1710277712 0.0
0.0 0.0 0.0

-55947.218519838716 1.0411071931901574e6 0.0
1.0411071931901574e6 -410333.26085834333 0.0
0.0 0.0 0.0

-99974.41451906343 71168.37680793107 0.0
71168.37680793107 39921.34693217572 0.0
0.0 0.0 0.0

-432168.8180420884 2.557463084761913e6 0.0
2.557463084761913e6 -294559.14622311475 0.0
0.0 0.0 0.0

-397485.6898717028 2.432532039811641e6 0.0
2.432532039811641e6 -48836.99392565989 0.0
0.0 0.0 0.0

-393745.89660096203 2.732738833690448e6 0.0
2.732738833690448e6 277803.99249010114 0.0
0.0 0.0 0.0

-440154.04140969884 2.5691029158724975e6 0.0
2.5691029158724975e6 73818.6748306345 0.0
0.0 0.0 0.0

-218156.03512708214 2.1764966203237516e6 0.0
2.1764966203237516e6 -466431.5610823491 0.0
0.0 0.0 0.0

-222129.64691200064 822064.9045763203 0.0
822064.9045763203 -288947.81761350017 0.0
0.0 0.0 0.0

-148399.05788646018 1.588583924194529e6 0.0
1.588583924194529e6 -295442.8001323485 0.0
0.0 0.0 0.0

-500417.69235474226 2.6731101926089176e6 0.0
2.6731101926089176e6 182580.84607920767 0.0
0.0 0.0 0.0

-482194.86289865244 3.1765157641576277e6 0.0
3.1765157641576277e6 211456.012150811 0.0
0.0 0.0 0.0

466437.33863059955 -34492.82693517887 0.0
-34492.82693517887 -405324.4650384998 0.0
0.0 0.0 0.0

-194248.28127943294 2.0949256826779568e6 0.0
2.0949256826779568e6 -571736.5346613134 0.0
0.0 0.0 0.0

-192889.58713739613 2.9144354800568237e6 0.0
2.9144354800568237e6 -642965.1659627055 0.0
0.0 0.0 0.0

210928.3395773787 -157101.8874101458 0.0
-157101.8874101458 -249434.99925245537 0.0
0.0 0.0 0.0

-49824.72528079516 503512.11159654026 0.0
503512.11159654026 -612277.8781909146 0.0
0.0 0.0 0.0

-120630.1333805665 1.3640189806471122e6 0.0
1.3640189806471122e6 -566114.3574004438 0.0
0.0 0.0 0.0

572645.2696637369 1.3264901910199334e6 0.0
1.3264901910199334e6 -1.144018819459809e6 0.0
0.0 0.0 0.0

-63162.852748508754 705452.556922025 0.0
705452.556922025 -297778.72068718506 0.0
0.0 0.0 0.0

318601.1262459388 375257.27583702747 0.0
375257.27583702747 -850327.576802345 0.0
0.0 0.0 0.0

86007.46842363918 92118.63385172137 0.0
92118.63385172137 -111752.89466222256 0.0
0.0 0.0 0.0

-728173.3790845401 -226214.59205850473 0.0
-226214.59205850473 1.0068926344052998e6 0.0
0.0 0.0 0.0

9270.409145285928 2.1815718103690594e6 0.0
2.1815718103690594e6 -369364.8123744439 0.0
0.0 0.0 0.0

62641.016917025205 1.9090101590560384e6 0.0
1.9090101590560384e6 -471142.13355896727 0.0
0.0 0.0 0.0

-244625.50984552567 1.892009588112276e6 0.0
1.892009588112276e6 15481.200395064778 0.0
0.0 0.0 0.0

-355184.647517909 1.400296234920367e6 0.0
1.400296234920367e6 -95305.4737098459 0.0
0.0 0.0 0.0

1.3037913209010302e6 601895.1595020718 0.0
601895.1595020718 -1.6547045239764652e6 0.0
0.0 0.0 0.0

1.2619441202650894e6 604382.510952569 0.0
604382.510952569 -1.6223445772178667e6 0.0
0.0 0.0 0.0

12505.556020314609 271013.1778469399 0.0
271013.1778469399 9105.715812689014 0.0
0.0 0.0 0.0

-362036.10809515405 2.375411513944951e6 0.0
2.375411513944951e6 -124497.64571694499 0.0
0.0 0.0 0.0

-209837.9020573423 3.2112265173683274e6 0.0
3.2112265173683274e6 161778.03414035199 0.0
0.0 0.0 0.0

-1.8384888003013022e6 -359396.44461759186 0.0
-359396.44461759186 2.067690239059427e6 0.0
0.0 0.0 0.0

-164313.38032385067 922713.2689074678 0.0
922713.2689074678 -152314.84784264333 0.0
0.0 0.0 0.0

-603754.2341023064 3.2723921584108397e6 0.0
3.2723921584108397e6 286333.7380562791 0.0
0.0 0.0 0.0

-7.472457805297609e6 596550.8547805198 0.0
596550.8547805198 8.261626532477534e6 0.0
0.0 0.0 0.0

-22487.92696815131 -362917.1955062763 0.0
-362917.1955062763 201209.25875354634 0.0
0.0 0.0 0.0

-649833.7005494302 3.688280867855129e6 0.0
3.688280867855129e6 552543.3739791214 0.0
0.0 0.0 0.0

-289463.5494158348 1.941812400641268e6 0.0
1.941812400641268e6 405274.1302429847 0.0
0.0 0.0 0.0

132611.09891618232 423479.3942969006 0.0
423479.3942969006 -485849.408487243 0.0
0.0 0.0 0.0

-226446.32555544798 2.101887428616415e6 0.0
2.101887428616415e6 -318597.74283118383 0.0
0.0 0.0 0.0

-2.373463662923877e6 313394.17216924625 0.0
313394.17216924625 3.5725270929321367e6 0.0
0.0 0.0 0.0

869694.3539587914 732336.932925107 0.0
732336.932925107 -1.349628670046691e6 0.0
0.0 0.0 0.0

-154201.71813182862 2.172175380635199e6 0.0
2.172175380635199e6 -392852.41181661206 0.0
0.0 0.0 0.0

-124763.35643459979 -122792.14311486081 0.0
-122792.14311486081 206539.180278312 0.0
0.0 0.0 0.0

670323.4850743427 817488.7510425793 0.0
817488.7510425793 -1.1336983558480302e6 0.0
0.0 0.0 0.0

-125747.31764350914 2.4235379901298373e6 0.0
2.4235379901298373e6 297906.7861076102 0.0
0.0 0.0 0.0

811153.7394458192 654193.8083655208 0.0
654193.8083655208 -1.1947174186625706e6 0.0
0.0 0.0 0.0

-399507.5052886165 2.398565678448479e6 0.0
2.398565678448479e6 -113188.76488785713 0.0
0.0 0.0 0.0

-331287.9522757096 2.309980641015925e6 0.0
2.309980641015925e6 -210904.2602498705 0.0
0.0 0.0 0.0

22592.047872773037 69591.99812076181 0.0
69591.99812076181 -45701.57109037216 0.0
0.0 0.0 0.0

-348114.8884321147 2.3458316633249116e6 0.0
2.3458316633249116e6 -134855.96186593882 0.0
0.0 0.0 0.0

274720.7472712511 -90835.92907906139 0.0
-90835.92907906139 -349112.0678991589 0.0
0.0 0.0 0.0

-41079.17057528149 1.985742732237421e6 0.0
1.985742732237421e6 -597609.3703133776 0.0
0.0 0.0 0.0

-180035.28815831203 -316069.552638293 0.0
-316069.552638293 102660.97175973852 0.0
0.0 0.0 0.0

-10772.309270265061 523317.567976943 0.0
523317.567976943 -373020.0568627335 0.0
0.0 0.0 0.0

-403651.1030935267 2.4228284318950907e6 0.0
2.4228284318950907e6 -89301.77960484824 0.0
0.0 0.0 0.0

680819.6087233758 406360.7930480359 0.0
406360.7930480359 -1.0828337659936547e6 0.0
0.0 0.0 0.0

167119.2254989384 11233.88613890309 0.0
11233.88613890309 -158927.50409932958 0.0
0.0 0.0 0.0

1.3452595550038125e6 646226.3388536451 0.0
646226.3388536451 -1.7838145995230055e6 0.0
0.0 0.0 0.0

-152460.27661248334 1.9701951911366594e6 0.0
1.9701951911366594e6 -508200.95085551264 0.0
0.0 0.0 0.0

143005.4619243145 94609.6982748938 0.0
94609.6982748938 -272669.1850626969 0.0
0.0 0.0 0.0

-293228.3485246025 1.9014529058581989e6 0.0
1.9014529058581989e6 -46087.54043096984 0.0
0.0 0.0 0.0

-294964.6023150359 2.0536599728008134e6 0.0
2.0536599728008134e6 16023.816010960232 0.0
0.0 0.0 0.0

-906035.5000352167 528643.2205632657 0.0
528643.2205632657 779534.6098451398 0.0
0.0 0.0 0.0

-246223.472586462 822458.4132123615 0.0
822458.4132123615 349676.6447870951 0.0
0.0 0.0 0.0

-181804.3530054893 -196390.39903833007 0.0
-196390.39903833007 162459.05268459232 0.0
0.0 0.0 0.0

-115367.27767830904 1.5391925534830948e6 0.0
1.5391925534830948e6 -315718.9792843117 0.0
0.0 0.0 0.0

292300.5516793526 1.912116672799847e6 0.0
1.912116672799847e6 325700.8291694136 0.0
0.0 0.0 0.0

-174140.68683807753 2.0590140705148287e6 0.0
2.0590140705148287e6 52679.55677437111 0.0
0.0 0.0 0.0

117156.67985884924 91805.38578000899 0.0
91805.38578000899 -123232.62153363567 0.0
0.0 0.0 0.0

-51688.956845614506 1.800856122059202e6 0.0
1.800856122059202e6 -770319.8719257427 0.0
0.0 0.0 0.0

-2647.0884084895515 197197.77507653434 0.0
197197.77507653434 -406309.6794725434 0.0
0.0 0.0 0.0

-259933.1831151227 2.3683439684175015e6 0.0
2.3683439684175015e6 -117824.47285445282 0.0
0.0 0.0 0.0

-31529.374535225186 1.4197362045754835e6 0.0
1.4197362045754835e6 -150751.65842215533 0.0
0.0 0.0 0.0

22466.71675839339 436874.64488472306 0.0
436874.64488472306 -291535.8100112326 0.0
0.0 0.0 0.0

-739261.8700365579 3.8959834877568823e6 0.0
3.8959834877568823e6 529272.77874837 0.0
0.0 0.0 0.0

-622399.4993503141 -177015.19901693452 0.0
-177015.19901693452 882115.1673266039 0.0
0.0 0.0 0.0

-199394.1934310709 -118283.37659249704 0.0
-118283.37659249704 312244.020465163 0.0
0.0 0.0 0.0

-1.323536485170485e6 1388.8238906267993 0.0
1388.8238906267993 1.304636648245084e6 0.0
0.0 0.0 0.0

-561248.1961869833 2.9615566454415764e6 0.0
2.9615566454415764e6 354103.5523654019 0.0
0.0 0.0 0.0

-72221.86259736502 317224.18351629766 0.0
317224.18351629766 -176360.3317123023 0.0
0.0 0.0 0.0

-179888.85543572047 2.89462847583315e6 0.0
2.89462847583315e6 801952.0761793465 0.0
0.0 0.0 0.0

195109.65833891934 1.8493211698600857e6 0.0
1.8493211698600857e6 1.6097879612277613e6 0.0
0.0 0.0 0.0

174055.9700169658 226980.90863206997 0.0
226980.90863206997 -458881.65159180784 0.0
0.0 0.0 0.0

237213.10664093628 3886.9821755135495 0.0
3886.9821755135495 -144167.73860527278 0.0
0.0 0.0 0.0

-180306.86164767324 1.518776832178377e6 0.0
1.518776832178377e6 -374239.63015075075 0.0
0.0 0.0 0.0

-283944.7933867007 996200.0661556525 0.0
996200.0661556525 131892.81807076285 0.0
0.0 0.0 0.0

1.2363153893062354e6 632758.230724911 0.0
632758.230724911 -1.6809968793188524e6 0.0
0.0 0.0 0.0

1.0667683651864296e6 611542.472188668 0.0
611542.472188668 -1.4351656745689432e6 0.0
0.0 0.0 0.0

-76691.33206133658 -190764.96960451038 0.0
-190764.96960451038 -147444.49719974637 0.0
0.0 0.0 0.0

-215298.7508146311 978828.8572537601 0.0
978828.8572537601 -92942.52879424859 0.0
0.0 0.0 0.0

-5.761021867201902e6 909992.5461342168 0.0
909992.5461342168 7.966669486698698e6 0.0
0.0 0.0 0.0

-290101.7225966791 2.426303005993456e6 0.0
2.426303005993456e6 -43581.30101997315 0.0
0.0 0.0 0.0

-131768.3846016709 -122677.12201407725 0.0
-122677.12201407725 -50672.690655260616 0.0
0.0 0.0 0.0

1.1623067545853e6 605246.5967003135 0.0
605246.5967003135 -1.530143387502311e6 0.0
0.0 0.0 0.0

-302840.70432233997 1.0086300208146065e6 0.0
1.0086300208146065e6 20357.822836913037 0.0
0.0 0.0 0.0

48446.244995044835 519333.57063754415 0.0
519333.57063754415 -816421.5290425881 0.0
0.0 0.0 0.0

-291841.1221551766 430337.2222488463 0.0
430337.2222488463 -43648.62577120253 0.0
0.0 0.0 0.0

-328042.15356599394 2.239624402725709e6 0.0
2.239624402725709e6 -250809.71534725334 0.0
0.0 0.0 0.0

-302477.62534568796 -247925.54890492305 0.0
-247925.54890492305 379739.16963535163 0.0
0.0 0.0 0.0

49230.75121433762 916141.6118037748 0.0
916141.6118037748 -85938.67382390049 0.0
0.0 0.0 0.0

-52126.77297108152 94944.98172624529 0.0
94944.98172624529 -550106.097981931 0.0
0.0 0.0 0.0

-435015.0553564745 2.5217726305763833e6 0.0
2.5217726305763833e6 -25585.07739369769 0.0
0.0 0.0 0.0

-282105.1348978623 2.1253219644438275e6 0.0
2.1253219644438275e6 -310789.17907231336 0.0
0.0 0.0 0.0

75841.39293309159 95196.063439375 0.0
95196.063439375 -100870.90091488427 0.0
0.0 0.0 0.0

-3.1896930760640353e6 302348.28864675586 0.0
302348.28864675586 4.928304191145755e6 0.0
0.0 0.0 0.0

-2.479640546680782e6 -189815.68035011835 0.0
-189815.68035011835 2.509814774381137e6 0.0
0.0 0.0 0.0

-2.8076139611761738e6 300424.20074960013 0.0
300424.20074960013 4.247092514647432e6 0.0
0.0 0.0 0.0

-5.261085189717399e6 -821964.0887258191 0.0
-821964.0887258191 5.202124055606275e6 0.0
0.0 0.0 0.0

-44133.58062786376 2.3405811703010756e6 0.0
2.3405811703010756e6 -197202.47164412262 0.0
0.0 0.0 0.0

-1.794994989229173e6 -272679.37520984747 0.0
-272679.37520984747 1.8627801520436364e6 0.0
0.0 0.0 0.0

-861689.5994392107 3.8856209121946944e6 0.0
3.8856209121946944e6 327268.81809608854 0.0
0.0 0.0 0.0

-103746.36224012669 1.5244766827423647e6 0.0
1.5244766827423647e6 -372382.32162783504 0.0
0.0 0.0 0.0

-2.0378865204674616e6 532742.579706946 0.0
532742.579706946 595081.6262392463 0.0
0.0 0.0 0.0

83476.89981315879 367280.1592015925 0.0
367280.1592015925 -136903.42776182073 0.0
0.0 0.0 0.0

79259.9382698973 1.5700067240434892e6 0.0
1.5700067240434892e6 -677926.3744546494 0.0
0.0 0.0 0.0

-642736.2537427406 3.971027899475397e6 0.0
3.971027899475397e6 580556.1367228569 0.0
0.0 0.0 0.0

-595089.8034982858 1.6580430817081074e6 0.0
1.6580430817081074e6 45578.354593588825 0.0
0.0 0.0 0.0

878008.5982344549 618017.0977151018 0.0
618017.0977151018 -1.239291608891983e6 0.0
0.0 0.0 0.0

-142914.9247027468 4.247499499480956e6 0.0
4.247499499480956e6 297466.3919542521 0.0
0.0 0.0 0.0

-60715.087069490255 1.1611397422837573e6 0.0
1.1611397422837573e6 -529446.4796844908 0.0
0.0 0.0 0.0

1.1776427554025955e6 736591.7858521013 0.0
736591.7858521013 -1.7031570300885085e6 0.0
0.0 0.0 0.0

-107627.01380079481 321937.86329022597 0.0
321937.86329022597 -970968.7995186514 0.0
0.0 0.0 0.0

-107589.46202427063 506687.9290748395 0.0
506687.9290748395 -364550.02569034544 0.0
0.0 0.0 0.0

-753351.6991486917 612677.7891248089 0.0
612677.7891248089 649382.1541010796 0.0
0.0 0.0 0.0

-1.255591121335881e6 555497.3968480581 0.0
555497.3968480581 310372.8709330626 0.0
0.0 0.0 0.0

46941.558384892625 -36113.466294352766 0.0
-36113.466294352766 -130079.46407336375 0.0
0.0 0.0 0.0

-313858.9531285378 2.486180895151938e6 0.0
2.486180895151938e6 35981.05463660098 0.0
0.0 0.0 0.0

-595552.9303529825 1.4379378951844277e6 0.0
1.4379378951844277e6 243970.77039559078 0.0
0.0 0.0 0.0

204678.95891584604 179657.3901134487 0.0
179657.3901134487 -509660.11065433046 0.0
0.0 0.0 0.0

129512.24123427705 76213.30783378176 0.0
76213.30783378176 -90509.62341663675 0.0
0.0 0.0 0.0

-308239.1387454164 2.499370845768047e6 0.0
2.499370845768047e6 30505.691520603068 0.0
0.0 0.0 0.0

-600562.810656284 3.533008166626488e6 0.0
3.533008166626488e6 99813.1377672001 0.0
0.0 0.0 0.0

-41402.578289648736 1.521517899216105e6 0.0
1.521517899216105e6 -338888.3475366495 0.0
0.0 0.0 0.0

-932366.4787014192 -565.0118719412445 0.0
-565.0118719412445 936460.4305085097 0.0
0.0 0.0 0.0

1.3354840079304636e6 589998.1408147672 0.0
589998.1408147672 -1.6688883109238031e6 0.0
0.0 0.0 0.0

436419.18647425406 314324.88981006533 0.0
314324.88981006533 -952690.1000090863 0.0
0.0 0.0 0.0

-302252.46077466535 1.010400661037949e6 0.0
1.010400661037949e6 -18262.95194196883 0.0
0.0 0.0 0.0

55025.730543464204 -51441.20954129353 0.0
-51441.20954129353 -170571.06733574916 0.0
0.0 0.0 0.0

-432672.4149328186 2.5610534675030024e6 0.0
2.5610534675030024e6 -66259.20497637065 0.0
0.0 0.0 0.0

739849.4187488422 545161.7315633206 0.0
545161.7315633206 -1.1015671133380388e6 0.0
0.0 0.0 0.0

-536315.4650918609 -124571.47214639823 0.0
-124571.47214639823 726194.6698630553 0.0
0.0 0.0 0.0

-63661.94045226202 2.2986875298495037e6 0.0
2.2986875298495037e6 -203151.79386988233 0.0
0.0 0.0 0.0

168358.67699897476 -6849.90834453475 0.0
-6849.90834453475 -150477.5662315605 0.0
0.0 0.0 0.0

476829.2960600711 983250.1306355388 0.0
983250.1306355388 -965217.8841503686 0.0
0.0 0.0 0.0

-159476.0526672254 1.6788892158202513e6 0.0
1.6788892158202513e6 -509470.99962520367 0.0
0.0 0.0 0.0

178257.21179873613 125706.84548264436 0.0
125706.84548264436 -439992.71546396404 0.0
0.0 0.0 0.0

17086.92470574251 1.7730066141579456e6 0.0
1.7730066141579456e6 -713665.0244552724 0.0
0.0 0.0 0.0

-185548.01932208933 2.2248039287378225e6 0.0
2.2248039287378225e6 -333513.04498970887 0.0
0.0 0.0 0.0

-666095.6519695474 -404309.89056642225 0.0
-404309.89056642225 772323.6490220651 0.0
0.0 0.0 0.0

180345.6333159869 -42886.18597190427 0.0
-42886.18597190427 -127482.70621440749 0.0
0.0 0.0 0.0

-490678.315133882 2.5228489253555913e6 0.0
2.5228489253555913e6 -17269.165240625385 0.0
0.0 0.0 0.0

-445012.80817942147 2.1392569709371943e6 0.0
2.1392569709371943e6 -55949.59372389008 0.0
0.0 0.0 0.0

-272265.5146463865 2.3980263186143986e6 0.0
2.3980263186143986e6 -39970.07363368501 0.0
0.0 0.0 0.0

-86686.77870999963 2.2307952767859823e6 0.0
2.2307952767859823e6 -199052.4389667968 0.0
0.0 0.0 0.0

-286284.8910819931 1.311388697746441e6 0.0
1.311388697746441e6 -205217.64643556075 0.0
0.0 0.0 0.0

582528.4416522466 1.0618823719830767e6 0.0
1.0618823719830767e6 -1.1472770736690466e6 0.0
0.0 0.0 0.0

171705.0376616621 -58847.05551732027 0.0
-58847.05551732027 -272739.73009234987 0.0
0.0 0.0 0.0

135463.75903025942 1.641793559736361e6 0.0
1.641793559736361e6 -712795.2963766083 0.0
0.0 0.0 0.0

-3.177854449944503e6 -348238.4936028296 0.0
-348238.4936028296 2.3305353178861057e6 0.0
0.0 0.0 0.0

5.143813757023061e6 2.7478597934517553e6 0.0
2.7478597934517553e6 -2.2155151761061074e6 0.0
0.0 0.0 0.0

588905.5441215052 1.1768490366523284e6 0.0
1.1768490366523284e6 -1.1707843076803666e6 0.0
0.0 0.0 0.0

-58513.75991843634 524014.9787486039 0.0
524014.9787486039 -148809.00819324094 0.0
0.0 0.0 0.0

-508860.0979627763 1.92431094256114e6 0.0
1.92431094256114e6 -100766.23340434753 0.0
0.0 0.0 0.0

-513654.5581814157 2.7809108357482324e6 0.0
2.7809108357482324e6 18970.540713161172 0.0
0.0 0.0 0.0

-248195.58135795945 745379.8030076412 0.0
745379.8030076412 -407846.3677653508 0.0
0.0 0.0 0.0

626.8903839705235 952572.0693521198 0.0
952572.0693521198 -106051.31723674883 0.0
0.0 0.0 0.0

-69206.0734571789 1.5452412598387364e6 0.0
1.5452412598387364e6 -332265.0129590334 0.0
0.0 0.0 0.0

591172.4224297957 1.1169853255481685e6 0.0
1.1169853255481685e6 -1.176777942354431e6 0.0
0.0 0.0 0.0

-266115.14318209124 2.3481392005894966e6 0.0
2.3481392005894966e6 275223.82266417006 0.0
0.0 0.0 0.0

-140090.0479836134 -33721.29461605982 0.0
-33721.29461605982 76503.72247465042 0.0
0.0 0.0 0.0

1.6396143549856863e6 3.2612739054468805e6 0.0
3.2612739054468805e6 -2.9102126699736165e6 0.0
0.0 0.0 0.0

-339988.9865191823 2.6660513339478276e6 0.0
2.6660513339478276e6 209190.1868567815 0.0
0.0 0.0 0.0

1.0071226122998626e6 565104.9411962549 0.0
565104.9411962549 -1.3400545303396508e6 0.0
0.0 0.0 0.0

938285.4315909664 595610.6506633094 0.0
595610.6506633094 -1.276468770529507e6 0.0
0.0 0.0 0.0

-633491.4801454097 690186.0298125868 0.0
690186.0298125868 550041.5299653925 0.0
0.0 0.0 0.0

-94911.71336828526 2.0400286287819566e6 0.0
2.0400286287819566e6 -479114.15665613516 0.0
0.0 0.0 0.0

-111715.08013820146 2.2811377500210153e6 0.0
2.2811377500210153e6 -8057.8490146505355 0.0
0.0 0.0 0.0

-256019.3471083177 3.1955828477776423e6 0.0
3.1955828477776423e6 144176.9219969818 0.0
0.0 0.0 0.0

-232677.6513795421 2.0484493608889305e6 0.0
2.0484493608889305e6 -215780.7590251328 0.0
0.0 0.0 0.0

-168337.01631342113 667084.3769379472 0.0
667084.3769379472 -73688.58907596982 0.0
0.0 0.0 0.0

-34639.14877959399 195325.0909642406 0.0
195325.0909642406 -552584.8316457156 0.0
0.0 0.0 0.0

119239.8433993802 -175290.83523534678 0.0
-175290.83523534678 -255678.3074632301 0.0
0.0 0.0 0.0

108229.53040407243 1.2411640452413273e6 0.0
1.2411640452413273e6 -723950.1998517326 0.0
0.0 0.0 0.0

353437.8956427735 1.114851734837187e6 0.0
1.114851734837187e6 -848928.3905880726 0.0
0.0 0.0 0.0

-48654.191599864746 106743.83028573198 0.0
106743.83028573198 -386009.27369313576 0.0
0.0 0.0 0.0

-49576.57669238294 1.0974437507829142e6 0.0
1.0974437507829142e6 175059.7681742109 0.0
0.0 0.0 0.0

-384263.7592126659 2.1370268767425306e6 0.0
2.1370268767425306e6 -296226.2537659017 0.0
0.0 0.0 0.0

-114044.80964966698 581853.70212701 0.0
581853.70212701 -448477.8995124339 0.0
0.0 0.0 0.0

-41481.488074400986 997814.8987280842 0.0
997814.8987280842 -182036.632758995 0.0
0.0 0.0 0.0

877752.6013380154 468379.87547850877 0.0
468379.87547850877 -1.2209592706371588e6 0.0
0.0 0.0 0.0

-301290.28381914 2.4871641586893066e6 0.0
2.4871641586893066e6 25816.803263370413 0.0
0.0 0.0 0.0

309254.21324982645 -89401.90088220754 0.0
-89401.90088220754 -393784.6616944337 0.0
0.0 0.0 0.0

-602780.3735052382 3.5430524627598883e6 0.0
3.5430524627598883e6 543893.325432676 0.0
0.0 0.0 0.0

1.2210794623489156e6 653400.0680340504 0.0
653400.0680340504 -1.7147994022017932e6 0.0
0.0 0.0 0.0

-333711.5186889682 2.6037426013052613e6 0.0
2.6037426013052613e6 100022.97961804803 0.0
0.0 0.0 0.0

272009.1874413221 604126.25477103 0.0
604126.25477103 -758585.026912311 0.0
0.0 0.0 0.0

-215634.11630272743 -359673.68993881054 0.0
-359673.68993881054 211741.21446055034 0.0
0.0 0.0 0.0

516976.7437180402 560203.8673359253 0.0
560203.8673359253 -975973.8081219473 0.0
0.0 0.0 0.0

-351935.7707215745 1.260855419768046e6 0.0
1.260855419768046e6 -60290.932756660986 0.0
0.0 0.0 0.0

-485199.7505824884 3.390394455325912e6 0.0
3.390394455325912e6 508461.23223458754 0.0
0.0 0.0 0.0

-82284.32278050568 1.5175964661938187e6 0.0
1.5175964661938187e6 -495302.53490273387 0.0
0.0 0.0 0.0

-119290.19837212162 859047.4631550234 0.0
859047.4631550234 -345573.5539919945 0.0
0.0 0.0 0.0

-479776.3345707562 3.8813906455081874e6 0.0
3.8813906455081874e6 655304.1498473948 0.0
0.0 0.0 0.0

-423624.4430576192 2.92188606647754e6 0.0
2.92188606647754e6 409971.1764314824 0.0
0.0 0.0 0.0

159212.1749093155 32332.501362284253 0.0
32332.501362284253 -228179.25797770935 0.0
0.0 0.0 0.0

-186846.20176299912 2.0236493723281056e6 0.0
2.0236493723281056e6 117952.87954589362 0.0
0.0 0.0 0.0

-142952.2707780656 -248315.15908924886 0.0
-248315.15908924886 200244.88731146036 0.0
0.0 0.0 0.0

36008.66773733838 864595.1548877052 0.0
864595.1548877052 -72279.770325604 0.0
0.0 0.0 0.0

-1.2532297840034645e6 -135242.4245050652 0.0
-135242.4245050652 1.5768904105340624e6 0.0
0.0 0.0 0.0

5920.260340341134 1.0417533888075304e6 0.0
1.0417533888075304e6 -403874.3160025018 0.0
0.0 0.0 0.0

-346418.05817690934 2.2607522770139095e6 0.0
2.2607522770139095e6 -171755.87695242368 0.0
0.0 0.0 0.0

-391114.6185961215 2.8872124777181824e6 0.0
2.8872124777181824e6 185449.97210007973 0.0
0.0 0.0 0.0

-472930.9015248242 2.7085505670541404e6 0.0
2.7085505670541404e6 27830.059389240167 0.0
0.0 0.0 0.0

523884.6383520828 1.032041861900707e6 0.0
1.032041861900707e6 -1.114199383304984e6 0.0
0.0 0.0 0.0

1.1739272043762635e6 708078.9606528961 0.0
708078.9606528961 -1.700529686798071e6 0.0
0.0 0.0 0.0

59607.434064586574 145212.32240951006 0.0
145212.32240951006 -103978.77371818504 0.0
0.0 0.0 0.0

-483556.455042754 1.3920353082735406e6 0.0
1.3920353082735406e6 128637.5509113757 0.0
0.0 0.0 0.0

-418540.0829252901 -81975.3225228977 0.0
-81975.3225228977 401605.44561239873 0.0
0.0 0.0 0.0

-348462.3465482439 2.5443861089523137e6 0.0
2.5443861089523137e6 111843.15092200658 0.0
0.0 0.0 0.0

-322752.90568272804 2.3532858203422185e6 0.0
2.3532858203422185e6 -202765.6017873349 0.0
0.0 0.0 0.0

679793.480428254 641002.7292818542 0.0
641002.7292818542 -519950.6197413802 0.0
0.0 0.0 0.0

-217449.30639580128 2.014293449800419e6 0.0
2.014293449800419e6 400202.4525442136 0.0
0.0 0.0 0.0

-44473.38578163835 359171.3839637345 0.0
359171.3839637345 -727057.6427968551 0.0
0.0 0.0 0.0

-57158.730375593106 1.3003948149422258e6 0.0
1.3003948149422258e6 -530020.093774927 0.0
0.0 0.0 0.0

-335356.29925477767 2.6661423715234594e6 0.0
2.6661423715234594e6 92556.75030745604 0.0
0.0 0.0 0.0

-256933.34008530795 2.3247931146027516e6 0.0
2.3247931146027516e6 -122856.75901567236 0.0
0.0 0.0 0.0

-760732.0132736469 137542.38258236193 0.0
137542.38258236193 1.202299146278993e6 0.0
0.0 0.0 0.0

87095.2787675393 110177.53646538556 0.0
110177.53646538556 -152925.18651334874 0.0
0.0 0.0 0.0

-497166.38548557216 2.8690085887470962e6 0.0
2.8690085887470962e6 48773.81440285512 0.0
0.0 0.0 0.0

-626113.3751535036 3.334098097046126e6 0.0
3.334098097046126e6 346495.23446212185 0.0
0.0 0.0 0.0

-91887.91656931509 1.8460497196044025e6 0.0
1.8460497196044025e6 227748.32011327703 0.0
0.0 0.0 0.0

-968015.5162435062 3.6226259488947387e6 0.0
3.6226259488947387e6 315350.73919540126 0.0
0.0 0.0 0.0

439801.0637414713 1.0472341032566504e6 0.0
1.0472341032566504e6 -908682.0590945648 0.0
0.0 0.0 0.0

-1.0734102816804857e6 2.1642869576040665e6 0.0
2.1642869576040665e6 221124.77699672495 0.0
0.0 0.0 0.0

-150190.1290640391 584658.9212805906 0.0
584658.9212805906 -400298.98359262006 0.0
0.0 0.0 0.0

-258229.0871461307 2.341656084713722e6 0.0
2.341656084713722e6 -128787.59337023582 0.0
0.0 0.0 0.0

-18770.3969501759 1.9752443923555417e6 0.0
1.9752443923555417e6 -481366.5418251662 0.0
0.0 0.0 0.0

-101104.01906000148 1.648974726945323e6 0.0
1.648974726945323e6 -438598.2635921973 0.0
0.0 0.0 0.0

-100917.18715165323 2.144552792500286e6 0.0
2.144552792500286e6 -137416.594410902 0.0
0.0 0.0 0.0

-351510.63666899886 1.226082360575646e6 0.0
1.226082360575646e6 105009.17495275775 0.0
0.0 0.0 0.0

-359662.3857536088 2.653666357264186e6 0.0
2.653666357264186e6 192076.40086344772 0.0
0.0 0.0 0.0

-541449.8136621023 2.9587018581819115e6 0.0
2.9587018581819115e6 70588.883850243 0.0
0.0 0.0 0.0

-58057.798884808086 1.5772991155248897e6 0.0
1.5772991155248897e6 -566856.196975165 0.0
0.0 0.0 0.0

-311186.79339651583 3.02454669316272e6 0.0
3.02454669316272e6 -346379.65250113345 0.0
0.0 0.0 0.0

-590268.8321220145 1.8369240439174564e6 0.0
1.8369240439174564e6 49503.81093816628 0.0
0.0 0.0 0.0

-961319.0156734376 3.926246697668703e6 0.0
3.926246697668703e6 317538.46666592034 0.0
0.0 0.0 0.0

-239636.84203196704 -450344.1349840107 0.0
-450344.1349840107 328002.6504806959 0.0
0.0 0.0 0.0

-468366.68881046923 2.1386531649065292e6 0.0
2.1386531649065292e6 -328.3564992333122 0.0
0.0 0.0 0.0

-1.0977279606581177e6 3.1708402047362863e6 0.0
3.1708402047362863e6 305748.0344740934 0.0
0.0 0.0 0.0

-272736.977167719 1.2237851234825028e6 0.0
1.2237851234825028e6 -123050.20623824983 0.0
0.0 0.0 0.0

-2.269330678045822e6 -417785.39428276476 0.0
-417785.39428276476 2.0660000376749272e6 0.0
0.0 0.0 0.0

5528.619785198127 1.730350657465726e6 0.0
1.730350657465726e6 -711245.535725858 0.0
0.0 0.0 0.0

-176697.1119309974 929367.2531943758 0.0
929367.2531943758 -163399.98142774825 0.0
0.0 0.0 0.0

-883457.3726237454 3.7745657717224318e6 0.0
3.7745657717224318e6 294290.5200920026 0.0
0.0 0.0 0.0

-229293.65921983987 988424.0038154918 0.0
988424.0038154918 -109274.55192758946 0.0
0.0 0.0 0.0

-98164.630330893 2.189095090470909e6 0.0
2.189095090470909e6 -209699.63619415785 0.0
0.0 0.0 0.0

-435049.8012923393 2.9724045459183226e6 0.0
2.9724045459183226e6 407842.11034389306 0.0
0.0 0.0 0.0

-138977.15675795876 637075.2803752711 0.0
637075.2803752711 -278894.93603646493 0.0
0.0 0.0 0.0

128690.96548884475 81207.28201455214 0.0
81207.28201455214 -103499.55446865865 0.0
0.0 0.0 0.0

-354895.2331538481 3.129924388908128e6 0.0
3.129924388908128e6 -115103.86656825728 0.0
0.0 0.0 0.0

-120819.6864401853 545450.9843902979 0.0
545450.9843902979 31724.18393087932 0.0
0.0 0.0 0.0

-593989.701596869 3.542760970654053e6 0.0
3.542760970654053e6 82219.94479743636 0.0
0.0 0.0 0.0

-506163.42621433263 2.7296633545715944e6 0.0
2.7296633545715944e6 214118.5389675749 0.0
0.0 0.0 0.0

-217549.09943856345 1.1852484136412547e6 0.0
1.1852484136412547e6 -188481.58470204865 0.0
0.0 0.0 0.0

-380359.3683660935 3.0625017593545998e6 0.0
3.0625017593545998e6 -285709.16974104743 0.0
0.0 0.0 0.0

3384.1159083891735 -113271.60685644957 0.0
-113271.60685644957 -22562.701003936858 0.0
0.0 0.0 0.0

-184427.75308135807 388446.3021240011 0.0
388446.3021240011 -173243.25339709548 0.0
0.0 0.0 0.0

-183985.17301869235 -3451.9619841197014 0.0
-3451.9619841197014 338915.27755366534 0.0
0.0 0.0 0.0

222739.13506545115 -16571.728384747294 0.0
-16571.728384747294 -173072.76268308074 0.0
0.0 0.0 0.0

-116469.43858730927 1.7756209016300242e6 0.0
1.7756209016300242e6 799523.8771946441 0.0
0.0 0.0 0.0

-649483.2870477632 3.395088195784313e6 0.0
3.395088195784313e6 401704.0943588828 0.0
0.0 0.0 0.0

-436985.36082549725 2.215249020613097e6 0.0
2.215249020613097e6 31712.391588018072 0.0
0.0 0.0 0.0

-385126.2387907882 -51599.00238523056 0.0
-51599.00238523056 580193.4948558288 0.0
0.0 0.0 0.0

-804842.2723614676 3.937221093371423e6 0.0
3.937221093371423e6 407702.5057780025 0.0
0.0 0.0 0.0

-92794.57330591335 1.767871921333319e6 0.0
1.767871921333319e6 -327110.05788139324 0.0
0.0 0.0 0.0

-8538.926182077259 476418.6965234544 0.0
476418.6965234544 -127896.89657566129 0.0
0.0 0.0 0.0

-387622.0513169465 3.2096325007304125e6 0.0
3.2096325007304125e6 -263037.9474719765 0.0
0.0 0.0 0.0

83576.90298599686 1.3549746362741443e6 0.0
1.3549746362741443e6 -799416.1663046305 0.0
0.0 0.0 0.0

-267128.6445136576 1.1174144497141629e6 0.0
1.1174144497141629e6 -76066.94018599724 0.0
0.0 0.0 0.0

-227385.1934551589 2.335294284528779e6 0.0
2.335294284528779e6 -187386.3122271342 0.0
0.0 0.0 0.0

-6.897995871388892e6 1.109517245147477e6 0.0
1.109517245147477e6 9.566111587196e6 0.0
0.0 0.0 0.0

-413776.31462755287 1.944958924064074e6 0.0
1.944958924064074e6 456557.1890524283 0.0
0.0 0.0 0.0

143340.1049625938 213615.09202519114 0.0
213615.09202519114 -621407.3938149139 0.0
0.0 0.0 0.0

156512.73846743497 1.4354050341631488e6 0.0
1.4354050341631488e6 -715073.3949224263 0.0
0.0 0.0 0.0

-538801.1487550859 3.0764949772955724e6 0.0
3.0764949772955724e6 -266629.4554590662 0.0
0.0 0.0 0.0

-337137.0152561865 2.720091812023296e6 0.0
2.720091812023296e6 12606.919849403756 0.0
0.0 0.0 0.0

-654643.0449548535 1.6374237310493344e6 0.0
1.6374237310493344e6 139965.3150603429 0.0
0.0 0.0 0.0

-915801.8795127976 4.060965908577021e6 0.0
4.060965908577021e6 377571.5598788316 0.0
0.0 0.0 0.0

-129259.82516495598 1.7804408078727254e6 0.0
1.7804408078727254e6 -373111.59178322897 0.0
0.0 0.0 0.0

-474462.4651155628 3.061009951142098e6 0.0
3.061009951142098e6 -273400.7070069491 0.0
0.0 0.0 0.0

-273898.5778647383 1.1269364152361325e6 0.0
1.1269364152361325e6 -92972.6189027576 0.0
0.0 0.0 0.0

240815.6285319462 14633.982531140055 0.0
14633.982531140055 -327364.22551775177 0.0
0.0 0.0 0.0

-94407.0749059569 206151.54194344796 0.0
206151.54194344796 -335830.90932187106 0.0
0.0 0.0 0.0

-620918.3857337872 3.4914054024182134e6 0.0
3.4914054024182134e6 -2979.8477035198302 0.0
0.0 0.0 0.0

58466.3960598151 692736.5050982236 0.0
692736.5050982236 -306507.034252242 0.0
0.0 0.0 0.0

-506879.61049786874 1.7603492170236523e6 0.0
1.7603492170236523e6 -73048.9474519812 0.0
0.0 0.0 0.0

129546.7767708652 346518.3726095373 0.0
346518.3726095373 -126486.94751422062 0.0
0.0 0.0 0.0

-928591.8049448235 4.587724204495842e6 0.0
4.587724204495842e6 452960.0296499438 0.0
0.0 0.0 0.0

-1.5562220509642032e6 -122250.69891704893 0.0
-122250.69891704893 1.0530570467585777e6 0.0
0.0 0.0 0.0

-351397.08419841947 672403.7561532663 0.0
672403.7561532663 -674530.193683795 0.0
0.0 0.0 0.0

247705.36030534026 1.2232582876709218e6 0.0
1.2232582876709218e6 -828229.0790999407 0.0
0.0 0.0 0.0

-295656.7387819346 2.3069336069413093e6 0.0
2.3069336069413093e6 -160924.04715250427 0.0
0.0 0.0 0.0

-337054.90744935913 2.6264163406025157e6 0.0
2.6264163406025157e6 129050.19460679954 0.0
0.0 0.0 0.0

-133172.8698376306 2.023842486784823e6 0.0
2.023842486784823e6 -465128.82797281863 0.0
0.0 0.0 0.0

-641566.4232086184 1.1313388876693642e6 0.0
1.1313388876693642e6 -928125.8458190587 0.0
0.0 0.0 0.0

308501.24844527245 499391.1897758604 0.0
499391.1897758604 -794127.8830212877 0.0
0.0 0.0 0.0

-965896.2667532777 3.1522013477564156e6 0.0
3.1522013477564156e6 274986.5333583088 0.0
0.0 0.0 0.0

-211999.15513646347 837948.8824906742 0.0
837948.8824906742 -357656.4330468619 0.0
0.0 0.0 0.0

-335723.33775229676 1.789878531085232e6 0.0
1.789878531085232e6 -128933.6307956711 0.0
0.0 0.0 0.0

-1.0872787798184655e6 4.432506291925469e6 0.0
4.432506291925469e6 448112.18549624574 0.0
0.0 0.0 0.0

-225295.45810457197 2.387287491989649e6 0.0
2.387287491989649e6 -95552.04289593716 0.0
0.0 0.0 0.0

-392843.833833401 3.1008882362969895e6 0.0
3.1008882362969895e6 425712.76022663625 0.0
0.0 0.0 0.0

1.069644342771539e6 898605.5521920288 0.0
898605.5521920288 -1.5678074688348342e6 0.0
0.0 0.0 0.0

-350258.69025062036 430440.65185921727 0.0
430440.65185921727 511708.50992285006 0.0
0.0 0.0 0.0

-940893.1006152658 2.3148914798381887e6 0.0
2.3148914798381887e6 188447.24344461242 0.0
0.0 0.0 0.0

12425.034893189155 711298.9558676594 0.0
711298.9558676594 -38145.84050658023 0.0
0.0 0.0 0.0

-81516.35022571484 846804.5584498039 0.0
846804.5584498039 -364634.7235266955 0.0
0.0 0.0 0.0

-339239.9719013097 2.191394821161616e6 0.0
2.191394821161616e6 43861.75823921588 0.0
0.0 0.0 0.0

-753791.1754530546 1.7849842328562906e6 0.0
1.7849842328562906e6 155443.57764100184 0.0
0.0 0.0 0.0

380738.72440900456 -58955.10629626475 0.0
-58955.10629626475 -249386.10995671648 0.0
0.0 0.0 0.0

-75315.11418363132 284645.5820498175 0.0
284645.5820498175 2283.9139470605733 0.0
0.0 0.0 0.0

-939831.8515120783 3.896085036990364e6 0.0
3.896085036990364e6 368349.22130155447 0.0
0.0 0.0 0.0

-222019.629635714 2.2125893426720533e6 0.0
2.2125893426720533e6 -209506.05975468576 0.0
0.0 0.0 0.0

-261505.73984010995 1.8147423139216832e6 0.0
1.8147423139216832e6 325019.9639013254 0.0
0.0 0.0 0.0

-438655.87797308783 3.0573863372766175e6 0.0
3.0573863372766175e6 -241642.6816366266 0.0
0.0 0.0 0.0

-373972.2190285756 2.790288861588372e6 0.0
2.790288861588372e6 150585.00765299998 0.0
0.0 0.0 0.0

92030.90018492809 1.4552957817652614e6 0.0
1.4552957817652614e6 -808908.1118620799 0.0
0.0 0.0 0.0

-403556.0828540263 3.4251984594171117e6 0.0
3.4251984594171117e6 563814.9276730691 0.0
0.0 0.0 0.0

490703.8454242865 1.0348270359364825e6 0.0
1.0348270359364825e6 -1.081905098347195e6 0.0
0.0 0.0 0.0

360317.86306330224 -5055.44275345683 0.0
-5055.44275345683 -445685.38963258406 0.0
0.0 0.0 0.0

84424.20395369467 2.2118957793609546e6 0.0
2.2118957793609546e6 2.7345994317518678e6 0.0
0.0 0.0 0.0

-573098.3279069687 1.6958552931662272e6 0.0
1.6958552931662272e6 132082.66191868245 0.0
0.0 0.0 0.0

-565688.7691204163 3.37414433597572e6 0.0
3.37414433597572e6 -162094.11246872306 0.0
0.0 0.0 0.0

-313149.54384281393 2.826768313345495e6 0.0
2.826768313345495e6 -24769.759469231547 0.0
0.0 0.0 0.0

-821128.6512257024 4.022013160219485e6 0.0
4.022013160219485e6 439418.5253704586 0.0
0.0 0.0 0.0

-111542.8352877734 11982.120143314025 0.0
11982.120143314025 -309332.15048546856 0.0
0.0 0.0 0.0

-159591.3400960748 1.9166461756084217e6 0.0
1.9166461756084217e6 -309075.3245017101 0.0
0.0 0.0 0.0

-51138.643073067215 1.9661055813970792e6 0.0
1.9661055813970792e6 -600361.2904573191 0.0
0.0 0.0 0.0

-99765.8608934019 2.0812581046603762e6 0.0
2.0812581046603762e6 -515029.13933998736 0.0
0.0 0.0 0.0

-581509.375375711 3.2255923282472733e6 0.0
3.2255923282472733e6 132586.23026128605 0.0
0.0 0.0 0.0

-187576.57279414564 4.265308707560107e6 0.0
4.265308707560107e6 368226.30430279125 0.0
0.0 0.0 0.0

-192814.68104965158 2.0197985548613397e6 0.0
2.0197985548613397e6 230763.1187986182 0.0
0.0 0.0 0.0

31569.156914497056 484401.63016180584 0.0
484401.63016180584 -288344.39468894416 0.0
0.0 0.0 0.0

19727.925586591737 1.8327586754665019e6 0.0
1.8327586754665019e6 -638506.8676509595 0.0
0.0 0.0 0.0

1.1359424124220582e6 676306.3724587213 0.0
676306.3724587213 -1.644338410421946e6 0.0
0.0 0.0 0.0

241582.04353233046 -104189.63064435644 0.0
-104189.63064435644 -409373.2696206486 0.0
0.0 0.0 0.0

-486159.4079302064 1.621618882515742e6 0.0
1.621618882515742e6 2073.856860712578 0.0
0.0 0.0 0.0

1.0297486435085527e6 485324.8006951756 0.0
485324.8006951756 -1.3647032165325687e6 0.0
0.0 0.0 0.0

-374948.7734660455 634254.770581659 0.0
634254.770581659 -107177.30526938199 0.0
0.0 0.0 0.0

-560479.0506330974 3.417368631934281e6 0.0
3.417368631934281e6 184232.35246213817 0.0
0.0 0.0 0.0

-1.3675806957173322e6 134420.1886162146 0.0
134420.1886162146 2.0293820798358181e6 0.0
0.0 0.0 0.0

-304465.8937176673 1.1583781879479068e6 0.0
1.1583781879479068e6 166062.56580939516 0.0
0.0 0.0 0.0

-72133.56679898054 294648.73990688863 0.0
294648.73990688863 -430013.82804217166 0.0
0.0 0.0 0.0

-410831.98251360736 776246.8955113057 0.0
776246.8955113057 283368.0630425055 0.0
0.0 0.0 0.0

366754.930646316 351426.4056597102 0.0
351426.4056597102 -898279.4654353049 0.0
0.0 0.0 0.0

54169.45592838616 1.6829689184093305e6 0.0
1.6829689184093305e6 -711530.9227612535 0.0
0.0 0.0 0.0

-2.1939527605049526e6 3.320046627964367e6 0.0
3.320046627964367e6 1.0426671168486958e6 0.0
0.0 0.0 0.0

47025.53807842755 1.2049938072288854e6 0.0
1.2049938072288854e6 -443634.2008753307 0.0
0.0 0.0 0.0

428208.89002703514 -40934.50499600183 0.0
-40934.50499600183 -530776.3269487303 0.0
0.0 0.0 0.0

-291386.2403668539 2.279835681468666e6 0.0
2.279835681468666e6 -274291.5879749467 0.0
0.0 0.0 0.0

-138155.67902768034 2.1730293939545257e6 0.0
2.1730293939545257e6 -446617.0351762166 0.0
0.0 0.0 0.0

6203.9398087780355 53462.46466731462 0.0
53462.46466731462 60757.73628055975 0.0
0.0 0.0 0.0

111602.74040802843 477457.0267915058 0.0
477457.0267915058 117022.87442882115 0.0
0.0 0.0 0.0

-670559.1547299107 1.7883664084597763e6 0.0
1.7883664084597763e6 139901.26400870856 0.0
0.0 0.0 0.0

-170915.95311298757 1.0157399715107172e6 0.0
1.0157399715107172e6 -207597.0216790667 0.0
0.0 0.0 0.0

-819046.8075640558 2.0016889266573894e6 0.0
2.0016889266573894e6 187920.70329534606 0.0
0.0 0.0 0.0

142938.2054955512 690335.9901675095 0.0
690335.9901675095 -534369.3324205483 0.0
0.0 0.0 0.0

-324789.63920621644 1.2639122594726023e6 0.0
1.2639122594726023e6 -68767.42022396851 0.0
0.0 0.0 0.0

169226.2095550039 22608.874826622017 0.0
22608.874826622017 -112039.06823026986 0.0
0.0 0.0 0.0

-2.2897976228070697e6 -239654.0494557726 0.0
-239654.0494557726 1.7287637585572726e6 0.0
0.0 0.0 0.0

-541122.0060131034 1.6567538591319397e6 0.0
1.6567538591319397e6 42051.8000353298 0.0
0.0 0.0 0.0

-361118.28547054954 878474.9697322779 0.0
878474.9697322779 257409.65070893115 0.0
0.0 0.0 0.0

-538899.6207000131 3.845919344383428e6 0.0
3.845919344383428e6 594602.9468668897 0.0
0.0 0.0 0.0

-373527.14654209156 838177.9024210813 0.0
838177.9024210813 -140267.02382181218 0.0
0.0 0.0 0.0

-14773.985770942527 990630.6592737356 0.0
990630.6592737356 -306605.1839359987 0.0
0.0 0.0 0.0

-370807.1698633073 1.7886306851136056e6 0.0
1.7886306851136056e6 -150708.0595895565 0.0
0.0 0.0 0.0

-230756.621881023 2.2851385291802217e6 0.0
2.2851385291802217e6 -236791.13551653814 0.0
0.0 0.0 0.0

95824.38640522654 289596.6154244203 0.0
289596.6154244203 -99221.18595199299 0.0
0.0 0.0 0.0

-349983.7863267864 988101.7737862656 0.0
988101.7737862656 228074.60175868814 0.0
0.0 0.0 0.0

-568222.8154893168 3.3217380974334977e6 0.0
3.3217380974334977e6 366101.2805783574 0.0
0.0 0.0 0.0

1.2704714451982025e6 650074.8905788292 0.0
650074.8905788292 -1.7234323991265928e6 0.0
0.0 0.0 0.0

-924343.5200279257 -245104.82038433963 0.0
-245104.82038433963 971495.3809794087 0.0
0.0 0.0 0.0

-39832.225066842366 1.0555647905278038e6 0.0
1.0555647905278038e6 80150.55143758742 0.0
0.0 0.0 0.0

1.0130800025454207e6 606754.7572329459 0.0
606754.7572329459 -1.3630031273255774e6 0.0
0.0 0.0 0.0

-157969.11050987296 1.7191634530349993e6 0.0
1.7191634530349993e6 -270405.64498341363 0.0
0.0 0.0 0.0

627524.3704793064 902560.5508914063 0.0
902560.5508914063 -1.3123604626194714e6 0.0
0.0 0.0 0.0

-979197.4947377362 5.0993826751787085e6 0.0
5.0993826751787085e6 399610.6082019479 0.0
0.0 0.0 0.0

-3.1843312290415308e6 825330.0464065754 0.0
825330.0464065754 4.760168399833476e6 0.0
0.0 0.0 0.0

-660305.7507134392 -203460.78945859143 0.0
-203460.78945859143 668882.5493634392 0.0
0.0 0.0 0.0

-581263.0617717102 3.3808991241051983e6 0.0
3.3808991241051983e6 422343.4367165669 0.0
0.0 0.0 0.0

979314.0297518305 640454.2841807026 0.0
640454.2841807026 -1.4514093673036613e6 0.0
0.0 0.0 0.0

-564752.4541193786 2.2029380858736974e6 0.0
2.2029380858736974e6 -113288.84400456262 0.0
0.0 0.0 0.0

-442079.2269361842 1.5876967771094101e6 0.0
1.5876967771094101e6 -70249.4932010136 0.0
0.0 0.0 0.0

155778.22464534637 18808.34630745837 0.0
18808.34630745837 -83021.01395422936 0.0
0.0 0.0 0.0

-385793.131842413 3.4765419744580793e6 0.0
3.4765419744580793e6 559588.4424384809 0.0
0.0 0.0 0.0

-198071.38484770758 1.9406053720805594e6 0.0
1.9406053720805594e6 -201414.204050346 0.0
0.0 0.0 0.0

-996567.0925005209 3.622448805978292e6 0.0
3.622448805978292e6 317673.4344777486 0.0
0.0 0.0 0.0

1.4440671805764614e6 587002.150567924 0.0
587002.150567924 -1.8145032674388196e6 0.0
0.0 0.0 0.0

-409644.0259493072 1.4453413953974205e6 0.0
1.4453413953974205e6 -48500.36358540597 0.0
0.0 0.0 0.0

-316528.5154743066 2.4842193205611994e6 0.0
2.4842193205611994e6 62281.901662396616 0.0
0.0 0.0 0.0

-95990.90790298661 1.1795546263047257e6 0.0
1.1795546263047257e6 -626514.0872415563 0.0
0.0 0.0 0.0

-443746.5313522901 3.2631262687434014e6 0.0
3.2631262687434014e6 -185050.693762474 0.0
0.0 0.0 0.0

222062.25968297035 -150859.40035040613 0.0
-150859.40035040613 -215576.94719525054 0.0
0.0 0.0 0.0

-278220.8690124798 1.9091998449156813e6 0.0
1.9091998449156813e6 -249270.1005296123 0.0
0.0 0.0 0.0

-59601.63465747543 45654.46505703449 0.0
45654.46505703449 212041.68285820776 0.0
0.0 0.0 0.0

-414346.13028624153 2.9567283196790945e6 0.0
2.9567283196790945e6 181545.6133326668 0.0
0.0 0.0 0.0

-224606.75316979116 -198725.8018083764 0.0
-198725.8018083764 -87793.40016344264 0.0
0.0 0.0 0.0

-687050.155892657 1.7834431298508819e6 0.0
1.7834431298508819e6 150252.31331639498 0.0
0.0 0.0 0.0

-597550.8756806507 3.8376256557644424e6 0.0
3.8376256557644424e6 602429.3633686549 0.0
0.0 0.0 0.0

-69197.5603181422 1.9110250558390708e6 0.0
1.9110250558390708e6 -584773.0389602006 0.0
0.0 0.0 0.0

-120127.79324947268 1.544415486278136e6 0.0
1.544415486278136e6 164507.85337960703 0.0
0.0 0.0 0.0

-639654.4161260291 1.6917330475136028e6 0.0
1.6917330475136028e6 88326.34904267869 0.0
0.0 0.0 0.0

-571096.5629051903 794259.8781950353 0.0
794259.8781950353 439377.3327384853 0.0
0.0 0.0 0.0

-717020.9603000272 2.6281182963474244e6 0.0
2.6281182963474244e6 681646.077387942 0.0
0.0 0.0 0.0

958549.2011772027 688140.772219643 0.0
688140.772219643 -1.5019654670177498e6 0.0
0.0 0.0 0.0

-315747.4078917848 1.1734097359574402e6 0.0
1.1734097359574402e6 -22906.532914427167 0.0
0.0 0.0 0.0

-496177.5841899143 1.485045608090701e6 0.0
1.485045608090701e6 6142.93819276712 0.0
0.0 0.0 0.0

300306.28087506036 54227.52804903536 0.0
54227.52804903536 -609965.5183834683 0.0
0.0 0.0 0.0

-887773.1602912846 5.190165548878803e6 0.0
5.190165548878803e6 383599.8937367402 0.0
0.0 0.0 0.0

-437276.4572564425 3.015900971888134e6 0.0
3.015900971888134e6 205864.39790927497 0.0
0.0 0.0 0.0

-81062.33839014647 522394.7006918059 0.0
522394.7006918059 -141227.9729663073 0.0
0.0 0.0 0.0

-113150.4294101404 1.5795600347639895e6 0.0
1.5795600347639895e6 247415.33414574235 0.0
0.0 0.0 0.0

2262.9101450428643 144301.91598570047 0.0
144301.91598570047 -158780.22487970552 0.0
0.0 0.0 0.0

-740507.0305931895 1.884172087557919e6 0.0
1.884172087557919e6 122175.78621194916 0.0
0.0 0.0 0.0

-798391.3684162024 1.9112196960023826e6 0.0
1.9112196960023826e6 135837.1112794418 0.0
0.0 0.0 0.0

-434710.6344126697 3.0484475860875538e6 0.0
3.0484475860875538e6 210247.6494800768 0.0
0.0 0.0 0.0

-254763.17861909542 2.2554694485214953e6 0.0
2.2554694485214953e6 -134318.2669246208 0.0
0.0 0.0 0.0

-267015.7760219362 4.248518724458326e6 0.0
4.248518724458326e6 419880.2975545233 0.0
0.0 0.0 0.0

-194077.50558412677 2.0399217739074258e6 0.0
2.0399217739074258e6 -23354.296962450833 0.0
0.0 0.0 0.0

188118.43238400194 1.6095538918153632e6 0.0
1.6095538918153632e6 -657660.7433477859 0.0
0.0 0.0 0.0

-292306.5879905891 2.382869694919371e6 0.0
2.382869694919371e6 379917.64799350186 0.0
0.0 0.0 0.0

184294.93014051515 35263.58283493775 0.0
35263.58283493775 -124966.814396073 0.0
0.0 0.0 0.0

-111476.97384684511 2.1537548399763373e6 0.0
2.1537548399763373e6 -230549.60631532088 0.0
0.0 0.0 0.0

-268817.2039260798 1.9707771959827607e6 0.0
1.9707771959827607e6 -141944.03882365263 0.0
0.0 0.0 0.0

-403522.01808851626 1.3092327829293197e6 0.0
1.3092327829293197e6 -5150.909855772523 0.0
0.0 0.0 0.0

118882.03900073396 -11158.201756964394 0.0
-11158.201756964394 -83642.98265426811 0.0
0.0 0.0 0.0

-698418.4314432403 1.765627222432914e6 0.0
1.765627222432914e6 144177.51019155642 0.0
0.0 0.0 0.0

-634224.8599227809 1.8691504828453811e6 0.0
1.8691504828453811e6 72754.48002408721 0.0
0.0 0.0 0.0

-312041.39773525944 2.04218996531801e6 0.0
2.04218996531801e6 -212073.41049791616 0.0
0.0 0.0 0.0

-176692.564766301 1.6842646594971528e6 0.0
1.6842646594971528e6 -588975.220598167 0.0
0.0 0.0 0.0

-262758.5283643871 1.0395312470200286e6 0.0
1.0395312470200286e6 -32185.498232874677 0.0
0.0 0.0 0.0

-161267.7125105719 729995.0302771094 0.0
729995.0302771094 -91320.05257363935 0.0
0.0 0.0 0.0

76497.78717571509 372763.97950260964 0.0
372763.97950260964 -93543.99965646288 0.0
0.0 0.0 0.0

-947353.018391326 3.965718613771258e6 0.0
3.965718613771258e6 378427.8087949524 0.0
0.0 0.0 0.0

33396.53784945357 400123.81237702724 0.0
400123.81237702724 -256436.68014601496 0.0
0.0 0.0 0.0

891380.8852334735 451554.635959893 0.0
451554.635959893 -1.1568234858247556e6 0.0
0.0 0.0 0.0

-893532.3962179177 3.9692149079474416e6 0.0
3.9692149079474416e6 357796.1787905284 0.0
0.0 0.0 0.0

-432993.42160968354 1.4354008798473561e6 0.0
1.4354008798473561e6 -27718.335095508693 0.0
0.0 0.0 0.0

-278768.7469004991 -259121.27987421406 0.0
-259121.27987421406 -22936.688924691145 0.0
0.0 0.0 0.0

-219638.91543431982 1.3992709772350183e6 0.0
1.3992709772350183e6 -473206.83419405867 0.0
0.0 0.0 0.0

-2.0360814200782494e6 3.23005221694491e6 0.0
3.23005221694491e6 864447.5843246222 0.0
0.0 0.0 0.0

1.155148248808165e6 979367.9693254598 0.0
979367.9693254598 -1.6359037332203807e6 0.0
0.0 0.0 0.0

960983.3044839464 501087.4369929995 0.0
501087.4369929995 -1.3208323833840662e6 0.0
0.0 0.0 0.0

-37004.7832996396 1.705654424204296e6 0.0
1.705654424204296e6 -471646.33801218634 0.0
0.0 0.0 0.0

-186969.60602512382 2.0723320171496072e6 0.0
2.0723320171496072e6 -76778.73161232223 0.0
0.0 0.0 0.0

9991.541840337828 1.6915255173384792e6 0.0
1.6915255173384792e6 -782348.6059356162 0.0
0.0 0.0 0.0

-316446.1946850973 2.4759145877341186e6 0.0
2.4759145877341186e6 406483.1949214196 0.0
0.0 0.0 0.0

-197154.7793815997 888060.5772278331 0.0
888060.5772278331 -854014.1194482731 0.0
0.0 0.0 0.0

80575.51044801 1.8464816472349586e6 0.0
1.8464816472349586e6 -331240.16070008173 0.0
0.0 0.0 0.0

-2.629617942659734e6 791777.630632199 0.0
791777.630632199 3.994613898354291e6 0.0
0.0 0.0 0.0

-31903.942796782067 3.338590148600232e6 0.0
3.338590148600232e6 902936.8918747341 0.0
0.0 0.0 0.0

-1.122400132837473e6 1.9979055992915463e6 0.0
1.9979055992915463e6 289580.7354494787 0.0
0.0 0.0 0.0

-586623.8189706834 3.4409658182350663e6 0.0
3.4409658182350663e6 144794.85607762763 0.0
0.0 0.0 0.0

-1.0321441455771808e6 1.0193214767132534e6 0.0
1.0193214767132534e6 70240.07589670474 0.0
0.0 0.0 0.0

-522329.2273754303 3.257364373525909e6 0.0
3.257364373525909e6 309850.49983991927 0.0
0.0 0.0 0.0

-552870.2479810561 1.633057040874002e6 0.0
1.633057040874002e6 -7061.755075750436 0.0
0.0 0.0 0.0

-509528.5067517356 3.3805056028158674e6 0.0
3.3805056028158674e6 89980.71648301271 0.0
0.0 0.0 0.0

23546.71168816369 1.4109494426737444e6 0.0
1.4109494426737444e6 -706071.7634087348 0.0
0.0 0.0 0.0

680614.4340552331 403828.8307662044 0.0
403828.8307662044 -1.0859468019427538e6 0.0
0.0 0.0 0.0

709694.3468087253 859078.9727556997 0.0
859078.9727556997 -1.1821563368372058e6 0.0
0.0 0.0 0.0

-41928.432018996486 2.223928957579612e6 0.0
2.223928957579612e6 17906.85750950067 0.0
0.0 0.0 0.0

694147.5934974542 569038.0111589425 0.0
569038.0111589425 -1.0697612028182321e6 0.0
0.0 0.0 0.0

-821925.5095688723 3.9724320946303066e6 0.0
3.9724320946303066e6 455504.96719341195 0.0
0.0 0.0 0.0

-528144.7983507029 2.75687964530569e6 0.0
2.75687964530569e6 253163.29117085738 0.0
0.0 0.0 0.0

-350234.196502091 3.0350074749063593e6 0.0
3.0350074749063593e6 -309975.37199007947 0.0
0.0 0.0 0.0

-126934.77131305085 1.4883340207360436e6 0.0
1.4883340207360436e6 -323599.16196068586 0.0
0.0 0.0 0.0

-107186.50388780015 525904.3141039698 0.0
525904.3141039698 -91209.40761958167 0.0
0.0 0.0 0.0

1063.97996372114 933655.4061318473 0.0
933655.4061318473 -207747.69150114598 0.0
0.0 0.0 0.0

-1.2900889619083363e6 2.0171580701859128e6 0.0
2.0171580701859128e6 402030.1562852237 0.0
0.0 0.0 0.0

-714669.9250539208 1.7382873328643674e6 0.0
1.7382873328643674e6 153731.8657222985 0.0
0.0 0.0 0.0

-228520.405573002 581701.569730244 0.0
581701.569730244 70560.0483089838 0.0
0.0 0.0 0.0

-172574.68032921446 1.459890637076474e6 0.0
1.459890637076474e6 -575248.9434283733 0.0
0.0 0.0 0.0

-177412.7422476597 2.238336002281513e6 0.0
2.238336002281513e6 -367199.7557855085 0.0
0.0 0.0 0.0

556233.1586948046 517388.3461087933 0.0
517388.3461087933 -1.0732895780766443e6 0.0
0.0 0.0 0.0

-305883.36216992605 1.7588149632261232e6 0.0
1.7588149632261232e6 90428.55389191907 0.0
0.0 0.0 0.0

107067.5534465541 80013.72412881318 0.0
80013.72412881318 -170633.17884637878 0.0
0.0 0.0 0.0

-378092.1535560723 4.1102482394253537e6 0.0
4.1102482394253537e6 592962.1999428819 0.0
0.0 0.0 0.0

-1.9365721304851251e6 -361306.7529901009 0.0
-361306.7529901009 2.194695906721646e6 0.0
0.0 0.0 0.0

-704732.1345251066 3.5994149199662204e6 0.0
3.5994149199662204e6 407196.1219509226 0.0
0.0 0.0 0.0

69790.93246922563 -73354.1875214995 0.0
-73354.1875214995 -192340.07474414964 0.0
0.0 0.0 0.0

182078.70837631111 -106058.71654606602 0.0
-106058.71654606602 -210471.12846452717 0.0
0.0 0.0 0.0

43281.484214166696 546912.6993619413 0.0
546912.6993619413 -181606.74928468344 0.0
0.0 0.0 0.0

-1.5230429372504556e6 79593.056025914 0.0
79593.056025914 1.5218491353702892e6 0.0
0.0 0.0 0.0

491476.7357802615 948888.5178069077 0.0
948888.5178069077 -940599.7923339733 0.0
0.0 0.0 0.0

-911323.1824026575 3.8328996704990272e6 0.0
3.8328996704990272e6 332426.5748350349 0.0
0.0 0.0 0.0

-544501.381972976 1.524128109150935e6 0.0
1.524128109150935e6 64623.324373475334 0.0
0.0 0.0 0.0

-602183.5514145864 3.0756481843861258e6 0.0
3.0756481843861258e6 -216479.77015255863 0.0
0.0 0.0 0.0

-442545.8582776233 1.32390549006814e6 0.0
1.32390549006814e6 101477.71005813306 0.0
0.0 0.0 0.0

-372657.6555743697 1.2451281443739468e6 0.0
1.2451281443739468e6 -458466.2037645322 0.0
0.0 0.0 0.0

-728502.3966206049 3.429724435780333e6 0.0
3.429724435780333e6 29922.617481686088 0.0
0.0 0.0 0.0

-291334.8318674998 4.240597159268192e6 0.0
4.240597159268192e6 464698.4202570051 0.0
0.0 0.0 0.0

-321111.06260734366 2.4025850546703646e6 0.0
2.4025850546703646e6 343804.6847193376 0.0
0.0 0.0 0.0

-522463.35155634873 3.293663081467537e6 0.0
3.293663081467537e6 237915.35201155362 0.0
0.0 0.0 0.0

-194579.08870685945 2.126647682782237e6 0.0
2.126647682782237e6 -250456.13657108662 0.0
0.0 0.0 0.0

-484790.28042497183 2.5600621338992966e6 0.0
2.5600621338992966e6 -261619.57976008885 0.0
0.0 0.0 0.0

-165651.82599307442 3.6645627005474344e6 0.0
3.6645627005474344e6 405966.13705029537 0.0
0.0 0.0 0.0

-312643.420106116 -283017.0371725315 0.0
-283017.0371725315 24027.66152408783 0.0
0.0 0.0 0.0

1.2332831000559807e6 541193.940966563 0.0
541193.940966563 -1.599737197418387e6 0.0
0.0 0.0 0.0

-318767.6942224456 -310400.0947860047 0.0
-310400.0947860047 313166.91212321375 0.0
0.0 0.0 0.0

-223703.8342316901 789080.3313357054 0.0
789080.3313357054 -929990.7832764772 0.0
0.0 0.0 0.0

-631295.2224873181 3.498737520917767e6 0.0
3.498737520917767e6 -15302.527775724739 0.0
0.0 0.0 0.0

311113.85316358635 -130825.14439671548 0.0
-130825.14439671548 -367381.7581532197 0.0
0.0 0.0 0.0

-215875.22337354935 1.0955289674060538e6 0.0
1.0955289674060538e6 233939.25269308334 0.0
0.0 0.0 0.0

-186952.26855445767 2.0666846376295493e6 0.0
2.0666846376295493e6 -256107.64559496692 0.0
0.0 0.0 0.0

-91179.0695242043 796600.8969775486 0.0
796600.8969775486 -948053.9557291932 0.0
0.0 0.0 0.0

-2.0810905480556234e6 3.0471504239538205e6 0.0
3.0471504239538205e6 692050.8432990195 0.0
0.0 0.0 0.0

-196870.43862062428 2.4353288144718576e6 0.0
2.4353288144718576e6 672024.3424300137 0.0
0.0 0.0 0.0

-335281.3140941344 973847.9565224391 0.0
973847.9565224391 -668009.170151372 0.0
0.0 0.0 0.0

-88253.84460267586 661142.5890747699 0.0
661142.5890747699 -331707.4979144091 0.0
0.0 0.0 0.0

-354158.46806375356 83046.77341036267 0.0
83046.77341036267 245978.51081679808 0.0
0.0 0.0 0.0

98081.542136206 90047.97049543043 0.0
90047.97049543043 -12253.389272074397 0.0
0.0 0.0 0.0

-611894.7350803694 1.1322145212299991e6 0.0
1.1322145212299991e6 -828913.1879495885 0.0
0.0 0.0 0.0

-1.4040641372012168e6 1.7491146012761847e6 0.0
1.7491146012761847e6 349480.76329208695 0.0
0.0 0.0 0.0

-353930.96955318004 4.1550710938301734e6 0.0
4.1550710938301734e6 570094.3806255419 0.0
0.0 0.0 0.0

800873.9026633997 517221.3486131503 0.0
517221.3486131503 -1.1434486570510927e6 0.0
0.0 0.0 0.0

-576454.0585888491 3.0122555551965404e6 0.0
3.0122555551965404e6 390229.6553576485 0.0
0.0 0.0 0.0

931704.5175840195 591844.5891273912 0.0
591844.5891273912 -1.4060149857396102e6 0.0
0.0 0.0 0.0

-624084.2658937963 3.396668410364328e6 0.0
3.396668410364328e6 -100637.1284267815 0.0
0.0 0.0 0.0

-267099.7247050412 1.4977825976334491e6 0.0
1.4977825976334491e6 173762.17374129343 0.0
0.0 0.0 0.0

-313000.8285665098 4.223677856977436e6 0.0
4.223677856977436e6 504617.1606754422 0.0
0.0 0.0 0.0

-241024.35133174944 2.322720619742528e6 0.0
2.322720619742528e6 315808.05639272375 0.0
0.0 0.0 0.0

-55460.39969609512 1.1343071803888886e6 0.0
1.1343071803888886e6 210098.29848876837 0.0
0.0 0.0 0.0

-263626.807794385 2.8076509038521713e6 0.0
2.8076509038521713e6 -127868.57753409361 0.0
0.0 0.0 0.0

-750068.2387694508 1.701039034442815e6 0.0
1.701039034442815e6 174878.19588100276 0.0
0.0 0.0 0.0

-151566.24392565808 1.7374659181258478e6 0.0
1.7374659181258478e6 -327079.65119137126 0.0
0.0 0.0 0.0

-525549.3953986972 5.52516854565471e6 0.0
5.52516854565471e6 363929.1123652554 0.0
0.0 0.0 0.0

-667244.1536686945 3.4065248638700494e6 0.0
3.4065248638700494e6 -114227.38045783588 0.0
0.0 0.0 0.0

97712.09586906708 1.5399725305632302e6 0.0
1.5399725305632302e6 37048.31564945524 0.0
0.0 0.0 0.0

-165324.01155310328 2.067620019097598e6 0.0
2.067620019097598e6 -227035.61969582806 0.0
0.0 0.0 0.0

-1.0350004865169274e6 3.1532914144117623e6 0.0
3.1532914144117623e6 275371.4883232538 0.0
0.0 0.0 0.0

-183163.81295396778 1.7401517647739174e6 0.0
1.7401517647739174e6 -331299.73318792076 0.0
0.0 0.0 0.0

416462.26693832275 1.0236820855470069e6 0.0
1.0236820855470069e6 -1.0291216971702368e6 0.0
0.0 0.0 0.0

-1.0490189587556836e6 446913.83906840294 0.0
446913.83906840294 1.661152303831866e6 0.0
0.0 0.0 0.0

-384020.0609712953 2.215329125905572e6 0.0
2.215329125905572e6 -100365.0278593385 0.0
0.0 0.0 0.0

112006.48192520344 118742.98100021422 0.0
118742.98100021422 -92868.42831663784 0.0
0.0 0.0 0.0

234992.06335233635 1.3309148329302e6 0.0
1.3309148329302e6 -792015.9766275588 0.0
0.0 0.0 0.0

-300953.1499490046 2.922961720776971e6 0.0
2.922961720776971e6 -327042.29511762434 0.0
0.0 0.0 0.0

266163.8061360051 436584.20886074257 0.0
436584.20886074257 -234589.08744792276 0.0
0.0 0.0 0.0

-447289.73781442665 1.892124219183583e6 0.0
1.892124219183583e6 -155479.90164387863 0.0
0.0 0.0 0.0

-647597.0658590071 1.8922481006090168e6 0.0
1.8922481006090168e6 104725.41643748246 0.0
0.0 0.0 0.0

-820984.6638198884 4.8132060288064e6 0.0
4.8132060288064e6 444257.87361437763 0.0
0.0 0.0 0.0

-671900.781541443 3.4151323915024516e6 0.0
3.4151323915024516e6 -34658.594414643536 0.0
0.0 0.0 0.0

-358603.7934773611 1.1788982963333514e6 0.0
1.1788982963333514e6 98536.2054659 0.0
0.0 0.0 0.0

-338148.3312201245 4.188892198674141e6 0.0
4.188892198674141e6 532034.085711024 0.0
0.0 0.0 0.0

174436.22855778772 84225.10030008327 0.0
84225.10030008327 -160451.33659169445 0.0
0.0 0.0 0.0

1.0508413745089849e6 685927.3252808311 0.0
685927.3252808311 -1.569798447626781e6 0.0
0.0 0.0 0.0

-397082.45480564836 1.889652424360744e6 0.0
1.889652424360744e6 505233.3152653406 0.0
0.0 0.0 0.0

-631832.7905449648 1.7265789173644884e6 0.0
1.7265789173644884e6 139283.3954397853 0.0
0.0 0.0 0.0

-112549.3776291917 2.015537667830911e6 0.0
2.015537667830911e6 -111812.99755810287 0.0
0.0 0.0 0.0

-2.0696070456717159e6 806234.9268449685 0.0
806234.9268449685 3.350796717715392e6 0.0
0.0 0.0 0.0

6709.96594272606 1.8206239549871827e6 0.0
1.8206239549871827e6 22366.534890274168 0.0
0.0 0.0 0.0

-537647.9991366842 2.912053480654597e6 0.0
2.912053480654597e6 51682.10137751719 0.0
0.0 0.0 0.0

90947.37769916696 2.1425222270913227e6 0.0
2.1425222270913227e6 -315697.69410303293 0.0
0.0 0.0 0.0

-2.044259235940532e6 3.041190129600091e6 0.0
3.041190129600091e6 687432.5773234337 0.0
0.0 0.0 0.0

-172801.83084520715 2.378140557004783e6 0.0
2.378140557004783e6 -197552.97818374212 0.0
0.0 0.0 0.0

2.1793318376012426e6 3.729104689376167e6 0.0
3.729104689376167e6 -801981.6697282044 0.0
0.0 0.0 0.0

-447690.6632579446 3.3003389762560697e6 0.0
3.3003389762560697e6 -252124.420204449 0.0
0.0 0.0 0.0

-535737.1344244509 2.1969737885662583e6 0.0
2.1969737885662583e6 -105043.49795933117 0.0
0.0 0.0 0.0

-226131.21516155556 2.0898585192599052e6 0.0
2.0898585192599052e6 -391526.1974586588 0.0
0.0 0.0 0.0

-807877.708675575 4.903234693053356e6 0.0
4.903234693053356e6 416860.68180545425 0.0
0.0 0.0 0.0

1.1517147006606618e6 588106.8324042894 0.0
588106.8324042894 -1.5668770789511919e6 0.0
0.0 0.0 0.0

11660.21218188449 1.8800833421674795e6 0.0
1.8800833421674795e6 -138442.52620812386 0.0
0.0 0.0 0.0

-153935.9590577207 1.412971366885154e6 0.0
1.412971366885154e6 -675827.2377181804 0.0
0.0 0.0 0.0

-314543.0676668251 1.2843689452975076e6 0.0
1.2843689452975076e6 211707.76793525327 0.0
0.0 0.0 0.0

-768574.7732125262 3.447389085413741e6 0.0
3.447389085413741e6 87322.96388844366 0.0
0.0 0.0 0.0

-2329.640362435268 1.4153850179335552e6 0.0
1.4153850179335552e6 -348201.50451549777 0.0
0.0 0.0 0.0

-397037.8208573645 2.995061699333987e6 0.0
2.995061699333987e6 -233669.65492498066 0.0
0.0 0.0 0.0

-781648.9534494615 3.4442128346340144e6 0.0
3.4442128346340144e6 8720.773366026464 0.0
0.0 0.0 0.0

-309655.3993219072 2.1006355153755234e6 0.0
2.1006355153755234e6 -212279.0788003307 0.0
0.0 0.0 0.0

-1.917420034587422e6 3.057617046401824e6 0.0
3.057617046401824e6 701769.1235135377 0.0
0.0 0.0 0.0

-827631.1839086381 3.4581177802716168e6 0.0
3.4581177802716168e6 73775.17530683725 0.0
0.0 0.0 0.0

-94202.87170637352 -107727.3189651125 0.0
-107727.3189651125 51773.674698141614 0.0
0.0 0.0 0.0

688087.5928418029 3.25359121387825e6 0.0
3.25359121387825e6 -335473.83261532744 0.0
0.0 0.0 0.0

931910.7266275123 889252.1842061065 0.0
889252.1842061065 -1.5362926628371999e6 0.0
0.0 0.0 0.0

-870960.849767223 2.0793507730687691e6 0.0
2.0793507730687691e6 169771.2463357427 0.0
0.0 0.0 0.0

-85989.72832516738 -119842.3258005865 0.0
-119842.3258005865 -172183.5136370236 0.0
0.0 0.0 0.0

-416527.07460687193 3.3284799571742727e6 0.0
3.3284799571742727e6 -102016.97347381964 0.0
0.0 0.0 0.0

-562741.3184051865 2.5958635625574514e6 0.0
2.5958635625574514e6 16891.726444244385 0.0
0.0 0.0 0.0

-1.7646746189604758e6 3.048849198064551e6 0.0
3.048849198064551e6 544663.3204283492 0.0
0.0 0.0 0.0

479092.5960412561 810530.3665966167 0.0
810530.3665966167 -1.1777729048433066e6 0.0
0.0 0.0 0.0

180927.3088280265 25091.403660933793 0.0
25091.403660933793 -132490.74740522134 0.0
0.0 0.0 0.0

-228389.21453484046 2.1560883072704533e6 0.0
2.1560883072704533e6 79950.59579018674 0.0
0.0 0.0 0.0

242469.77607831213 -97898.24059220064 0.0
-97898.24059220064 -409075.49198091234 0.0
0.0 0.0 0.0

-686074.4521250001 3.535749938828258e6 0.0
3.535749938828258e6 362321.17377384094 0.0
0.0 0.0 0.0

-633681.8815400703 2.5734803903766884e6 0.0
2.5734803903766884e6 12631.665595089726 0.0
0.0 0.0 0.0

-125703.42437907212 1.9881741525982453e6 0.0
1.9881741525982453e6 -565502.3573619222 0.0
0.0 0.0 0.0

-1.751883276264323e6 3.077818319391683e6 0.0
3.077818319391683e6 553262.7661956316 0.0
0.0 0.0 0.0

-312398.6121281638 1.3422167795940465e6 0.0
1.3422167795940465e6 178121.1543582501 0.0
0.0 0.0 0.0

-869559.0014942947 3.476674291654683e6 0.0
3.476674291654683e6 131159.2946696612 0.0
0.0 0.0 0.0

1.0502312328145006e6 585699.8847175048 0.0
585699.8847175048 -1.496470045872388e6 0.0
0.0 0.0 0.0

19991.027600432833 237228.96098564134 0.0
237228.96098564134 -511685.4526357823 0.0
0.0 0.0 0.0

-1.7212780108888224e6 3.056678230867572e6 0.0
3.056678230867572e6 510185.69946399645 0.0
0.0 0.0 0.0

1.0098520715364615e6 889117.3675325251 0.0
889117.3675325251 -1.5526591682104187e6 0.0
0.0 0.0 0.0

-1.5810128167788668e6 3.134450328441093e6 0.0
3.134450328441093e6 469684.3263757059 0.0
0.0 0.0 0.0

-1.5094301239480209e6 3.161651997898677e6 0.0
3.161651997898677e6 437179.6296109279 0.0
0.0 0.0 0.0

-1.0550211650882373e6 3.1526080358656445e6 0.0
3.1526080358656445e6 346322.07016209094 0.0
0.0 0.0 0.0

-1.098329713194764e6 3.1454032186448085e6 0.0
3.1454032186448085e6 362863.40683902975 0.0
0.0 0.0 0.0

-1.1462921603982234e6 3.1649602867154498e6 0.0
3.1649602867154498e6 342982.906016516 0.0
0.0 0.0 0.0

-1.172812269575776e6 3.1925983887368585e6 0.0
3.1925983887368585e6 390076.5052697824 0.0
0.0 0.0 0.0

-1.1990914337568933e6 3.202887635825278e6 0.0
3.202887635825278e6 363057.3059426468 0.0
0.0 0.0 0.0

-1.2272200391677087e6 3.2551576823245306e6 0.0
3.2551576823245306e6 325028.69039749436 0.0
0.0 0.0 0.0

42015.73005368776 930676.7839738129 0.0
930676.7839738129 -346489.93216444587 0.0
0.0 0.0 0.0

-1.2706362558368603e6 3.2655483595067407e6 0.0
3.2655483595067407e6 466234.49474587024 0.0
0.0 0.0 0.0

-1.2648518291055616e6 3.224505032977716e6 0.0
3.224505032977716e6 463102.8366107613 0.0
0.0 0.0 0.0

-64604.83015574717 519389.41952186794 0.0
519389.41952186794 -81704.25793564181 0.0
0.0 0.0 0.0

-1.457437668390884e6 3.1719877006913633e6 0.0
3.1719877006913633e6 450642.50169005385 0.0
0.0 0.0 0.0

-1.310575857766487e6 3.2086936122759166e6 0.0
3.2086936122759166e6 426674.0996492135 0.0
0.0 0.0 0.0

-1.3532797444074778e6 3.1583561792388223e6 0.0
3.1583561792388223e6 426651.81547444355 0.0
0.0 0.0 0.0

-1.3723867694331328e6 3.1819620956037175e6 0.0
3.1819620956037175e6 384848.59312246076 0.0
0.0 0.0 0.0

-600663.4863468396 3.3798038226338155e6 0.0
3.3798038226338155e6 -169153.28545442608 0.0
0.0 0.0 0.0

-1.3763561016579347e6 3.168544605988911e6 0.0
3.168544605988911e6 448155.5551047033 0.0
0.0 0.0 0.0

-1.4063415237699484e6 3.2127491065726792e6 0.0
3.2127491065726792e6 434044.99331391766 0.0
0.0 0.0 0.0

-1.5703499772725056e6 3.2745062850860623e6 0.0
3.2745062850860623e6 426399.45923840103 0.0
0.0 0.0 0.0

-1.116082690939759e6 3.305915350233482e6 0.0
3.305915350233482e6 402676.5822934862 0.0
0.0 0.0 0.0

-1.2327246898774067e6 3.2191166392493756e6 0.0
3.2191166392493756e6 388263.32217177725 0.0
0.0 0.0 0.0

-1.1687486112116594e6 3.1894324309849385e6 0.0
3.1894324309849385e6 384596.2105098744 0.0
0.0 0.0 0.0

-1.1910366323005054e6 3.191673985613483e6 0.0
3.191673985613483e6 394216.8637581443 0.0
0.0 0.0 0.0

-1.2079137485749577e6 3.1515028323157975e6 0.0
3.1515028323157975e6 376243.7134393626 0.0
0.0 0.0 0.0

-1.1661587053685046e6 3.1537195649464945e6 0.0
3.1537195649464945e6 353158.8160727232 0.0
0.0 0.0 0.0

-936911.3272193591 3.8518224463237463e6 0.0
3.8518224463237463e6 300001.54870515235 0.0
0.0 0.0 0.0

-889839.9924292983 548431.253584247 0.0
548431.253584247 1.4240406965637798e6 0.0
0.0 0.0 0.0

-1.456046873449139e6 3.137909773473081e6 0.0
3.137909773473081e6 475238.8796923512 0.0
0.0 0.0 0.0

210094.98009576008 555435.1335066153 0.0
555435.1335066153 -963539.1912996128 0.0
0.0 0.0 0.0

-697365.6410244254 1.8597161509243082e6 0.0
1.8597161509243082e6 82499.24526657647 0.0
0.0 0.0 0.0

-1.5180595789339258e6 3.084545448039135e6 0.0
3.084545448039135e6 553850.4597417963 0.0
0.0 0.0 0.0

228689.50415571377 100982.65047743754 0.0
100982.65047743754 -259286.12203543016 0.0
0.0 0.0 0.0

-1.6126952411266342e6 3.0517193988724127e6 0.0
3.0517193988724127e6 507970.31008004886 0.0
0.0 0.0 0.0

107173.32819261066 111184.13563618045 0.0
111184.13563618045 -85404.11828188595 0.0
0.0 0.0 0.0

-1.6975910519644832e6 3.065530777707188e6 0.0
3.065530777707188e6 570352.4974372494 0.0
0.0 0.0 0.0

-278871.12741292664 2.2396527873432986e6 0.0
2.2396527873432986e6 -305085.20284193923 0.0
0.0 0.0 0.0

-14921.224284028285 1.231770400882349e6 0.0
1.231770400882349e6 -381688.5756286786 0.0
0.0 0.0 0.0

349850.78924729134 1.1150159144918506e6 0.0
1.1150159144918506e6 -995919.3035502259 0.0
0.0 0.0 0.0

-826058.3818590846 3.0622880516686286e6 0.0
3.0622880516686286e6 39462.91480037378 0.0
0.0 0.0 0.0

-615650.6566418768 3.3250960348983356e6 0.0
3.3250960348983356e6 189333.12662118365 0.0
0.0 0.0 0.0

-804948.7461577265 3.890351554723733e6 0.0
3.890351554723733e6 419820.003159004 0.0
0.0 0.0 0.0

-257318.18667519948 2.2358503721258766e6 0.0
2.2358503721258766e6 -336004.78300640226 0.0
0.0 0.0 0.0

1.4431312270768324e6 566228.4878767772 0.0
566228.4878767772 -1.6656525056017297e6 0.0
0.0 0.0 0.0

-32700.716247937155 1.3496195784380988e6 0.0
1.3496195784380988e6 -230731.17291749248 0.0
0.0 0.0 0.0

-1.8032804861333696e6 3.006895887543863e6 0.0
3.006895887543863e6 622368.8655478038 0.0
0.0 0.0 0.0

-80748.60380623561 1.585486473822241e6 0.0
1.585486473822241e6 -177380.41873137982 0.0
0.0 0.0 0.0

72961.05465141172 156001.38201598363 0.0
156001.38201598363 -66695.59956977444 0.0
0.0 0.0 0.0

-728356.259151339 3.4286121719260127e6 0.0
3.4286121719260127e6 -53233.50736154293 0.0
0.0 0.0 0.0

-1.3748234500043462e6 4.257253394384033e6 0.0
4.257253394384033e6 420226.2821215136 0.0
0.0 0.0 0.0

487893.41190131527 527409.864609749 0.0
527409.864609749 -1.0718613648329605e6 0.0
0.0 0.0 0.0

-1.2440840038543844e6 1.6819210605477984e6 0.0
1.6819210605477984e6 457194.20599543845 0.0
0.0 0.0 0.0

-102381.2095503007 687984.5469969308 0.0
687984.5469969308 -259148.71719755433 0.0
0.0 0.0 0.0

-634484.4670388607 1.4583071641588549e6 0.0
1.4583071641588549e6 55753.0925402109 0.0
0.0 0.0 0.0

92206.27507865045 2.0492571507990714e6 0.0
2.0492571507990714e6 -421689.58479511016 0.0
0.0 0.0 0.0

-1.9235164371587762e6 3.0543569568163827e6 0.0
3.0543569568163827e6 708035.3350229795 0.0
0.0 0.0 0.0

275046.4539349526 1.063155400930083e6 0.0
1.063155400930083e6 -1.11965591175898e6 0.0
0.0 0.0 0.0

-45265.440608016805 1.1368359976896245e6 0.0
1.1368359976896245e6 -309687.4033629114 0.0
0.0 0.0 0.0

-157033.16795343312 1.2422263449952062e6 0.0
1.2422263449952062e6 -523443.88311541616 0.0
0.0 0.0 0.0

-58486.257668919454 669231.5108730308 0.0
669231.5108730308 -694893.1054963531 0.0
0.0 0.0 0.0

-144475.64032701962 1.912356881207204e6 0.0
1.912356881207204e6 -212631.29509185307 0.0
0.0 0.0 0.0

47747.84514011018 664526.0241031117 0.0
664526.0241031117 -851355.7689759412 0.0
0.0 0.0 0.0

-65459.68907271966 1.9638144991302341e6 0.0
1.9638144991302341e6 -490278.5819805015 0.0
0.0 0.0 0.0

-798875.0376818458 2.597832019439572e6 0.0
2.597832019439572e6 46000.52402561513 0.0
0.0 0.0 0.0

-820373.9437873721 3.4704432313118544e6 0.0
3.4704432313118544e6 137871.51223916584 0.0
0.0 0.0 0.0

-179786.31893082254 912716.3077873554 0.0
912716.3077873554 -370155.71890082874 0.0
0.0 0.0 0.0

-179576.88317548297 3.334863895535055e6 0.0
3.334863895535055e6 853600.2369552914 0.0
0.0 0.0 0.0

-142814.79571738155 1.8604289880604818e6 0.0
1.8604289880604818e6 -202569.3658716247 0.0
0.0 0.0 0.0

-591454.0852506125 3.490534440236881e6 0.0
3.490534440236881e6 220282.66745791843 0.0
0.0 0.0 0.0

-267013.35779900115 2.0017573177082913e6 0.0
2.0017573177082913e6 -57949.4621510773 0.0
0.0 0.0 0.0

-382270.7025647539 2.8985676989708957e6 0.0
2.8985676989708957e6 353854.1939410212 0.0
0.0 0.0 0.0

-316440.0049692929 1.3906426606597248e6 0.0
1.3906426606597248e6 138201.9287878727 0.0
0.0 0.0 0.0

57308.80627171772 1.4236348563818287e6 0.0
1.4236348563818287e6 205803.13156556353 0.0
0.0 0.0 0.0

20268.940168328903 355851.9276627233 0.0
355851.9276627233 -506769.92304588103 0.0
0.0 0.0 0.0

-2.055707602311293e6 3.0428964978738003e6 0.0
3.0428964978738003e6 685290.1945964297 0.0
0.0 0.0 0.0

-594842.4795640025 1.7078916829396554e6 0.0
1.7078916829396554e6 2.7765497897298606e6 0.0
0.0 0.0 0.0

-343278.4522322074 2.125103160502433e6 0.0
2.125103160502433e6 -278652.6965900775 0.0
0.0 0.0 0.0

-213990.92526923213 3.183211744376533e6 0.0
3.183211744376533e6 228844.3180322935 0.0
0.0 0.0 0.0

852171.8449742021 528252.8453087328 0.0
528252.8453087328 -1.2611363290553368e6 0.0
0.0 0.0 0.0

422271.71726110624 968433.316721997 0.0
968433.316721997 -1.1533173442061297e6 0.0
0.0 0.0 0.0

-191529.8379286693 789003.2593168495 0.0
789003.2593168495 -84505.91834536631 0.0
0.0 0.0 0.0

-663707.2045669506 1.7647766011603014e6 0.0
1.7647766011603014e6 169844.35885840276 0.0
0.0 0.0 0.0

-484977.62469169835 1.9001304210860238e6 0.0
1.9001304210860238e6 -166533.48224445264 0.0
0.0 0.0 0.0

-461484.4997152633 2.6263834414949403e6 0.0
2.6263834414949403e6 74418.54492815302 0.0
0.0 0.0 0.0

-1.1210891362439338e6 1.4524170949064249e6 0.0
1.4524170949064249e6 504401.22615168954 0.0
0.0 0.0 0.0

-139911.01376326644 1.5513402000656938e6 0.0
1.5513402000656938e6 -723511.8979123379 0.0
0.0 0.0 0.0

-550849.154842416 1.927062335017423e6 0.0
1.927062335017423e6 -102093.72592664011 0.0
0.0 0.0 0.0

-39089.17974392151 60468.111435358886 0.0
60468.111435358886 -235762.9334722174 0.0
0.0 0.0 0.0

-168076.45477559665 840649.3988858598 0.0
840649.3988858598 -101359.56666442932 0.0
0.0 0.0 0.0

-2.2064452167646606e6 3.4721286027724934e6 0.0
3.4721286027724934e6 1.2719348655734565e6 0.0
0.0 0.0 0.0

-144254.4127111404 599058.6657753615 0.0
599058.6657753615 -386733.53509975254 0.0
0.0 0.0 0.0

-177367.37928786533 21067.71740430558 0.0
21067.71740430558 -245675.66615247136 0.0
0.0 0.0 0.0

-908673.44384307 3.0786012843707846e6 0.0
3.0786012843707846e6 155490.04349563824 0.0
0.0 0.0 0.0

-442181.56817107915 1.4758157028007333e6 0.0
1.4758157028007333e6 16471.800892831612 0.0
0.0 0.0 0.0

-590887.7984209126 3.441207148987394e6 0.0
3.441207148987394e6 474623.17983626615 0.0
0.0 0.0 0.0

-791159.5644533664 3.0505059058880047e6 0.0
3.0505059058880047e6 114155.04294165899 0.0
0.0 0.0 0.0

56184.882110248516 -95539.7051613409 0.0
-95539.7051613409 -31703.663023032586 0.0
0.0 0.0 0.0

-216182.6872082817 1.6007240786670458e6 0.0
1.6007240786670458e6 -309943.3396508152 0.0
0.0 0.0 0.0

-467714.67729929567 1.519870239302951e6 0.0
1.519870239302951e6 62299.06375105784 0.0
0.0 0.0 0.0

-332741.74545430695 1.758517979011587e6 0.0
1.758517979011587e6 -194202.31273157676 0.0
0.0 0.0 0.0

-261632.35897828406 1.7799508309551876e6 0.0
1.7799508309551876e6 -274545.5980634706 0.0
0.0 0.0 0.0

-648745.1962268373 1.3717944160421249e6 0.0
1.3717944160421249e6 21838.953504373872 0.0
0.0 0.0 0.0

-133260.7334093771 672763.9392898545 0.0
672763.9392898545 -274535.7077486401 0.0
0.0 0.0 0.0

-234380.596429192 2.178109998002876e6 0.0
2.178109998002876e6 -394895.0000025745 0.0
0.0 0.0 0.0

-428568.1803051755 1.3405500688494174e6 0.0
1.3405500688494174e6 68748.62469192193 0.0
0.0 0.0 0.0

883777.9916024455 171237.38832002503 0.0
171237.38832002503 -1.586690403465455e6 0.0
0.0 0.0 0.0

-441257.3007316762 -196897.91880026113 0.0
-196897.91880026113 650354.9976352948 0.0
0.0 0.0 0.0

-565406.9104475857 -219045.34995119108 0.0
-219045.34995119108 735711.6446594367 0.0
0.0 0.0 0.0

37601.747635782594 -134194.30152203294 0.0
-134194.30152203294 -284893.0614508995 0.0
0.0 0.0 0.0

-760636.4957063034 -311167.3991100079 0.0
-311167.3991100079 976060.6946354418 0.0
0.0 0.0 0.0

56582.697802921975 -138878.46775850147 0.0
-138878.46775850147 -337427.45932773873 0.0
0.0 0.0 0.0

1.203534948577681e6 223428.56637807377 0.0
223428.56637807377 -1.9971558826027857e6 0.0
0.0 0.0 0.0

-302003.5970383192 -141711.54502422496 0.0
-141711.54502422496 458497.9324164225 0.0
0.0 0.0 0.0

-57441.01479446318 -138246.01352744596 0.0
-138246.01352744596 75054.73149991465 0.0
0.0 0.0 0.0

-865745.1303937568 -464109.1219882007 0.0
-464109.1219882007 1.1496547751147673e6 0.0
0.0 0.0 0.0

43300.24565038737 -172896.3188216162 0.0
-172896.3188216162 -263195.7145037155 0.0
0.0 0.0 0.0

375277.8060223172 -127349.40204573073 0.0
-127349.40204573073 -453228.81186636724 0.0
0.0 0.0 0.0

-354104.82994201605 -325895.0545536987 0.0
-325895.0545536987 635636.6670130763 0.0
0.0 0.0 0.0

-403064.615451313 -180087.65914094963 0.0
-180087.65914094963 593208.3888502555 0.0
0.0 0.0 0.0

1.3099950542797563e6 531226.4513742412 0.0
531226.4513742412 -1.619425500890916e6 0.0
0.0 0.0 0.0

1.4211754923356217e6 541534.2883701392 0.0
541534.2883701392 -1.7441075748100588e6 0.0
0.0 0.0 0.0

1.24274947261716e6 525066.860101762 0.0
525066.860101762 -1.4991305539897382e6 0.0
0.0 0.0 0.0

1.148059980406587e6 418018.3956802002 0.0
418018.3956802002 -1.4840946929212199e6 0.0
0.0 0.0 0.0

-362667.512211261 -157458.64619425236 0.0
-157458.64619425236 546726.0503855231 0.0
0.0 0.0 0.0

65577.26150886447 -156983.909113505 0.0
-156983.909113505 -317465.8368670325 0.0
0.0 0.0 0.0

1.3725494704370184e6 559182.411654098 0.0
559182.411654098 -1.6825126046696682e6 0.0
0.0 0.0 0.0

1.0407191247181416e6 318594.3212688175 0.0
318594.3212688175 -1.491921963956703e6 0.0
0.0 0.0 0.0

1.1353886797054112e6 371117.7983017781 0.0
371117.7983017781 -1.4858653463141527e6 0.0
0.0 0.0 0.0

1.071991115161579e6 258320.53610901997 0.0
258320.53610901997 -1.6295427342547437e6 0.0
0.0 0.0 0.0

-220742.77966161017 2.2924250316576525e6 0.0
2.2924250316576525e6 -265535.82328104856 0.0
0.0 0.0 0.0

212486.01253749142 176706.67298295358 0.0
176706.67298295358 -368705.34641833004 0.0
0.0 0.0 0.0

127080.56677679444 80334.83221232897 0.0
80334.83221232897 -137887.23940048437 0.0
0.0 0.0 0.0

-327907.6342854098 1.4449918657306754e6 0.0
1.4449918657306754e6 138925.32500215404 0.0
0.0 0.0 0.0

-28393.194504981075 1.4292593061026344e6 0.0
1.4292593061026344e6 -645282.4061585316 0.0
0.0 0.0 0.0

-299335.3995456943 1.361850406703727e6 0.0
1.361850406703727e6 -163693.64766614203 0.0
0.0 0.0 0.0

-2.1420487821401814e6 3.083331213375006e6 0.0
3.083331213375006e6 632650.6095888308 0.0
0.0 0.0 0.0

-407441.4658324755 2.138079217750276e6 0.0
2.138079217750276e6 -230000.69525815785 0.0
0.0 0.0 0.0

-143359.32296202914 2.0452949570894835e6 0.0
2.0452949570894835e6 85455.94241394987 0.0
0.0 0.0 0.0

-218836.59172645942 2.540033657958709e6 0.0
2.540033657958709e6 496609.52553915535 0.0
0.0 0.0 0.0

-204589.99747384092 2.1743999809319377e6 0.0
2.1743999809319377e6 -105308.8847720309 0.0
0.0 0.0 0.0

-216176.04967745938 911759.7056261728 0.0
911759.7056261728 -42604.99656573482 0.0
0.0 0.0 0.0

-220810.37302725037 2.24189247072715e6 0.0
2.24189247072715e6 -208161.60799130306 0.0
0.0 0.0 0.0

-154036.9937520879 762522.4651967621 0.0
762522.4651967621 -111598.8846010334 0.0
0.0 0.0 0.0

-793757.3041148223 2.6136269636636875e6 0.0
2.6136269636636875e6 96466.57809600094 0.0
0.0 0.0 0.0

-835415.4526357898 3.68158211595501e6 0.0
3.68158211595501e6 192442.27406583924 0.0
0.0 0.0 0.0

-79914.77796489472 690583.9384768715 0.0
690583.9384768715 -318754.6328182827 0.0
0.0 0.0 0.0

-569345.3270338951 3.0929193888754314e6 0.0
3.0929193888754314e6 141447.14643571925 0.0
0.0 0.0 0.0

-402140.0472182153 1.713386920592012e6 0.0
1.713386920592012e6 -215578.19945706788 0.0
0.0 0.0 0.0

-263992.99395683804 1.2735816840286714e6 0.0
1.2735816840286714e6 -282365.34782442474 0.0
0.0 0.0 0.0

-422758.5570158738 -197227.22208055173 0.0
-197227.22208055173 353093.3714843701 0.0
0.0 0.0 0.0

-483489.2926827535 -227858.34479390894 0.0
-227858.34479390894 433573.19055367354 0.0
0.0 0.0 0.0

39647.22909127033 -170649.89117128475 0.0
-170649.89117128475 -277845.1860384053 0.0
0.0 0.0 0.0

-389262.64836110105 -182670.2399656378 0.0
-182670.2399656378 336857.46861203795 0.0
0.0 0.0 0.0

-326123.25690619973 -164185.80318910396 0.0
-164185.80318910396 278131.4937953312 0.0
0.0 0.0 0.0

1.3540278451585597e6 559593.5876162957 0.0
559593.5876162957 -1.5536327865310279e6 0.0
0.0 0.0 0.0

1.3752416286837119e6 556616.329028434 0.0
556616.329028434 -1.5797800849424342e6 0.0
0.0 0.0 0.0

40299.913851042584 -142837.94526072222 0.0
-142837.94526072222 -278840.30566697236 0.0
0.0 0.0 0.0

1.1696944902697164e6 387841.71965664503 0.0
387841.71965664503 -1.2806324322387995e6 0.0
0.0 0.0 0.0

1.0702003514030175e6 300546.11819160415 0.0
300546.11819160415 -1.1299069998488305e6 0.0
0.0 0.0 0.0

1.129168474382346e6 382808.392334486 0.0
382808.392334486 -1.2739638373226211e6 0.0
0.0 0.0 0.0

1.0858235819917896e6 312804.97025020415 0.0
312804.97025020415 -1.1739622631509406e6 0.0
0.0 0.0 0.0

-214359.04160107844 1.6960681215602164e6 0.0
1.6960681215602164e6 -302009.22841669025 0.0
0.0 0.0 0.0

-767036.0950514185 621179.8536317155 0.0
621179.8536317155 1.2139413330066465e6 0.0
0.0 0.0 0.0

-148804.71332961036 724263.5203451589 0.0
724263.5203451589 -81894.0218383846 0.0
0.0 0.0 0.0

865865.1057864164 463315.8783718292 0.0
463315.8783718292 -1.2626492192881547e6 0.0
0.0 0.0 0.0

-794439.6258095333 4.1855517591892853e6 0.0
4.1855517591892853e6 514247.94417328486 0.0
0.0 0.0 0.0

-22082.49887933003 1.9978244456203065e6 0.0
1.9978244456203065e6 288047.79788780224 0.0
0.0 0.0 0.0

32275.221422617928 278494.4814429951 0.0
278494.4814429951 -187303.84401133965 0.0
0.0 0.0 0.0

-121679.79032174949 878216.1821805935 0.0
878216.1821805935 -612700.2131966501 0.0
0.0 0.0 0.0

-124318.54705379764 1.6502243133482868e6 0.0
1.6502243133482868e6 -759514.148909672 0.0
0.0 0.0 0.0

-792385.1802758125 3.631079522110426e6 0.0
3.631079522110426e6 146422.83216269378 0.0
0.0 0.0 0.0

-153507.93797888898 1.6992536106281625e6 0.0
1.6992536106281625e6 686436.5765910464 0.0
0.0 0.0 0.0

33480.77470439811 985656.5930667807 0.0
985656.5930667807 -134236.8342269018 0.0
0.0 0.0 0.0

-645214.144527988 3.644754102361231e6 0.0
3.644754102361231e6 478624.9735927 0.0
0.0 0.0 0.0

-992794.5150788715 2.6625791716592466e6 0.0
2.6625791716592466e6 225297.90314371942 0.0
0.0 0.0 0.0

-212279.854714018 2.045747716546721e6 0.0
2.045747716546721e6 -203907.94015405417 0.0
0.0 0.0 0.0

-865668.1577128215 3.0620445896580275e6 0.0
3.0620445896580275e6 100400.38920613937 0.0
0.0 0.0 0.0

-335302.1257148325 599953.8997046711 0.0
599953.8997046711 255140.57707558104 0.0
0.0 0.0 0.0

-183028.17268811748 1.7507254366319713e6 0.0
1.7507254366319713e6 571421.6470250406 0.0
0.0 0.0 0.0

766871.7934547247 844260.4479965396 0.0
844260.4479965396 -1.3695250808579545e6 0.0
0.0 0.0 0.0

370053.9726134308 990048.3722566545 0.0
990048.3722566545 -1.1502544658301522e6 0.0
0.0 0.0 0.0

-634695.7367466073 3.5812914879079093e6 0.0
3.5812914879079093e6 435213.6503379452 0.0
0.0 0.0 0.0

-326299.086541782 1.824323375130147e6 0.0
1.824323375130147e6 -36763.99242281822 0.0
0.0 0.0 0.0

-11080.736363872282 569441.4117596683 0.0
569441.4117596683 110053.99752646807 0.0
0.0 0.0 0.0

-429186.53030094056 1.8771029028991892e6 0.0
1.8771029028991892e6 -231893.6276627478 0.0
0.0 0.0 0.0

-716373.7281113872 3.0391713813182446e6 0.0
3.0391713813182446e6 67951.69824872486 0.0
0.0 0.0 0.0

-907010.0623834033 3.500669306447285e6 0.0
3.500669306447285e6 183005.13807980722 0.0
0.0 0.0 0.0

71743.44068357378 1.4616949006304357e6 0.0
1.4616949006304357e6 -795410.8903836497 0.0
0.0 0.0 0.0

59226.35817989445 1.3513936814980253e6 0.0
1.3513936814980253e6 -1.0313281555876151e6 0.0
0.0 0.0 0.0

-45043.15497587458 1.1713106988500508e6 0.0
1.1713106988500508e6 -486139.2813058072 0.0
0.0 0.0 0.0

-192109.1614739765 776362.1492159809 0.0
776362.1492159809 -133111.80430430867 0.0
0.0 0.0 0.0

58854.82375509787 1.5879855027786053e6 0.0
1.5879855027786053e6 -848352.6448282003 0.0
0.0 0.0 0.0

-738927.6534134862 3.9429690362491645e6 0.0
3.9429690362491645e6 501501.0160833884 0.0
0.0 0.0 0.0

-291192.61016180227 -172012.36099233554 0.0
-172012.36099233554 418713.95624861 0.0
0.0 0.0 0.0

-560339.0771179864 5.423325111667373e6 0.0
5.423325111667373e6 390550.84275282884 0.0
0.0 0.0 0.0

-92539.34900342967 901604.4238112317 0.0
901604.4238112317 290847.9258859202 0.0
0.0 0.0 0.0

-524654.5487289563 3.336950307598589e6 0.0
3.336950307598589e6 -195410.05012265863 0.0
0.0 0.0 0.0

-273833.8478350323 1.0025097483387142e6 0.0
1.0025097483387142e6 93073.25777172708 0.0
0.0 0.0 0.0

-227734.8285096712 1.754053489575836e6 0.0
1.754053489575836e6 -349660.4644960729 0.0
0.0 0.0 0.0

-414468.4161475659 2.5430901156938863e6 0.0
2.5430901156938863e6 -237582.30923821748 0.0
0.0 0.0 0.0

-717498.3568848512 2.5839613503268226e6 0.0
2.5839613503268226e6 59822.719896941766 0.0
0.0 0.0 0.0

121752.13676309242 438724.56026756106 0.0
438724.56026756106 -914422.2280136908 0.0
0.0 0.0 0.0

-49378.91030571041 -103970.92240833124 0.0
-103970.92240833124 -64377.18740473203 0.0
0.0 0.0 0.0

-119335.25240569736 771316.8223062754 0.0
771316.8223062754 -158085.01166177235 0.0
0.0 0.0 0.0

-289375.7862858528 1.2199042066168187e6 0.0
1.2199042066168187e6 -114911.68607926498 0.0
0.0 0.0 0.0

50019.36119511801 1.4260464419678943e6 0.0
1.4260464419678943e6 -254723.1411602523 0.0
0.0 0.0 0.0

-97221.67113099457 666744.4530293482 0.0
666744.4530293482 -234297.43246179845 0.0
0.0 0.0 0.0

-865143.9433317469 3.4993978223864846e6 0.0
3.4993978223864846e6 180448.870718905 0.0
0.0 0.0 0.0

654389.8995003342 707711.6203930607 0.0
707711.6203930607 -1.076653374437663e6 0.0
0.0 0.0 0.0

-294192.5780620849 1.8118246262584203e6 0.0
1.8118246262584203e6 -17208.4006692946 0.0
0.0 0.0 0.0

-744421.408186831 3.588622961471077e6 0.0
3.588622961471077e6 93586.14984440201 0.0
0.0 0.0 0.0

-163368.49935465574 -228688.79292749596 0.0
-228688.79292749596 192815.33418815117 0.0
0.0 0.0 0.0

-445756.216034434 1.5784258402973453e6 0.0
1.5784258402973453e6 108939.123071449 0.0
0.0 0.0 0.0

169475.40653000103 62895.8179673739 0.0
62895.8179673739 -305828.1998407685 0.0
0.0 0.0 0.0

-567943.8247159515 3.05228504600547e6 0.0
3.05228504600547e6 -118093.3869901248 0.0
0.0 0.0 0.0

-969853.7914937566 3.566982108542697e6 0.0
3.566982108542697e6 280355.60264042026 0.0
0.0 0.0 0.0

-829350.0881810812 2.6561129081786857e6 0.0
2.6561129081786857e6 189009.27720050252 0.0
0.0 0.0 0.0

-872842.055729038 3.7338455293657365e6 0.0
3.7338455293657365e6 230813.55083830497 0.0
0.0 0.0 0.0

-745223.5647797659 2.241649016045282e6 0.0
2.241649016045282e6 69293.68511300086 0.0
0.0 0.0 0.0

930804.9527936296 -93992.00547123692 0.0
-93992.00547123692 -1.185177953144059e6 0.0
0.0 0.0 0.0

-829720.762111664 4.50891591195199e6 0.0
4.50891591195199e6 478879.40977619914 0.0
0.0 0.0 0.0

441847.7431126362 3.2577630003297e6 0.0
3.2577630003297e6 -387196.3045306747 0.0
0.0 0.0 0.0

407677.03415196465 2.0189109694808542e6 0.0
2.0189109694808542e6 1.403506886254955e6 0.0
0.0 0.0 0.0

-175672.34659305372 2.111860010941429e6 0.0
2.111860010941429e6 -563385.9331484133 0.0
0.0 0.0 0.0

-715936.6914946428 3.782330606701646e6 0.0
3.782330606701646e6 446231.510593544 0.0
0.0 0.0 0.0

-19656.013951690373 1.0881545416375108e6 0.0
1.0881545416375108e6 -666402.8809421104 0.0
0.0 0.0 0.0

-691119.4906171212 3.5439301985412976e6 0.0
3.5439301985412976e6 37898.10426212533 0.0
0.0 0.0 0.0

-257066.58761719108 2.4816414143113997e6 0.0
2.4816414143113997e6 -92152.39266918924 0.0
0.0 0.0 0.0

-629833.6563747819 3.508332569927733e6 0.0
3.508332569927733e6 191596.13740732713 0.0
0.0 0.0 0.0

-622198.5398773989 2.210881318074269e6 0.0
2.210881318074269e6 6922.491936929553 0.0
0.0 0.0 0.0

984605.9001946393 882913.4520809888 0.0
882913.4520809888 -1.5250341036384008e6 0.0
0.0 0.0 0.0

-292476.07356110134 1.8772841554833113e6 0.0
1.8772841554833113e6 -58889.330356416525 0.0
0.0 0.0 0.0

-318516.1290822459 1.1817441374373885e6 0.0
1.1817441374373885e6 -36881.71370681397 0.0
0.0 0.0 0.0

-638523.8512542016 3.582857642583842e6 0.0
3.582857642583842e6 142254.23013911623 0.0
0.0 0.0 0.0

-18791.695285797818 1.5739168351767946e6 0.0
1.5739168351767946e6 -941990.9214311126 0.0
0.0 0.0 0.0

359964.38682881254 1.9226957871152111e6 0.0
1.9226957871152111e6 1.199880661689617e6 0.0
0.0 0.0 0.0

-467799.8285707454 3.342467315407186e6 0.0
3.342467315407186e6 537450.975816776 0.0
0.0 0.0 0.0

-2.4950006440338185e6 3.228320983438673e6 0.0
3.228320983438673e6 899735.231336639 0.0
0.0 0.0 0.0

-146850.4598264265 2.007021819119303e6 0.0
2.007021819119303e6 -665423.5597142333 0.0
0.0 0.0 0.0

-851487.682370886 3.720781691280924e6 0.0
3.720781691280924e6 252565.04966456257 0.0
0.0 0.0 0.0

645220.4274312812 25294.2604574487 0.0
25294.2604574487 -479050.3807232493 0.0
0.0 0.0 0.0

603568.3015109425 584951.1002650062 0.0
584951.1002650062 -1.1403690323762386e6 0.0
0.0 0.0 0.0

-932420.5557664803 2.658280734795612e6 0.0
2.658280734795612e6 190323.0891120811 0.0
0.0 0.0 0.0

282656.79307503975 1.1892770894692088e6 0.0
1.1892770894692088e6 -810010.6412188427 0.0
0.0 0.0 0.0

-678218.4518268744 3.539002310537264e6 0.0
3.539002310537264e6 45646.23758425756 0.0
0.0 0.0 0.0

-271024.0737700161 2.3816636912249965e6 0.0
2.3816636912249965e6 166063.71878386603 0.0
0.0 0.0 0.0

-158040.08925978706 1.3138765931433907e6 0.0
1.3138765931433907e6 -359325.51836121484 0.0
0.0 0.0 0.0

-103085.68989883075 1.9122571286039213e6 0.0
1.9122571286039213e6 -768289.0680505359 0.0
0.0 0.0 0.0

-49419.56772705921 1.3355138933089275e6 0.0
1.3355138933089275e6 -323950.1559202266 0.0
0.0 0.0 0.0

-193945.25225188266 2.020725802000858e6 0.0
2.020725802000858e6 -454360.69477368717 0.0
0.0 0.0 0.0

-896427.0963549714 1.640287299584006e6 0.0
1.640287299584006e6 209193.0572356491 0.0
0.0 0.0 0.0

-206571.5462039162 -128251.43581361472 0.0
-128251.43581361472 327188.58952214237 0.0
0.0 0.0 0.0

-68366.38471216618 968933.1856357489 0.0
968933.1856357489 -340104.55982350465 0.0
0.0 0.0 0.0

-830351.4632744075 2.6114532956725853e6 0.0
2.6114532956725853e6 105782.51865708921 0.0
0.0 0.0 0.0

-865603.2617573435 -276788.2034364224 0.0
-276788.2034364224 1.1666539931766102e6 0.0
0.0 0.0 0.0

57386.64424311543 2.3434699165301453e6 0.0
2.3434699165301453e6 -263568.8378130345 0.0
0.0 0.0 0.0

-649527.0884522367 3.591541435867782e6 0.0
3.591541435867782e6 127489.29392806455 0.0
0.0 0.0 0.0

-354615.68554297916 2.6166957737865946e6 0.0
2.6166957737865946e6 143098.0578962681 0.0
0.0 0.0 0.0

-599357.34381115 3.209843020978023e6 0.0
3.209843020978023e6 358020.64849042566 0.0
0.0 0.0 0.0

-481104.3200057764 3.4268838722242923e6 0.0
3.4268838722242923e6 15716.977791718818 0.0
0.0 0.0 0.0

-759425.302717685 3.7389180709786727e6 0.0
3.7389180709786727e6 378203.1028101779 0.0
0.0 0.0 0.0

-172236.51011412757 782100.8123245202 0.0
782100.8123245202 -16584.70262346614 0.0
0.0 0.0 0.0

-455696.60198407725 1.7316639333309142e6 0.0
1.7316639333309142e6 -147758.45893381766 0.0
0.0 0.0 0.0

-487493.6486374791 2.555340890892492e6 0.0
2.555340890892492e6 -181248.0524025745 0.0
0.0 0.0 0.0

975848.9557692143 646005.159965638 0.0
646005.159965638 -1.4764223448017735e6 0.0
0.0 0.0 0.0

-397506.74052935553 1.6815482282600193e6 0.0
1.6815482282600193e6 88816.08563029388 0.0
0.0 0.0 0.0

-187065.2898936901 -199470.6186617517 0.0
-199470.6186617517 230434.2183287653 0.0
0.0 0.0 0.0

-172058.2507772061 778228.4904877382 0.0
778228.4904877382 -66589.17930260587 0.0
0.0 0.0 0.0

-383138.48896847735 2.773486943605648e6 0.0
2.773486943605648e6 278705.4187277907 0.0
0.0 0.0 0.0

1.0318203909784101e6 435135.2528859622 0.0
435135.2528859622 -1.224658669827627e6 0.0
0.0 0.0 0.0

-50338.28253236928 1.7745971631308447e6 0.0
1.7745971631308447e6 -862363.2003668401 0.0
0.0 0.0 0.0

-178933.08649375365 69462.18382415912 0.0
69462.18382415912 -274804.21223396756 0.0
0.0 0.0 0.0

-182223.99311503378 227679.3228450513 0.0
227679.3228450513 129690.69674477105 0.0
0.0 0.0 0.0

-748458.3823398888 3.6910291962907114e6 0.0
3.6910291962907114e6 224715.9278604677 0.0
0.0 0.0 0.0

-249198.38035042555 -158857.90883211824 0.0
-158857.90883211824 223504.74407119202 0.0
0.0 0.0 0.0

-11022.194184277905 1.4012119064285853e6 0.0
1.4012119064285853e6 -333829.079256008 0.0
0.0 0.0 0.0

-387503.61652047967 2.78960692362797e6 0.0
2.78960692362797e6 307628.9673418906 0.0
0.0 0.0 0.0

-66829.92212012461 1.3717602095478598e6 0.0
1.3717602095478598e6 -539005.0829504443 0.0
0.0 0.0 0.0

-249370.62962001824 1.731980427029822e6 0.0
1.731980427029822e6 -439463.7033652641 0.0
0.0 0.0 0.0

-190929.1835193489 2.3035232405224396e6 0.0
2.3035232405224396e6 -37446.51801309812 0.0
0.0 0.0 0.0

-729428.2922263681 3.5844201549432077e6 0.0
3.5844201549432077e6 99825.49154751285 0.0
0.0 0.0 0.0

-459438.53950650746 1.3876491794226374e6 0.0
1.3876491794226374e6 1.464870115227144e6 0.0
0.0 0.0 0.0

-912453.1433448214 3.1310547061376236e6 0.0
3.1310547061376236e6 246923.66247826262 0.0
0.0 0.0 0.0

-300570.53737682133 716410.4723643294 0.0
716410.4723643294 180189.91893434065 0.0
0.0 0.0 0.0

-273468.59987872484 1.0037605186346598e6 0.0
1.0037605186346598e6 118781.50836094882 0.0
0.0 0.0 0.0

-463719.0003567831 2.65303204942551e6 0.0
2.65303204942551e6 58261.640271270066 0.0
0.0 0.0 0.0

-105095.40968929007 1.3700703460908518e6 0.0
1.3700703460908518e6 -382684.28997856256 0.0
0.0 0.0 0.0

-19925.848306636442 2.3340996571478257e6 0.0
2.3340996571478257e6 -156892.23643130815 0.0
0.0 0.0 0.0

-492918.43293524673 3.4011495889580306e6 0.0
3.4011495889580306e6 -95737.27918275367 0.0
0.0 0.0 0.0

-1478.530611183931 1.6332784295915442e6 0.0
1.6332784295915442e6 -731658.4426157771 0.0
0.0 0.0 0.0

-774376.459478948 3.6268766592405397e6 0.0
3.6268766592405397e6 152397.03807685478 0.0
0.0 0.0 0.0

-209068.6729509103 2.186172736436057e6 0.0
2.186172736436057e6 -465108.44214975135 0.0
0.0 0.0 0.0

-242028.12611614124 1.489147087535178e6 0.0
1.489147087535178e6 -325003.0963287805 0.0
0.0 0.0 0.0

146403.49244444552 1.435861204200961e6 0.0
1.435861204200961e6 -655425.6528691964 0.0
0.0 0.0 0.0

-814825.6068603701 3.671546850247464e6 0.0
3.671546850247464e6 208732.96039937 0.0
0.0 0.0 0.0

-303814.603261597 2.729462940339501e6 0.0
2.729462940339501e6 -53262.78195351457 0.0
0.0 0.0 0.0

-913730.1510110366 -235786.59965644294 0.0
-235786.59965644294 1.2263667483723136e6 0.0
0.0 0.0 0.0

-1.203581867342486e6 1.7621366826986254e6 0.0
1.7621366826986254e6 399304.34963922075 0.0
0.0 0.0 0.0

-239742.03944435623 2.108426474819933e6 0.0
2.108426474819933e6 -39216.66894750764 0.0
0.0 0.0 0.0

-733834.6833220525 222017.91962260308 0.0
222017.91962260308 908467.3106234875 0.0
0.0 0.0 0.0

-355044.08977601805 1.3564072603534625e6 0.0
1.3564072603534625e6 132649.8078927045 0.0
0.0 0.0 0.0

-368551.43147983146 1.8640589737221985e6 0.0
1.8640589737221985e6 -295643.2955227866 0.0
0.0 0.0 0.0

-631331.1964545434 3.5541612669325056e6 0.0
3.5541612669325056e6 263655.03713031486 0.0
0.0 0.0 0.0

-712998.7259633173 3.6808274436243814e6 0.0
3.6808274436243814e6 240211.85653380383 0.0
0.0 0.0 0.0

-112501.76021667311 1.4877176694574766e6 0.0
1.4877176694574766e6 53102.23904224862 0.0
0.0 0.0 0.0

-428184.4618125183 3.028918112733872e6 0.0
3.028918112733872e6 456357.6653633904 0.0
0.0 0.0 0.0

292743.4120655414 361773.4922725987 0.0
361773.4922725987 -938413.6014229662 0.0
0.0 0.0 0.0

-322566.5524169639 1.3276819952247858e6 0.0
1.3276819952247858e6 -126245.69712907876 0.0
0.0 0.0 0.0

-232475.8967888744 956687.8526736567 0.0
956687.8526736567 180148.5282555949 0.0
0.0 0.0 0.0

-945051.4017020469 3.580224859141162e6 0.0
3.580224859141162e6 253044.59939971345 0.0
0.0 0.0 0.0

-320136.22607477644 2.6861048890444855e6 0.0
2.6861048890444855e6 -88078.0710000213 0.0
0.0 0.0 0.0

-479485.5882828085 1.6272265118304398e6 0.0
1.6272265118304398e6 4907.033450104762 0.0
0.0 0.0 0.0

-103017.43226675206 564949.8986247752 0.0
564949.8986247752 -196349.9281659723 0.0
0.0 0.0 0.0

-506342.5643779771 3.347760302323802e6 0.0
3.347760302323802e6 -216800.1972728986 0.0
0.0 0.0 0.0

776091.4689601073 3.4424018709791247e6 0.0
3.4424018709791247e6 -858360.5380972002 0.0
0.0 0.0 0.0

-274587.4410145127 2.576505322865493e6 0.0
2.576505322865493e6 47020.391519340104 0.0
0.0 0.0 0.0

717725.5966734525 522864.14403204306 0.0
522864.14403204306 -1.1785328481621891e6 0.0
0.0 0.0 0.0

-626560.7994803798 702937.2179533629 0.0
702937.2179533629 1.0307698074424879e6 0.0
0.0 0.0 0.0

-168605.66919937186 2.116789708759255e6 0.0
2.116789708759255e6 -508065.9214894424 0.0
0.0 0.0 0.0

365815.1985323378 67477.92668246668 0.0
67477.92668246668 -590711.3241646682 0.0
0.0 0.0 0.0

-1.1358014266290055e6 1.5675655575386796e6 0.0
1.5675655575386796e6 358258.8894248241 0.0
0.0 0.0 0.0

-503660.58979320957 802290.2197271074 0.0
802290.2197271074 925176.3589519745 0.0
0.0 0.0 0.0

-360140.15850294253 1.4895242947507442e6 0.0
1.4895242947507442e6 131695.13334264117 0.0
0.0 0.0 0.0

-731917.877385299 1.896803252873041e6 0.0
1.896803252873041e6 316011.3333885816 0.0
0.0 0.0 0.0

-390775.2342584892 1.8670902819877963e6 0.0
1.8670902819877963e6 -217428.7532658879 0.0
0.0 0.0 0.0

2.693173712911158e6 957607.8122916812 0.0
957607.8122916812 -1.6443464988291e6 0.0
0.0 0.0 0.0

-520891.77777075564 3.261933044487171e6 0.0
3.261933044487171e6 428406.96755011333 0.0
0.0 0.0 0.0

45122.555403398874 1.3253007979546357e6 0.0
1.3253007979546357e6 -450716.2386131316 0.0
0.0 0.0 0.0

-477949.240183944 3.29351153574104e6 0.0
3.29351153574104e6 585042.6639497788 0.0
0.0 0.0 0.0

-476746.3314208222 1.6091309989473722e6 0.0
1.6091309989473722e6 -114676.5807334515 0.0
0.0 0.0 0.0

-51375.50793990816 1.584498244458749e6 0.0
1.584498244458749e6 364386.53987841087 0.0
0.0 0.0 0.0

-267980.4072038099 1.6351059418413725e6 0.0
1.6351059418413725e6 298021.4223974956 0.0
0.0 0.0 0.0

-25413.879051455733 1.1137830943711596e6 0.0
1.1137830943711596e6 -628924.4438023686 0.0
0.0 0.0 0.0

125323.4025014659 41836.51800018824 0.0
41836.51800018824 -143280.85604032464 0.0
0.0 0.0 0.0

-887850.6875861258 3.100655196495837e6 0.0
3.100655196495837e6 197767.49355608108 0.0
0.0 0.0 0.0

-441248.98932991596 2.1478816101744566e6 0.0
2.1478816101744566e6 -244643.1496502662 0.0
0.0 0.0 0.0

-984666.9993491905 3.1332063796759923e6 0.0
3.1332063796759923e6 249385.37122766842 0.0
0.0 0.0 0.0

-376410.66721969383 2.6928769755124063e6 0.0
2.6928769755124063e6 173226.12185007267 0.0
0.0 0.0 0.0

67299.80322314406 -8468.168717544599 0.0
-8468.168717544599 -278082.36829448974 0.0
0.0 0.0 0.0

-460431.6619395671 1.4119853703999324e6 0.0
1.4119853703999324e6 88410.17853793062 0.0
0.0 0.0 0.0

-258010.5680139657 1.1160299562488105e6 0.0
1.1160299562488105e6 420533.8701191719 0.0
0.0 0.0 0.0

-238816.7677989425 915078.4300352648 0.0
915078.4300352648 57066.15082938055 0.0
0.0 0.0 0.0

-496306.57364818966 3.370539692379564e6 0.0
3.370539692379564e6 -40566.118434849006 0.0
0.0 0.0 0.0

148175.0711609717 1.2592657427882086e6 0.0
1.2592657427882086e6 -1.0805762489959267e6 0.0
0.0 0.0 0.0

-410778.5722921889 1.7264801367633934e6 0.0
1.7264801367633934e6 -143057.5673914761 0.0
0.0 0.0 0.0

-369280.90811813757 2.402484232181969e6 0.0
2.402484232181969e6 -131080.75515633257 0.0
0.0 0.0 0.0

-432928.15569976665 2.5140760572722107e6 0.0
2.5140760572722107e6 18317.23560968766 0.0
0.0 0.0 0.0

-720092.0033515886 3.9861040513659827e6 0.0
3.9861040513659827e6 537161.5672883814 0.0
0.0 0.0 0.0

-633949.1664394235 3.2940250414000163e6 0.0
3.2940250414000163e6 408224.43528913 0.0
0.0 0.0 0.0

-87592.58326741471 1.609503556599556e6 0.0
1.609503556599556e6 -866501.3934103248 0.0
0.0 0.0 0.0

-121212.45341619076 1.4115015142702986e6 0.0
1.4115015142702986e6 -216263.28849187173 0.0
0.0 0.0 0.0

-90190.35756152772 -174810.68808407502 0.0
-174810.68808407502 108337.25396989586 0.0
0.0 0.0 0.0

-1.4433410965379213e6 4.1570465614438807e6 0.0
4.1570465614438807e6 417252.6015683854 0.0
0.0 0.0 0.0

-347264.35463146016 1.700286779355133e6 0.0
1.700286779355133e6 -197103.60437324032 0.0
0.0 0.0 0.0

-725984.2746070942 3.6705861430509845e6 0.0
3.6705861430509845e6 439007.703544266 0.0
0.0 0.0 0.0

3586.0046976875747 549747.81176765 0.0
549747.81176765 -343933.5685197129 0.0
0.0 0.0 0.0

-1.508286400383276e6 -280896.03446137713 0.0
-280896.03446137713 1.615031374254399e6 0.0
0.0 0.0 0.0

-175078.54191694042 992669.8594022118 0.0
992669.8594022118 -461432.47511543654 0.0
0.0 0.0 0.0

-367407.50077478297 3.453690307125155e6 0.0
3.453690307125155e6 379005.5394029132 0.0
0.0 0.0 0.0

-555551.4293009094 4.1022892022416666e6 0.0
4.1022892022416666e6 612755.0092822723 0.0
0.0 0.0 0.0

-523327.0780582951 1.5167615130935695e6 0.0
1.5167615130935695e6 100029.03232781534 0.0
0.0 0.0 0.0

1.3283190490674153e6 589610.4202959655 0.0
589610.4202959655 -1.6546184237337857e6 0.0
0.0 0.0 0.0

-790505.7587762579 3.856455498187694e6 0.0
3.856455498187694e6 373651.58945685055 0.0
0.0 0.0 0.0

-683228.824891831 3.883078902887852e6 0.0
3.883078902887852e6 557361.1670912808 0.0
0.0 0.0 0.0

750949.5465099954 571182.7052567564 0.0
571182.7052567564 -1.224821887351095e6 0.0
0.0 0.0 0.0

-952643.5456148558 4.251108271403274e6 0.0
4.251108271403274e6 418237.61728325806 0.0
0.0 0.0 0.0

-268277.1122527828 2.5628617873119772e6 0.0
2.5628617873119772e6 -118257.39026705266 0.0
0.0 0.0 0.0

-829702.4320579041 3.8115773991857707e6 0.0
3.8115773991857707e6 304144.3602967734 0.0
0.0 0.0 0.0

104628.90629096603 1.52936251825276e6 0.0
1.52936251825276e6 -798372.0904208054 0.0
0.0 0.0 0.0

-254150.04121797596 714603.2570520674 0.0
714603.2570520674 -129146.15260372323 0.0
0.0 0.0 0.0

-368151.4236537561 2.129372131376381e6 0.0
2.129372131376381e6 -163816.28563368 0.0
0.0 0.0 0.0

-683660.3033728809 3.4494506158664306e6 0.0
3.4494506158664306e6 539412.2656266935 0.0
0.0 0.0 0.0

-274927.50898468704 2.536143884446606e6 0.0
2.536143884446606e6 -150820.75372078788 0.0
0.0 0.0 0.0

-670011.4735439307 3.462254418111194e6 0.0
3.462254418111194e6 444896.4095476884 0.0
0.0 0.0 0.0

-3084.6951054365236 679711.5071711134 0.0
679711.5071711134 94739.65548208177 0.0
0.0 0.0 0.0

1.1274634911066904e6 545176.1482825329 0.0
545176.1482825329 -1.366855346709839e6 0.0
0.0 0.0 0.0

-307820.82464842836 2.2958245525976475e6 0.0
2.2958245525976475e6 -265927.4607981951 0.0
0.0 0.0 0.0

-422736.5794336467 2.5119504887557738e6 0.0
2.5119504887557738e6 -53411.12606252087 0.0
0.0 0.0 0.0

-332250.9595029641 1.849347803912046e6 0.0
1.849347803912046e6 -272272.6732308037 0.0
0.0 0.0 0.0

-463363.20678768394 1.6832846019948686e6 0.0
1.6832846019948686e6 15356.773914980236 0.0
0.0 0.0 0.0

-6.149093681595955e6 677909.3590700254 0.0
677909.3590700254 9.428818555722713e6 0.0
0.0 0.0 0.0

174829.91767653718 46751.50022403613 0.0
46751.50022403613 -147348.93481171195 0.0
0.0 0.0 0.0

-499017.415189106 3.3160722738777236e6 0.0
3.3160722738777236e6 504058.5791860649 0.0
0.0 0.0 0.0

-279227.00022645516 1.6864311267378007e6 0.0
1.6864311267378007e6 -254906.45924186683 0.0
0.0 0.0 0.0

-301041.0511237 6082.600722913923 0.0
6082.600722913923 483033.559894678 0.0
0.0 0.0 0.0

950123.3380662007 476376.261393325 0.0
476376.261393325 -1.2706924058919605e6 0.0
0.0 0.0 0.0

-351819.7764177599 1.5115996581997955e6 0.0
1.5115996581997955e6 -180689.80094907945 0.0
0.0 0.0 0.0

-126877.06612173197 1.8904991147643789e6 0.0
1.8904991147643789e6 -547336.5134703331 0.0
0.0 0.0 0.0

-525365.7190077101 3.5906125650602463e6 0.0
3.5906125650602463e6 625803.3317051617 0.0
0.0 0.0 0.0

-723600.5236979227 3.8534565725164902e6 0.0
3.8534565725164902e6 479183.4288921121 0.0
0.0 0.0 0.0

-74684.26503414882 943589.8132132213 0.0
943589.8132132213 -290150.2115229994 0.0
0.0 0.0 0.0

-662119.0725422514 3.07568378640362e6 0.0
3.07568378640362e6 -150570.10269490362 0.0
0.0 0.0 0.0

376190.7074272996 74079.25441788812 0.0
74079.25441788812 -585384.5922995636 0.0
0.0 0.0 0.0

-1.342998278127314e6 614533.7758803599 0.0
614533.7758803599 -25597.80163840379 0.0
0.0 0.0 0.0

-430343.6768069917 1.771009689358584e6 0.0
1.771009689358584e6 340145.33859101974 0.0
0.0 0.0 0.0

-303863.6452715809 1.1499901728398565e6 0.0
1.1499901728398565e6 203974.14019374386 0.0
0.0 0.0 0.0

-969674.9381304581 2.3386761231996114e6 0.0
2.3386761231996114e6 226502.72257461294 0.0
0.0 0.0 0.0

-69700.42201275897 834833.5583043494 0.0
834833.5583043494 -767986.556936532 0.0
0.0 0.0 0.0

458503.3418523934 557097.7610274431 0.0
557097.7610274431 -1.0684499356624691e6 0.0
0.0 0.0 0.0

685035.9680581442 759674.0547467262 0.0
759674.0547467262 -1.0963433048507012e6 0.0
0.0 0.0 0.0

-118616.90753899197 1.2842555638337513e6 0.0
1.2842555638337513e6 -308546.3065496023 0.0
0.0 0.0 0.0

-25916.147270864778 227274.94928212158 0.0
227274.94928212158 -48414.140601765714 0.0
0.0 0.0 0.0

98048.7892257437 209819.05777482508 0.0
209819.05777482508 -403770.29614839656 0.0
0.0 0.0 0.0

-323704.27827757783 2.6570983031210657e6 0.0
2.6570983031210657e6 -68315.29293373562 0.0
0.0 0.0 0.0

-50260.40985766516 1.2048970156795871e6 0.0
1.2048970156795871e6 -583418.9963013247 0.0
0.0 0.0 0.0

-423906.12654809846 1.3996426644898022e6 0.0
1.3996426644898022e6 116233.02417197096 0.0
0.0 0.0 0.0

-491994.8269743627 5.075136430858644e6 0.0
5.075136430858644e6 382780.81938422995 0.0
0.0 0.0 0.0

-432539.0858833409 1.7193461946242359e6 0.0
1.7193461946242359e6 22911.626498691447 0.0
0.0 0.0 0.0

-283660.66305451764 922375.4388944885 0.0
922375.4388944885 501634.5286529298 0.0
0.0 0.0 0.0

1.1135282413336434e6 743271.9494541936 0.0
743271.9494541936 -1.6726340955951472e6 0.0
0.0 0.0 0.0

-467034.8962662014 3.050379985122424e6 0.0
3.050379985122424e6 240744.2080502213 0.0
0.0 0.0 0.0

1.441647453394608e6 68449.12466034194 0.0
68449.12466034194 -1.1369767485213173e6 0.0
0.0 0.0 0.0

883701.8439786162 665703.4683101104 0.0
665703.4683101104 -1.2683313714681244e6 0.0
0.0 0.0 0.0

-594283.4588249004 1.646715603072129e6 0.0
1.646715603072129e6 120734.83063799964 0.0
0.0 0.0 0.0

114027.33853831966 238330.15935069116 0.0
238330.15935069116 -121466.36011677902 0.0
0.0 0.0 0.0

-324433.0076456273 837695.4576725133 0.0
837695.4576725133 543215.441097836 0.0
0.0 0.0 0.0

-319042.252057658 1.2496457765688715e6 0.0
1.2496457765688715e6 218204.36128856934 0.0
0.0 0.0 0.0

-38631.31936194581 1.1267301525287312e6 0.0
1.1267301525287312e6 -27618.151688709666 0.0
0.0 0.0 0.0

-285373.4944546658 2.373418288465655e6 0.0
2.373418288465655e6 -36771.27550998937 0.0
0.0 0.0 0.0

-1.1137673721504863e6 4.711256078305103e6 0.0
4.711256078305103e6 413903.3054950995 0.0
0.0 0.0 0.0

-578637.7099650421 1.636200969965117e6 0.0
1.636200969965117e6 131609.48127446082 0.0
0.0 0.0 0.0

-435986.462233632 894040.4975863857 0.0
894040.4975863857 849954.8091179254 0.0
0.0 0.0 0.0

-2.2109404971485115e6 6.660713443591493e6 0.0
6.660713443591493e6 444812.36290658754 0.0
0.0 0.0 0.0

-145049.17760865804 2.0785610595284938e6 0.0
2.0785610595284938e6 140250.59046891984 0.0
0.0 0.0 0.0

-171434.14231982024 786266.6911204252 0.0
786266.6911204252 -180005.3696813539 0.0
0.0 0.0 0.0

111414.48960718201 -57110.164379109854 0.0
-57110.164379109854 -295969.8464645033 0.0
0.0 0.0 0.0

-677786.9411308795 3.632454014098009e6 0.0
3.632454014098009e6 190225.8906594005 0.0
0.0 0.0 0.0

-286499.3627648606 1.8959469153335034e6 0.0
1.8959469153335034e6 -149660.4300309465 0.0
0.0 0.0 0.0

-1.084685476213859e6 1.780244092369226e6 0.0
1.780244092369226e6 316324.3014495387 0.0
0.0 0.0 0.0

-612208.2881711661 3.5090648097806363e6 0.0
3.5090648097806363e6 520383.88377343526 0.0
0.0 0.0 0.0

-762415.0318635774 3.8245053140505804e6 0.0
3.8245053140505804e6 471886.5935641104 0.0
0.0 0.0 0.0

240303.2546394925 -14910.133197276315 0.0
-14910.133197276315 -109509.09767137663 0.0
0.0 0.0 0.0

597410.3776978285 422843.5990819261 0.0
422843.5990819261 -1.0390211841852532e6 0.0
0.0 0.0 0.0

-933931.1167521956 4.593473054755342e6 0.0
4.593473054755342e6 448637.77349507704 0.0
0.0 0.0 0.0

-272250.65823043504 1.0252130676409054e6 0.0
1.0252130676409054e6 475254.17148237047 0.0
0.0 0.0 0.0

-388248.5306875575 1.5345910756944288e6 0.0
1.5345910756944288e6 -84292.27441518454 0.0
0.0 0.0 0.0

-176315.06543914045 -60660.26694084193 0.0
-60660.26694084193 -300489.7137220689 0.0
0.0 0.0 0.0

-334059.44077710155 2.0963727178762527e6 0.0
2.0963727178762527e6 -178106.43554202694 0.0
0.0 0.0 0.0

-783937.9419174842 3.807280901054356e6 0.0
3.807280901054356e6 407194.6233920871 0.0
0.0 0.0 0.0

-253154.72380452126 2.2406467307910156e6 0.0
2.2406467307910156e6 -366632.59938538284 0.0
0.0 0.0 0.0

-744099.3076344726 3.7321777839838876e6 0.0
3.7321777839838876e6 290518.59728694544 0.0
0.0 0.0 0.0

-163313.0214394333 1.1348368026043968e6 0.0
1.1348368026043968e6 -544763.9580575755 0.0
0.0 0.0 0.0

-711038.6363487508 2.2289809673955906e6 0.0
2.2289809673955906e6 -14541.653570621624 0.0
0.0 0.0 0.0

281837.47746263194 -37467.85018785137 0.0
-37467.85018785137 -446925.4876909338 0.0
0.0 0.0 0.0

28846.828612752957 377389.60505769035 0.0
377389.60505769035 -410357.0818027224 0.0
0.0 0.0 0.0

-77859.39585235485 853379.8405260312 0.0
853379.8405260312 -282896.27297719603 0.0
0.0 0.0 0.0

-30899.86529182573 1.1584850974015056e6 0.0
1.1584850974015056e6 -614960.3221659922 0.0
0.0 0.0 0.0

-128364.10574372037 1.133710368500985e6 0.0
1.133710368500985e6 -314187.64482628315 0.0
0.0 0.0 0.0

-1.171722113686706e6 1.1639028252681263e6 0.0
1.1639028252681263e6 602679.7778836112 0.0
0.0 0.0 0.0

-260551.01309628692 1.4824213422851043e6 0.0
1.4824213422851043e6 -238203.4138690258 0.0
0.0 0.0 0.0

-150361.1723737341 2.1805460353344744e6 0.0
2.1805460353344744e6 -299215.65204534825 0.0
0.0 0.0 0.0

-1.6463525920314216e6 1.1062675740906473e6 0.0
1.1062675740906473e6 453279.73836985405 0.0
0.0 0.0 0.0

-278295.5606317604 2.6174615732102473e6 0.0
2.6174615732102473e6 -108740.90516932252 0.0
0.0 0.0 0.0

-348525.1298263934 1.7072611461347453e6 0.0
1.7072611461347453e6 -285948.34556789737 0.0
0.0 0.0 0.0

-182702.1717302195 1.9559225385831264e6 0.0
1.9559225385831264e6 123854.7520958216 0.0
0.0 0.0 0.0

-914122.7642116322 2.114161368332075e6 0.0
2.114161368332075e6 206079.39359384583 0.0
0.0 0.0 0.0

-186880.39529217794 1.6031928457269617e6 0.0
1.6031928457269617e6 -603355.85010864 0.0
0.0 0.0 0.0

-159928.6566145935 1.8351948068980377e6 0.0
1.8351948068980377e6 -695976.8807542747 0.0
0.0 0.0 0.0

36842.88499667517 -22450.059123678955 0.0
-22450.059123678955 -374682.7388526869 0.0
0.0 0.0 0.0

-263680.1446154642 922358.7582318615 0.0
922358.7582318615 -27468.273966906214 0.0
0.0 0.0 0.0

773857.6469953718 591140.4542304507 0.0
591140.4542304507 -1.1565015606070631e6 0.0
0.0 0.0 0.0

490450.69986973854 -6538.486972654751 0.0
-6538.486972654751 -455188.5625002935 0.0
0.0 0.0 0.0

-166551.84376647085 1.7112695190318106e6 0.0
1.7112695190318106e6 -657298.3174174965 0.0
0.0 0.0 0.0

-2.255780837481098e6 -339907.224705908 0.0
-339907.224705908 2.21572283298444e6 0.0
0.0 0.0 0.0

1.131617173115051e6 706885.1621823281 0.0
706885.1621823281 -1.6618348996759425e6 0.0
0.0 0.0 0.0

-211128.4136769863 856285.8654498768 0.0
856285.8654498768 -125690.79444427736 0.0
0.0 0.0 0.0

-280914.4363494446 1.054617745285988e6 0.0
1.054617745285988e6 -57867.76120551021 0.0
0.0 0.0 0.0

-392322.6111146892 1.688625185577426e6 0.0
1.688625185577426e6 107931.74238979886 0.0
0.0 0.0 0.0

-702456.9827806524 3.641114780675256e6 0.0
3.641114780675256e6 176755.80689368228 0.0
0.0 0.0 0.0

-374702.54436249344 1.3287132013695412e6 0.0
1.3287132013695412e6 309753.1996631589 0.0
0.0 0.0 0.0

-271416.1797916661 2.137346181537508e6 0.0
2.137346181537508e6 -318682.90194125136 0.0
0.0 0.0 0.0

161612.0797323758 876495.7335380687 0.0
876495.7335380687 -985642.1925053676 0.0
0.0 0.0 0.0

-826233.1723417434 1.9349267838060341e6 0.0
1.9349267838060341e6 178107.37396869622 0.0
0.0 0.0 0.0

-603091.598427153 4.314846286612164e6 0.0
4.314846286612164e6 529556.4677932478 0.0
0.0 0.0 0.0

902733.9570661464 752602.7404794856 0.0
752602.7404794856 -1.3594299958966922e6 0.0
0.0 0.0 0.0

-30455.13738365125 978364.276626111 0.0
978364.276626111 -430191.81314605 0.0
0.0 0.0 0.0

-419024.4782610392 1.7326738389194072e6 0.0
1.7326738389194072e6 40588.85445651962 0.0
0.0 0.0 0.0

-2.7361143001539353e6 3.333173500779919e6 0.0
3.333173500779919e6 1.059558946067728e6 0.0
0.0 0.0 0.0

33691.69296097871 97951.00812229633 0.0
97951.00812229633 88489.7092867292 0.0
0.0 0.0 0.0

-48161.82642496994 1.15026684918326e6 0.0
1.15026684918326e6 -599801.9630973949 0.0
0.0 0.0 0.0

-29870.45468327508 -195552.85157164 0.0
-195552.85157164 161757.34260415955 0.0
0.0 0.0 0.0

-298.0168553531694 -171457.3597139353 0.0
-171457.3597139353 -143013.24424955773 0.0
0.0 0.0 0.0

1.482352617195228e6 541719.9157343134 0.0
541719.9157343134 -1.8465112402782906e6 0.0
0.0 0.0 0.0

-269591.65237412497 1.8732297547520914e6 0.0
1.8732297547520914e6 -56117.97739081146 0.0
0.0 0.0 0.0

-99102.89142115525 1.4287033128210132e6 0.0
1.4287033128210132e6 -553924.9199469067 0.0
0.0 0.0 0.0

-2.250371929266893e6 171457.9708469078 0.0
171457.9708469078 2.1669579439457846e6 0.0
0.0 0.0 0.0

-470442.8457478988 3.0684900121002244e6 0.0
3.0684900121002244e6 373874.5993449129 0.0
0.0 0.0 0.0

-193969.1436753858 1.5070373300499928e6 0.0
1.5070373300499928e6 -538540.5356438269 0.0
0.0 0.0 0.0

-5.259631982150326e6 758371.8883704343 0.0
758371.8883704343 6.951544739690881e6 0.0
0.0 0.0 0.0

-601335.4026624927 2.583852305237458e6 0.0
2.583852305237458e6 -131550.79926920438 0.0
0.0 0.0 0.0

-790836.3143896752 1.4290979824453897e6 0.0
1.4290979824453897e6 2.269093238573666e6 0.0
0.0 0.0 0.0

-131245.39691064938 1.5248553673253758e6 0.0
1.5248553673253758e6 -505178.724317985 0.0
0.0 0.0 0.0

4.233521542628625e6 1.8204627050612653e6 0.0
1.8204627050612653e6 -2.1844462423955714e6 0.0
0.0 0.0 0.0

-545866.2620546641 3.831196132832119e6 0.0
3.831196132832119e6 631626.929070348 0.0
0.0 0.0 0.0

-761089.1559409079 5.020464458847929e6 0.0
5.020464458847929e6 522827.62208261737 0.0
0.0 0.0 0.0

-202350.4799479164 1.7814694699433506e6 0.0
1.7814694699433506e6 -498455.4595912848 0.0
0.0 0.0 0.0

-53452.84310395823 1.4416747086058215e6 0.0
1.4416747086058215e6 -338541.8875918585 0.0
0.0 0.0 0.0

-666705.8793754824 3.567624789654001e6 0.0
3.567624789654001e6 242513.60868995538 0.0
0.0 0.0 0.0

90890.78837980973 147947.44966890456 0.0
147947.44966890456 -74572.14575100665 0.0
0.0 0.0 0.0

69895.99072388263 1.3112553984938392e6 0.0
1.3112553984938392e6 -731081.5652406404 0.0
0.0 0.0 0.0

1.1281313450290347e6 33909.60836553633 0.0
33909.60836553633 -792484.4344860659 0.0
0.0 0.0 0.0

-241678.5656565902 2.179118876491894e6 0.0
2.179118876491894e6 -424744.49030600593 0.0
0.0 0.0 0.0

-1.4272388889433534e6 1.1153218015595584e6 0.0
1.1153218015595584e6 879368.5247791213 0.0
0.0 0.0 0.0

-142545.95405065131 1.56988209006598e6 0.0
1.56988209006598e6 -351458.4628459902 0.0
0.0 0.0 0.0

-6.2979998238635e6 1.0680484223106015e6 0.0
1.0680484223106015e6 8.952943996627582e6 0.0
0.0 0.0 0.0

-250321.41578166396 1.859469041716663e6 0.0
1.859469041716663e6 208302.56519966142 0.0
0.0 0.0 0.0

-182806.68370315715 2.898352714498877e6 0.0
2.898352714498877e6 41944.46690409656 0.0
0.0 0.0 0.0

-406480.98662761087 1.7214782206796284e6 0.0
1.7214782206796284e6 81700.96744113139 0.0
0.0 0.0 0.0

-596661.7512760536 4.0467408326228824e6 0.0
4.0467408326228824e6 628579.9900256274 0.0
0.0 0.0 0.0

-481989.4271578527 1.563208684641981e6 0.0
1.563208684641981e6 114996.8818696648 0.0
0.0 0.0 0.0

143989.31036597333 121205.45849327956 0.0
121205.45849327956 -133814.2472028559 0.0
0.0 0.0 0.0

-69908.72805809112 533475.4829157046 0.0
533475.4829157046 -209216.35501930886 0.0
0.0 0.0 0.0

395547.70010947867 -46572.26516004596 0.0
-46572.26516004596 -547155.2115016908 0.0
0.0 0.0 0.0

96419.94894420369 3.2604664387679775e6 0.0
3.2604664387679775e6 -255987.08269844716 0.0
0.0 0.0 0.0

-158969.89818090395 1.6537127607522516e6 0.0
1.6537127607522516e6 -443982.92587776104 0.0
0.0 0.0 0.0

-704384.4906990834 4.1464602286044275e6 0.0
4.1464602286044275e6 569550.9207757134 0.0
0.0 0.0 0.0

-670208.8414699484 1.7808127474286067e6 0.0
1.7808127474286067e6 142022.11001782026 0.0
0.0 0.0 0.0

140532.08024773363 -122528.93548989463 0.0
-122528.93548989463 -244096.57355884777 0.0
0.0 0.0 0.0

-623725.5868065117 1.753645272514712e6 0.0
1.753645272514712e6 147447.61878589127 0.0
0.0 0.0 0.0

-298784.94504048483 1.491653036842933e6 0.0
1.491653036842933e6 -251047.1939504654 0.0
0.0 0.0 0.0

-583700.4571042329 1.7282759551528369e6 0.0
1.7282759551528369e6 123567.24735091635 0.0
0.0 0.0 0.0

-290410.0089241589 2.7194829300159407e6 0.0
2.7194829300159407e6 -29170.44062880385 0.0
0.0 0.0 0.0

-660338.3616383086 4.760678896069056e6 0.0
4.760678896069056e6 524715.8666223311 0.0
0.0 0.0 0.0

1.044233694444618e6 491980.3008921065 0.0
491980.3008921065 -1.323587812337251e6 0.0
0.0 0.0 0.0

92707.08158615176 134585.27594268598 0.0
134585.27594268598 -52417.90153547553 0.0
0.0 0.0 0.0

-156850.1850068078 1.9584775772972703e6 0.0
1.9584775772972703e6 -221827.8423695358 0.0
0.0 0.0 0.0

-190917.59361823485 1.7931893039250497e6 0.0
1.7931893039250497e6 -391381.9625830007 0.0
0.0 0.0 0.0

-539231.5526097419 2.568029050130266e6 0.0
2.568029050130266e6 -199265.41223611595 0.0
0.0 0.0 0.0

-246450.6787421827 2.0764298370426644e6 0.0
2.0764298370426644e6 -94976.8707125124 0.0
0.0 0.0 0.0

-369732.708788591 3.184951386378316e6 0.0
3.184951386378316e6 442315.2091857194 0.0
0.0 0.0 0.0

-209014.43887925218 1.6887551672394157e6 0.0
1.6887551672394157e6 -316119.4824696246 0.0
0.0 0.0 0.0

109762.05718920092 254108.31211166285 0.0
254108.31211166285 -506980.52763381036 0.0
0.0 0.0 0.0

134590.57868925415 830244.2155679215 0.0
830244.2155679215 -572693.4524052176 0.0
0.0 0.0 0.0

-46970.546552952146 1.5220603802290047e6 0.0
1.5220603802290047e6 -444739.32924782607 0.0
0.0 0.0 0.0

-281225.5369523218 1.6911687409958143e6 0.0
1.6911687409958143e6 406613.7543372381 0.0
0.0 0.0 0.0

-791821.3850488878 3.746460672633054e6 0.0
3.746460672633054e6 268702.12076526723 0.0
0.0 0.0 0.0

1.0642525943786874e6 663949.2238563694 0.0
663949.2238563694 -1.503559177092852e6 0.0
0.0 0.0 0.0

1.2715030825755575e6 705507.6578755621 0.0
705507.6578755621 -1.6812635604709708e6 0.0
0.0 0.0 0.0

-77149.27247563886 840063.6968366661 0.0
840063.6968366661 -256998.5731767839 0.0
0.0 0.0 0.0

-756517.113727409 1.9382771968722083e6 0.0
1.9382771968722083e6 166215.90522641002 0.0
0.0 0.0 0.0

177720.79044765298 17904.614517601276 0.0
17904.614517601276 -118572.65720476181 0.0
0.0 0.0 0.0

-138494.2196575932 653001.6211463246 0.0
653001.6211463246 -235062.09186015697 0.0
0.0 0.0 0.0

-254219.10397591614 928721.7218575241 0.0
928721.7218575241 -69902.0511570224 0.0
0.0 0.0 0.0

47048.84543192129 864146.4180263111 0.0
864146.4180263111 -376327.99332820636 0.0
0.0 0.0 0.0

1.523814765006274e6 548388.509220993 0.0
548388.509220993 -1.8756556905314177e6 0.0
0.0 0.0 0.0

-192357.0846142657 830658.0529620394 0.0
830658.0529620394 -54380.068321642306 0.0
0.0 0.0 0.0

-7.330204843947779e6 1.2841845526647174e6 0.0
1.2841845526647174e6 1.0174444389791021e7 0.0
0.0 0.0 0.0

-308435.2002498502 1.1002910568963885e6 0.0
1.1002910568963885e6 7573.042619008615 0.0
0.0 0.0 0.0

-688398.5597789502 4.237964846062755e6 0.0
4.237964846062755e6 597939.7087241162 0.0
0.0 0.0 0.0

-173622.35086766028 1.9222889282102878e6 0.0
1.9222889282102878e6 -558313.0805466863 0.0
0.0 0.0 0.0

-1.0934672882445583e6 3.6811337167726173e6 0.0
3.6811337167726173e6 388988.59660396556 0.0
0.0 0.0 0.0

-742805.7231457889 1.7781039182186124e6 0.0
1.7781039182186124e6 155101.05109923484 0.0
0.0 0.0 0.0

-146899.2189766672 1.4928221948287361e6 0.0
1.4928221948287361e6 1.0685027900281202e6 0.0
0.0 0.0 0.0

1.3257654422848911e6 -26042.148347788403 0.0
-26042.148347788403 -1.7730761953589332e6 0.0
0.0 0.0 0.0

-253861.4838659326 2.765709629290374e6 0.0
2.765709629290374e6 -34082.192047360746 0.0
0.0 0.0 0.0

819807.1259469268 273203.3682660408 0.0
273203.3682660408 -1.3359248114339206e6 0.0
0.0 0.0 0.0

266286.7783152665 124731.04396484737 0.0
124731.04396484737 -465263.33684899315 0.0
0.0 0.0 0.0

-485030.331607584 1.4564713037236857e6 0.0
1.4564713037236857e6 87520.13416661331 0.0
0.0 0.0 0.0

-768412.3594223637 3.7902713959536636e6 0.0
3.7902713959536636e6 337234.08219046297 0.0
0.0 0.0 0.0

-36121.32544862374 1.1983477932426706e6 0.0
1.1983477932426706e6 -130484.17903223733 0.0
0.0 0.0 0.0

-242397.65444705397 1.7991120169719304e6 0.0
1.7991120169719304e6 -308802.9339723171 0.0
0.0 0.0 0.0

-811289.0370998052 4.356751975056732e6 0.0
4.356751975056732e6 500130.93318768725 0.0
0.0 0.0 0.0

142331.02335972793 29054.390897366204 0.0
29054.390897366204 -65263.348327625994 0.0
0.0 0.0 0.0

-104838.21383890382 601560.146653934 0.0
601560.146653934 -35808.11909459889 0.0
0.0 0.0 0.0

256769.27008993237 20485.604088188633 0.0
20485.604088188633 -234575.65546329354 0.0
0.0 0.0 0.0

-198362.2518195045 1.467496036895908e6 0.0
1.467496036895908e6 -289612.44193175144 0.0
0.0 0.0 0.0

-500304.86611980986 1.518984411637199e6 0.0
1.518984411637199e6 185866.7949322474 0.0
0.0 0.0 0.0

-661334.7644734883 3.04348720698937e6 0.0
3.04348720698937e6 12671.27467047458 0.0
0.0 0.0 0.0

-1.0029554865194801e6 2.696675648962174e6 0.0
2.696675648962174e6 293001.29540006287 0.0
0.0 0.0 0.0

128103.30322163293 51465.130403187715 0.0
51465.130403187715 -403795.8829402525 0.0
0.0 0.0 0.0

-89582.88669536608 551109.0300984115 0.0
551109.0300984115 -263007.74984291417 0.0
0.0 0.0 0.0

-840340.1656219033 2.12189520887533e6 0.0
2.12189520887533e6 193884.73732331058 0.0
0.0 0.0 0.0

-338429.4983953591 2.8996680233535105e6 0.0
2.8996680233535105e6 151723.53641305142 0.0
0.0 0.0 0.0

-419351.621236349 2.7911636789500066e6 0.0
2.7911636789500066e6 721183.3733402952 0.0
0.0 0.0 0.0

-203989.72557994444 1.2988570160775247e6 0.0
1.2988570160775247e6 -283469.31166981003 0.0
0.0 0.0 0.0

-307608.5745512795 3.632728052561997e6 0.0
3.632728052561997e6 534325.3007963318 0.0
0.0 0.0 0.0

-155320.56959655392 1.0065549554038901e6 0.0
1.0065549554038901e6 -192212.15079475302 0.0
0.0 0.0 0.0

-106339.72509173128 601916.2685828804 0.0
601916.2685828804 -90998.58595438437 0.0
0.0 0.0 0.0

64826.05151708245 144742.52053883503 0.0
144742.52053883503 -270217.2949313242 0.0
0.0 0.0 0.0

-918163.9055294885 2.359303506893701e6 0.0
2.359303506893701e6 235516.9965918354 0.0
0.0 0.0 0.0

951889.9909737788 550947.8320426982 0.0
550947.8320426982 -1.2216890303439216e6 0.0
0.0 0.0 0.0

492672.5810824316 598466.7547463711 0.0
598466.7547463711 -949285.3775200378 0.0
0.0 0.0 0.0

-380598.0932922165 1.6265523254809806e6 0.0
1.6265523254809806e6 171302.01720612083 0.0
0.0 0.0 0.0

-371950.16072781134 3.1620957969401823e6 0.0
3.1620957969401823e6 107014.92179818198 0.0
0.0 0.0 0.0

-53119.875884592366 1.3262857313511802e6 0.0
1.3262857313511802e6 -235193.06590017522 0.0
0.0 0.0 0.0

-1.2101475229760974e6 3.8284258888299027e6 0.0
3.8284258888299027e6 448018.1978051142 0.0
0.0 0.0 0.0

-1.0312595190626525e6 4.029919157645315e6 0.0
4.029919157645315e6 418487.27979450836 0.0
0.0 0.0 0.0

-734052.1169568242 3.727713514470758e6 0.0
3.727713514470758e6 473425.2614472621 0.0
0.0 0.0 0.0

3400.6640784319025 1.401613149297354e6 0.0
1.401613149297354e6 -721286.5528817358 0.0
0.0 0.0 0.0

-959007.1018129821 2.1539286233353764e6 0.0
2.1539286233353764e6 230241.4540010133 0.0
0.0 0.0 0.0

-118040.08044450631 605460.6946197823 0.0
605460.6946197823 36402.981361639424 0.0
0.0 0.0 0.0

-163046.05796696962 461852.4714309465 0.0
461852.4714309465 -232991.6611483284 0.0
0.0 0.0 0.0

-915674.0317142629 4.437512613090995e6 0.0
4.437512613090995e6 538282.1317035006 0.0
0.0 0.0 0.0

-167118.25365237068 2.146704916158956e6 0.0
2.146704916158956e6 25408.409388885302 0.0
0.0 0.0 0.0

-927129.5929184454 4.2870392431771215e6 0.0
4.2870392431771215e6 475711.74493528815 0.0
0.0 0.0 0.0

-220967.5322742763 1.940253769567543e6 0.0
1.940253769567543e6 -346230.64131755184 0.0
0.0 0.0 0.0

-1.1342765705839444e6 2.7011554390064697e6 0.0
2.7011554390064697e6 306577.3777082965 0.0
0.0 0.0 0.0

-249912.24626485762 1.391541702487196e6 0.0
1.391541702487196e6 362078.5426728248 0.0
0.0 0.0 0.0

-1.0675914520419526e6 3.686542484273338e6 0.0
3.686542484273338e6 372330.62192887807 0.0
0.0 0.0 0.0

-698697.3146468505 5.547656832518557e6 0.0
5.547656832518557e6 414291.4723242059 0.0
0.0 0.0 0.0

4367.744978409227 306001.35899999936 0.0
306001.35899999936 -6479.657542485755 0.0
0.0 0.0 0.0

-97528.42425444935 1.6556767531408607e6 0.0
1.6556767531408607e6 -300859.05073277233 0.0
0.0 0.0 0.0

66807.70673735737 180008.36400563378 0.0
180008.36400563378 -57884.42110261429 0.0
0.0 0.0 0.0

-18501.638343546627 398284.5581488907 0.0
398284.5581488907 -581959.1678613402 0.0
0.0 0.0 0.0

-268119.5566674626 -8749.1283775332 0.0
-8749.1283775332 57732.12211769579 0.0
0.0 0.0 0.0

145651.51492883707 -1590.124806433649 0.0
-1590.124806433649 -166000.02825026907 0.0
0.0 0.0 0.0

-51417.88481093328 349062.4638564187 0.0
349062.4638564187 82321.02943973607 0.0
0.0 0.0 0.0

-131397.01255303778 2.8801648912455724e6 0.0
2.8801648912455724e6 587809.5644622447 0.0
0.0 0.0 0.0

-820417.8510090113 4.640446900936078e6 0.0
4.640446900936078e6 529369.3552450816 0.0
0.0 0.0 0.0

-649048.0280596294 3.7802040934392083e6 0.0
3.7802040934392083e6 541785.5253365997 0.0
0.0 0.0 0.0

-86500.49824783481 1.7431819221395382e6 0.0
1.7431819221395382e6 -386300.3963825742 0.0
0.0 0.0 0.0

-140456.33514259983 1.4431009067585203e6 0.0
1.4431009067585203e6 812424.2966698541 0.0
0.0 0.0 0.0

-953688.6081260459 1.9904727445730797e6 0.0
1.9904727445730797e6 220697.82371289906 0.0
0.0 0.0 0.0

-1.2382861300360044e6 3.8713136313691484e6 0.0
3.8713136313691484e6 430753.618622897 0.0
0.0 0.0 0.0

-1.4353266436536445e6 4.0266364112492097e6 0.0
4.0266364112492097e6 420526.1636208672 0.0
0.0 0.0 0.0

-187468.1174058553 795261.1052490997 0.0
795261.1052490997 -40101.08437767263 0.0
0.0 0.0 0.0

-134182.65716697654 724007.5332983445 0.0
724007.5332983445 -227310.24010579573 0.0
0.0 0.0 0.0

100376.74463724418 390333.8944506022 0.0
390333.8944506022 -763281.2533254151 0.0
0.0 0.0 0.0

-348263.6822225986 1.2155229843344148e6 0.0
1.2155229843344148e6 137416.26870582078 0.0
0.0 0.0 0.0

-77364.14714774824 715472.9754969495 0.0
715472.9754969495 -218290.24015212766 0.0
0.0 0.0 0.0

-151902.37733201496 287937.2296146538 0.0
287937.2296146538 217989.37594939815 0.0
0.0 0.0 0.0

-78664.14909957854 1.8574359594532987e6 0.0
1.8574359594532987e6 -433641.5626804379 0.0
0.0 0.0 0.0

-267150.020904734 938491.3806528044 0.0
938491.3806528044 17093.156360283596 0.0
0.0 0.0 0.0

-38154.99458123808 221472.61496536102 0.0
221472.61496536102 104011.50089297314 0.0
0.0 0.0 0.0

-236568.22042280826 1.8064163400121445e6 0.0
1.8064163400121445e6 159998.9955266515 0.0
0.0 0.0 0.0

-165692.84537987952 1.1426161638726785e6 0.0
1.1426161638726785e6 -239661.33317367174 0.0
0.0 0.0 0.0

-1.1496577827169492e6 2.693619641905454e6 0.0
2.693619641905454e6 299336.0312884806 0.0
0.0 0.0 0.0

-1.123645426440889e6 2.7013582056010254e6 0.0
2.7013582056010254e6 295265.7067300906 0.0
0.0 0.0 0.0

-267596.3982800735 1.4185070018737027e6 0.0
1.4185070018737027e6 304548.83647973544 0.0
0.0 0.0 0.0

-64374.47805374193 1.4277571922050873e6 0.0
1.4277571922050873e6 -553651.9647716112 0.0
0.0 0.0 0.0

-372569.2035664782 1.2405051747435834e6 0.0
1.2405051747435834e6 61660.46497482898 0.0
0.0 0.0 0.0

-136335.33931762812 680945.1459802582 0.0
680945.1459802582 69297.82645280365 0.0
0.0 0.0 0.0

-699699.1546226942 3.710269133048927e6 0.0
3.710269133048927e6 500947.3645026375 0.0
0.0 0.0 0.0

-732724.4823030771 5.138030780494665e6 0.0
5.138030780494665e6 459320.3684888282 0.0
0.0 0.0 0.0

-293293.2154219091 1.4615195810552074e6 0.0
1.4615195810552074e6 249728.938231142 0.0
0.0 0.0 0.0

-619179.8445374323 3.5198253973232773e6 0.0
3.5198253973232773e6 504341.5115679103 0.0
0.0 0.0 0.0

416004.9073330338 651551.4582383842 0.0
651551.4582383842 -918935.1785561686 0.0
0.0 0.0 0.0

-204144.22202403873 841908.3460234544 0.0
841908.3460234544 -7492.435619325603 0.0
0.0 0.0 0.0

-363828.61491242365 3.5232499210902923e6 0.0
3.5232499210902923e6 554618.2481525728 0.0
0.0 0.0 0.0

95538.45605687307 17253.999929305013 0.0
17253.999929305013 -26438.437660558935 0.0
0.0 0.0 0.0

698322.798439207 668516.7259248032 0.0
668516.7259248032 -1.2735840403877387e6 0.0
0.0 0.0 0.0

-459788.55640481913 3.1135680895406455e6 0.0
3.1135680895406455e6 429056.07046892657 0.0
0.0 0.0 0.0

-207660.18007603614 2.751363474902823e6 0.0
2.751363474902823e6 963878.0359854323 0.0
0.0 0.0 0.0

192182.54782734142 710086.2745554952 0.0
710086.2745554952 -1.0091167147200117e6 0.0
0.0 0.0 0.0

43325.63020458352 988688.2926634139 0.0
988688.2926634139 -967165.2656235833 0.0
0.0 0.0 0.0

-250782.74305278726 1.8963407327428819e6 0.0
1.8963407327428819e6 -153200.92347996795 0.0
0.0 0.0 0.0

167051.77506832028 63805.26854228521 0.0
63805.26854228521 -111697.20853610749 0.0
0.0 0.0 0.0

79698.1602582453 232267.28924877712 0.0
232267.28924877712 -891395.0765394081 0.0
0.0 0.0 0.0

158518.55305056827 1.4711929330608982e6 0.0
1.4711929330608982e6 -799701.1091002491 0.0
0.0 0.0 0.0

-143483.81486548766 682525.694968572 0.0
682525.694968572 -180536.26113743056 0.0
0.0 0.0 0.0

113737.95967153464 130371.98047995068 0.0
130371.98047995068 -242852.42078058858 0.0
0.0 0.0 0.0

-337566.61839232006 1.8538725924642154e6 0.0
1.8538725924642154e6 230584.2911221021 0.0
0.0 0.0 0.0

21880.66960655985 -159794.0439729613 0.0
-159794.0439729613 -198972.03870402163 0.0
0.0 0.0 0.0

-224892.7102689374 845329.9432687558 0.0
845329.9432687558 -78070.10647307121 0.0
0.0 0.0 0.0

-461164.2568699152 1.5341984202290657e6 0.0
1.5341984202290657e6 178167.01262373474 0.0
0.0 0.0 0.0

-337886.2203951383 2.3487067500553625e6 0.0
2.3487067500553625e6 -197063.73004789418 0.0
0.0 0.0 0.0

-206489.34023245826 -114656.24775468656 0.0
-114656.24775468656 313831.38000082737 0.0
0.0 0.0 0.0

50511.89349215562 331251.60240415786 0.0
331251.60240415786 -621587.9477614479 0.0
0.0 0.0 0.0

1.0579275258289953e6 825728.4303518333 0.0
825728.4303518333 -1.6683941001838958e6 0.0
0.0 0.0 0.0

-438160.4768575402 5.262332646597952e6 0.0
5.262332646597952e6 441367.3944359544 0.0
0.0 0.0 0.0

-960505.3651373753 74925.68828815616 0.0
74925.68828815616 1.428853569126246e6 0.0
0.0 0.0 0.0

-189775.08506811628 1.8596548708864045e6 0.0
1.8596548708864045e6 -37069.237210045096 0.0
0.0 0.0 0.0

70069.78584748476 141333.096592019 0.0
141333.096592019 -140839.0005124408 0.0
0.0 0.0 0.0

-554270.2932590076 1.5888398339930312e6 0.0
1.5888398339930312e6 144388.1174810419 0.0
0.0 0.0 0.0

-50800.94136930673 2.2237863900726414e6 0.0
2.2237863900726414e6 -376044.36209842906 0.0
0.0 0.0 0.0

233447.51428796025 1.889076419788143e6 0.0
1.889076419788143e6 -315348.0317912826 0.0
0.0 0.0 0.0

853219.0530482806 635317.0554416451 0.0
635317.0554416451 -1.379676895243364e6 0.0
0.0 0.0 0.0

-336545.28247905686 1.9361901633995462e6 0.0
1.9361901633995462e6 -110632.98162601411 0.0
0.0 0.0 0.0

-999642.7693576649 5.798109279477203e6 0.0
5.798109279477203e6 241669.77499683824 0.0
0.0 0.0 0.0

-203328.86756968612 848308.5512631899 0.0
848308.5512631899 36373.194831312445 0.0
0.0 0.0 0.0

-87570.66234397427 -224306.82393047365 0.0
-224306.82393047365 2883.4834111484124 0.0
0.0 0.0 0.0

-85124.97230922981 2.243360273706047e6 0.0
2.243360273706047e6 39666.285118878826 0.0
0.0 0.0 0.0

-486401.2789547781 2.0022484179616955e6 0.0
2.0022484179616955e6 106874.68087858698 0.0
0.0 0.0 0.0

-35317.00743533447 218541.3631105863 0.0
218541.3631105863 -541661.7727882345 0.0
0.0 0.0 0.0

-217048.9615921568 1.4309516814892706e6 0.0
1.4309516814892706e6 1.4152266430516867e6 0.0
0.0 0.0 0.0

-72585.55446926749 528823.4995065235 0.0
528823.4995065235 -199916.85566055222 0.0
0.0 0.0 0.0

-3436.2615206739574 407900.1329963298 0.0
407900.1329963298 -465355.19849585596 0.0
0.0 0.0 0.0

-659307.4416110287 43855.025311262994 0.0
43855.025311262994 1.0043071086957932e6 0.0
0.0 0.0 0.0

-39680.36440747006 2.0529790632875909e6 0.0
2.0529790632875909e6 354368.35304625524 0.0
0.0 0.0 0.0

-658255.0741786864 1.670285379873209e6 0.0
1.670285379873209e6 121137.22275598437 0.0
0.0 0.0 0.0

-1.3227832651592758e6 4.0822717009307714e6 0.0
4.0822717009307714e6 466510.0746206777 0.0
0.0 0.0 0.0

-300251.77995645686 1.036630273916857e6 0.0
1.036630273916857e6 58179.16380042961 0.0
0.0 0.0 0.0

-235361.29279923352 -147796.99354891927 0.0
-147796.99354891927 277948.5484109431 0.0
0.0 0.0 0.0

5024.102321568527 1.3768813546361728e6 0.0
1.3768813546361728e6 -459653.84343564586 0.0
0.0 0.0 0.0

-94028.9985309512 1.5333878288274894e6 0.0
1.5333878288274894e6 -59506.458814742924 0.0
0.0 0.0 0.0

-164979.7286283491 712297.5097129724 0.0
712297.5097129724 -182609.79557873608 0.0
0.0 0.0 0.0

-1.9441940901441132e6 5.165170371952424e6 0.0
5.165170371952424e6 638600.5118671864 0.0
0.0 0.0 0.0

359200.0282349849 -40487.77862791492 0.0
-40487.77862791492 -539774.7136961811 0.0
0.0 0.0 0.0

-650520.3042290859 4.849308836052297e6 0.0
4.849308836052297e6 500335.6324520147 0.0
0.0 0.0 0.0

-357592.79693078715 3.781606757781744e6 0.0
3.781606757781744e6 646401.4893486515 0.0
0.0 0.0 0.0

227846.29145993668 267942.5469633139 0.0
267942.5469633139 -460283.08958477736 0.0
0.0 0.0 0.0

5098.611635116147 1.200092321078582e6 0.0
1.200092321078582e6 -391259.20172644925 0.0
0.0 0.0 0.0

-312370.0344602894 3.273093256551454e6 0.0
3.273093256551454e6 971793.0262718236 0.0
0.0 0.0 0.0

-46558.396613397985 1.523238200980894e6 0.0
1.523238200980894e6 1.0956221652015909e6 0.0
0.0 0.0 0.0

171966.4968923484 2.174984659499072e6 0.0
2.174984659499072e6 -283007.3375017253 0.0
0.0 0.0 0.0

-79606.48105410847 542490.2817299218 0.0
542490.2817299218 -248107.76488804267 0.0
0.0 0.0 0.0

-1.8491263575044745e6 4.887651989527131e6 0.0
4.887651989527131e6 592229.1793323567 0.0
0.0 0.0 0.0

-843555.2604656913 1.6058350172834673e6 0.0
1.6058350172834673e6 294030.01369910163 0.0
0.0 0.0 0.0

4288.659973488509 412390.0043218464 0.0
412390.0043218464 -367492.4408512752 0.0
0.0 0.0 0.0

374727.22655999166 1.0595645267744318e6 0.0
1.0595645267744318e6 -1.1073017459818325e6 0.0
0.0 0.0 0.0

1.5286815984796009e6 570762.2605094919 0.0
570762.2605094919 -1.919044354318864e6 0.0
0.0 0.0 0.0

-207710.8904109524 2.285037608740782e6 0.0
2.285037608740782e6 -295563.32840993843 0.0
0.0 0.0 0.0

-52212.892648858324 1.571134012617467e6 0.0
1.571134012617467e6 -427484.8472336447 0.0
0.0 0.0 0.0

-281234.59452690656 2.391166701404504e6 0.0
2.391166701404504e6 -125519.4490767091 0.0
0.0 0.0 0.0

-2.0050271277262135e6 5.516303907047529e6 0.0
5.516303907047529e6 507176.27113654255 0.0
0.0 0.0 0.0

-603211.7410328328 1.561715470964559e6 0.0
1.561715470964559e6 80094.73326607089 0.0
0.0 0.0 0.0

-416254.0986659997 2.710396273570663e6 0.0
2.710396273570663e6 66407.02895846366 0.0
0.0 0.0 0.0

-461573.5363179112 2.6481449244846823e6 0.0
2.6481449244846823e6 97919.11810444974 0.0
0.0 0.0 0.0

-10223.416775481179 1.0756199505055074e6 0.0
1.0756199505055074e6 -290988.5070736206 0.0
0.0 0.0 0.0

-333411.55999453785 1.1950368908890318e6 0.0
1.1950368908890318e6 121658.67011542007 0.0
0.0 0.0 0.0

61789.40260715951 2.2769531104970006e6 0.0
2.2769531104970006e6 -61276.41174972485 0.0
0.0 0.0 0.0

-210487.1573196104 1.9613152930293079e6 0.0
1.9613152930293079e6 60.52248967239575 0.0
0.0 0.0 0.0

-4.607300697213216e6 -312270.0865053527 0.0
-312270.0865053527 7.298241715507184e6 0.0
0.0 0.0 0.0

214784.10651774355 -129858.26678492033 0.0
-129858.26678492033 -243729.81502301048 0.0
0.0 0.0 0.0

-2.440707577385039e6 7.34689709276773e6 0.0
7.34689709276773e6 214312.8178804248 0.0
0.0 0.0 0.0

43024.26321639367 1.5802261195507587e6 0.0
1.5802261195507587e6 -147984.38563880822 0.0
0.0 0.0 0.0

-1.7545657337742716e6 4.650999105025865e6 0.0
4.650999105025865e6 626819.6689078922 0.0
0.0 0.0 0.0

-390795.5064266883 2.7662454411291927e6 0.0
2.7662454411291927e6 260740.00440901768 0.0
0.0 0.0 0.0

-281658.61177229334 2.4834732000724976e6 0.0
2.4834732000724976e6 -149305.80105176143 0.0
0.0 0.0 0.0

-507541.95230253023 1.456650555474448e6 0.0
1.456650555474448e6 156037.95398803143 0.0
0.0 0.0 0.0

1.1948502160250316e6 454946.2434868994 0.0
454946.2434868994 -1.5179808728522072e6 0.0
0.0 0.0 0.0

-267183.21191645577 2.9547370796911744e6 0.0
2.9547370796911744e6 96158.74107287651 0.0
0.0 0.0 0.0

5293.035735391983 1.528194418213864e6 0.0
1.528194418213864e6 -519428.23357252614 0.0
0.0 0.0 0.0

-296328.01554521534 3.2198953918289836e6 0.0
3.2198953918289836e6 297094.2784821685 0.0
0.0 0.0 0.0

987813.8232981307 639793.6221113811 0.0
639793.6221113811 -1.3831009495254937e6 0.0
0.0 0.0 0.0

-263364.1837846054 986802.7586888785 0.0
986802.7586888785 19771.71795603761 0.0
0.0 0.0 0.0

-34768.059891708814 766526.5869874742 0.0
766526.5869874742 107968.88262910434 0.0
0.0 0.0 0.0

-48185.78561198141 1.3975347535538329e6 0.0
1.3975347535538329e6 -47607.82066914931 0.0
0.0 0.0 0.0

-566759.03368762 1.4629446042254025e6 0.0
1.4629446042254025e6 -116011.77257816735 0.0
0.0 0.0 0.0

230398.8154246101 859991.8574663117 0.0
859991.8574663117 -757428.5366426832 0.0
0.0 0.0 0.0

-505230.5177031962 3.0527153569116686e6 0.0
3.0527153569116686e6 -184480.20001406156 0.0
0.0 0.0 0.0

-543609.0325489051 3.0625521189609086e6 0.0
3.0625521189609086e6 407142.48214349576 0.0
0.0 0.0 0.0

-80408.2439458925 1.6366477305087745e6 0.0
1.6366477305087745e6 965244.9162076489 0.0
0.0 0.0 0.0

-179051.52813578723 1.8094896637303268e6 0.0
1.8094896637303268e6 -228369.69556183845 0.0
0.0 0.0 0.0

-144490.8524760215 664469.6363778267 0.0
664469.6363778267 -223532.76130276098 0.0
0.0 0.0 0.0

-341415.3849668751 32964.92561595866 0.0
32964.92561595866 307366.9648040993 0.0
0.0 0.0 0.0

-81556.67131377559 1.6343919186937446e6 0.0
1.6343919186937446e6 962330.8743726334 0.0
0.0 0.0 0.0

-120125.47427768377 600379.0608250026 0.0
600379.0608250026 -86839.94614369019 0.0
0.0 0.0 0.0

71717.48505978515 3835.7422804408816 0.0
3835.7422804408816 -103669.88206764597 0.0
0.0 0.0 0.0

-168704.82656445482 790476.9326874658 0.0
790476.9326874658 27151.02420411937 0.0
0.0 0.0 0.0

-348696.7978272923 1.2152035150118992e6 0.0
1.2152035150118992e6 242152.94480297872 0.0
0.0 0.0 0.0

396922.4056472131 -124514.22738248114 0.0
-124514.22738248114 -531368.5019726997 0.0
0.0 0.0 0.0

-505694.1877928225 2.829052097705898e6 0.0
2.829052097705898e6 246848.5548169609 0.0
0.0 0.0 0.0

-550824.4514165395 1.596555794506723e6 0.0
1.596555794506723e6 105579.32696064099 0.0
0.0 0.0 0.0

-141913.198987136 608986.9536398067 0.0
608986.9536398067 -45461.37414296242 0.0
0.0 0.0 0.0

-971751.337795716 -213646.76645555568 0.0
-213646.76645555568 1.0198696590682361e6 0.0
0.0 0.0 0.0

-192372.56031199318 2.1486935335742966e6 0.0
2.1486935335742966e6 3830.4535888653845 0.0
0.0 0.0 0.0

34605.807138545584 389051.4266115786 0.0
389051.4266115786 -325540.3132434591 0.0
0.0 0.0 0.0

324049.4525363257 1.0838732266948093e6 0.0
1.0838732266948093e6 -1.1185623979467612e6 0.0
0.0 0.0 0.0

-795964.828981433 1.327810507471537e6 0.0
1.327810507471537e6 2.1457133376374613e6 0.0
0.0 0.0 0.0

5133.489884925821 375292.90693169844 0.0
375292.90693169844 -36615.25128418844 0.0
0.0 0.0 0.0

-95489.4479095558 1.4856715665835228e6 0.0
1.4856715665835228e6 55659.84315963941 0.0
0.0 0.0 0.0

1.3131589000646698e6 542376.4672027581 0.0
542376.4672027581 -1.6245610057466328e6 0.0
0.0 0.0 0.0

3247.697984271188 1.4551542064978974e6 0.0
1.4551542064978974e6 634088.1000371752 0.0
0.0 0.0 0.0

-129460.04750950786 1.4857960559394208e6 0.0
1.4857960559394208e6 1.1088327078276002e6 0.0
0.0 0.0 0.0

-607752.0259660555 3.458791205490476e6 0.0
3.458791205490476e6 333519.4111984609 0.0
0.0 0.0 0.0

-324496.83840891975 1.514884248376229e6 0.0
1.514884248376229e6 239616.99544625237 0.0
0.0 0.0 0.0

-1.4861426420052715e6 4.286285454634202e6 0.0
4.286285454634202e6 518009.93555031426 0.0
0.0 0.0 0.0

-252070.77551167217 2.0889310557241377e6 0.0
2.0889310557241377e6 -290694.5970563321 0.0
0.0 0.0 0.0

295058.9175388648 -81075.3752037742 0.0
-81075.3752037742 -198289.531212598 0.0
0.0 0.0 0.0

102133.89584396774 1.5256952043466314e6 0.0
1.5256952043466314e6 -810707.5674065754 0.0
0.0 0.0 0.0

-256222.28586153284 1.0785580932463226e6 0.0
1.0785580932463226e6 220990.1776346689 0.0
0.0 0.0 0.0

68156.99905174022 279097.5690132047 0.0
279097.5690132047 -65687.09855946277 0.0
0.0 0.0 0.0

22772.502379973535 1.6479930332330787e6 0.0
1.6479930332330787e6 -539571.6405814149 0.0
0.0 0.0 0.0

763729.8136745121 771442.2726454029 0.0
771442.2726454029 -1.3928745352019258e6 0.0
0.0 0.0 0.0

243143.7350563981 1.1658771436474281e6 0.0
1.1658771436474281e6 -1.0921770480858223e6 0.0
0.0 0.0 0.0

-896818.4369164767 6.009261599157796e6 0.0
6.009261599157796e6 256067.90625740844 0.0
0.0 0.0 0.0

-692761.7133901569 1.724443585707168e6 0.0
1.724443585707168e6 104074.87064455322 0.0
0.0 0.0 0.0

-584681.9314550206 1.554802051082532e6 0.0
1.554802051082532e6 158113.40492656972 0.0
0.0 0.0 0.0

-961794.0587146393 3.64345599503986e6 0.0
3.64345599503986e6 315201.0267713689 0.0
0.0 0.0 0.0

830841.3830539081 363997.39817091794 0.0
363997.39817091794 -1.0867055539622018e6 0.0
0.0 0.0 0.0

-99544.84461034815 1.2000610233157095e6 0.0
1.2000610233157095e6 -451085.397082662 0.0
0.0 0.0 0.0

-269772.45383420447 1.0291343201636627e6 0.0
1.0291343201636627e6 167439.6711282009 0.0
0.0 0.0 0.0

-341604.8116154723 2.760337540901001e6 0.0
2.760337540901001e6 147364.8533504538 0.0
0.0 0.0 0.0

-1.4263165060235648e6 4.214827516712753e6 0.0
4.214827516712753e6 503486.54515340435 0.0
0.0 0.0 0.0

114081.57180145357 27542.40743987623 0.0
27542.40743987623 -438722.38290232624 0.0
0.0 0.0 0.0

76361.53467088452 126443.75868646326 0.0
126443.75868646326 -100251.63549687387 0.0
0.0 0.0 0.0

-1.3754213318617244e6 4.1282918508538413e6 0.0
4.1282918508538413e6 497830.9138903717 0.0
0.0 0.0 0.0

-567711.4051008533 3.319853951252609e6 0.0
3.319853951252609e6 546092.4557702554 0.0
0.0 0.0 0.0

-167045.24384318345 1.2700500099932307e6 0.0
1.2700500099932307e6 -612380.3647955923 0.0
0.0 0.0 0.0

-146050.8492539777 722450.8425333537 0.0
722450.8425333537 -125615.3324981264 0.0
0.0 0.0 0.0

874572.1967274186 740744.2079908998 0.0
740744.2079908998 -1.4629341672010482e6 0.0
0.0 0.0 0.0

-1.222638447248126e6 2.70508990924758e6 0.0
2.70508990924758e6 311910.78999637556 0.0
0.0 0.0 0.0

-153956.8476275724 2.1351151806388036e6 0.0
2.1351151806388036e6 -25554.703976275 0.0
0.0 0.0 0.0

323089.65207342774 1.1419640841821188e6 0.0
1.1419640841821188e6 -1.074846114396834e6 0.0
0.0 0.0 0.0

-522916.6849100869 1.5611102140877729e6 0.0
1.5611102140877729e6 120446.67761864277 0.0
0.0 0.0 0.0

3181.217185683323 112830.7944223019 0.0
112830.7944223019 -35621.30540318733 0.0
0.0 0.0 0.0

-231525.52013978967 1.3306360679307138e6 0.0
1.3306360679307138e6 -375174.2309683504 0.0
0.0 0.0 0.0

-192575.5608978572 1.5473321265453694e6 0.0
1.5473321265453694e6 69520.74464035398 0.0
0.0 0.0 0.0

-412647.5672239533 1.290461704503534e6 0.0
1.290461704503534e6 130078.83321202634 0.0
0.0 0.0 0.0

265728.99001718475 1.230580947298686e6 0.0
1.230580947298686e6 -994287.4445362673 0.0
0.0 0.0 0.0

-2.0475863064134747e6 6.135826789546994e6 0.0
6.135826789546994e6 353075.322776244 0.0
0.0 0.0 0.0

-93045.9824379553 478897.7275985591 0.0
478897.7275985591 11227.86808972621 0.0
0.0 0.0 0.0

442846.96419363684 2.013017378314762e6 0.0
2.013017378314762e6 -632582.8438353485 0.0
0.0 0.0 0.0

21603.692815371018 48769.935420729445 0.0
48769.935420729445 -270831.0603908857 0.0
0.0 0.0 0.0

-223170.33281855728 856750.2916331682 0.0
856750.2916331682 -32869.54865734384 0.0
0.0 0.0 0.0

-1.5532287262153002e6 818917.5932343872 0.0
818917.5932343872 2.7549842938780556e6 0.0
0.0 0.0 0.0

-131150.80127036772 685550.6731528537 0.0
685550.6731528537 -188013.5852463531 0.0
0.0 0.0 0.0

-7.88829695850102e6 748310.2608288655 0.0
748310.2608288655 9.016961054792142e6 0.0
0.0 0.0 0.0

-233126.63991322133 900961.6966102516 0.0
900961.6966102516 7818.881360682848 0.0
0.0 0.0 0.0

-33012.92337184315 1.4305873698218258e6 0.0
1.4305873698218258e6 -642744.2546394019 0.0
0.0 0.0 0.0

-248595.93766080285 2.3375154385097576e6 0.0
2.3375154385097576e6 -223198.0989960314 0.0
0.0 0.0 0.0

5.663573401271992e6 3.9832745961034223e6 0.0
3.9832745961034223e6 -1.7417275567637242e6 0.0
0.0 0.0 0.0

-131289.94183819083 -230775.42782260696 0.0
-230775.42782260696 66274.33998664221 0.0
0.0 0.0 0.0

1.5573210232307469e6 557321.7680387757 0.0
557321.7680387757 -1.9231160096818747e6 0.0
0.0 0.0 0.0

5963.801715766142 -68363.41337907455 0.0
-68363.41337907455 -51507.0901028284 0.0
0.0 0.0 0.0

-947169.0937386325 3.9657333130346574e6 0.0
3.9657333130346574e6 378373.1692013727 0.0
0.0 0.0 0.0

-713986.9255977406 -412023.61182791105 0.0
-412023.61182791105 870208.7143497651 0.0
0.0 0.0 0.0

54403.91087852453 1.3835084036788507e6 0.0
1.3835084036788507e6 -719572.9864842686 0.0
0.0 0.0 0.0

90844.16161969015 204933.95687125192 0.0
204933.95687125192 -77371.4709190166 0.0
0.0 0.0 0.0

-179444.3187634046 620684.4877071119 0.0
620684.4877071119 14629.320904549604 0.0
0.0 0.0 0.0

1.5231219897396748e6 571684.8945239822 0.0
571684.8945239822 -1.920586522272636e6 0.0
0.0 0.0 0.0

-250149.8786391643 2.34244166663247e6 0.0
2.34244166663247e6 -191748.88288022543 0.0
0.0 0.0 0.0

-1.5307775577366166e6 4.3381478293638155e6 0.0
4.3381478293638155e6 629826.7276143811 0.0
0.0 0.0 0.0

-310541.4864606822 1.6902815523219097e6 0.0
1.6902815523219097e6 -283614.17644352245 0.0
0.0 0.0 0.0

-130039.68695021005 2.148163247168648e6 0.0
2.148163247168648e6 -256009.4066436026 0.0
0.0 0.0 0.0

-1.0551121814962208e7 -2.0695978039855156e6 0.0
-2.0695978039855156e6 1.0484184974151425e7 0.0
0.0 0.0 0.0

849023.4688504583 1.3320745876924144e6 0.0
1.3320745876924144e6 -1.976270124792256e6 0.0
0.0 0.0 0.0

837948.9344208172 2.3252001999377315e6 0.0
2.3252001999377315e6 -883999.5943396918 0.0
0.0 0.0 0.0

-133678.93465399672 2.1667899136740607e6 0.0
2.1667899136740607e6 -474407.88064565806 0.0
0.0 0.0 0.0

1.1486973627662791e6 700274.8463348327 0.0
700274.8463348327 -1.6079471747616148e6 0.0
0.0 0.0 0.0

-743814.5404973163 1.0812284676022406e6 0.0
1.0812284676022406e6 157374.15105822918 0.0
0.0 0.0 0.0

-363018.1008233667 2.64877395537719e6 0.0
2.64877395537719e6 -34836.44888861371 0.0
0.0 0.0 0.0

-180943.03815143285 -257968.8979166478 0.0
-257968.8979166478 144847.5846962947 0.0
0.0 0.0 0.0

50689.53267481428 271239.8965011902 0.0
271239.8965011902 -1.0550204579824382e6 0.0
0.0 0.0 0.0

-669695.3330716973 1.6748325527960714e6 0.0
1.6748325527960714e6 164267.63854156277 0.0
0.0 0.0 0.0

-297918.9969055682 1.0746939243230228e6 0.0
1.0746939243230228e6 82608.16401420445 0.0
0.0 0.0 0.0

-125187.7710440422 575690.2694980487 0.0
575690.2694980487 -344079.09240536235 0.0
0.0 0.0 0.0

340041.20561605186 -76076.3290778029 0.0
-76076.3290778029 -594984.4645863126 0.0
0.0 0.0 0.0

-240813.63113960013 2.6428963886553734e6 0.0
2.6428963886553734e6 53215.86539011037 0.0
0.0 0.0 0.0

-614259.4636849836 3.6307475819378784e6 0.0
3.6307475819378784e6 561942.8916163659 0.0
0.0 0.0 0.0

-193145.6940565743 39811.954815787634 0.0
39811.954815787634 -243677.6413611757 0.0
0.0 0.0 0.0

-971027.5343030109 4.346777081613482e6 0.0
4.346777081613482e6 479620.9422316373 0.0
0.0 0.0 0.0

-91712.52467450661 331634.70894677466 0.0
331634.70894677466 -41295.170115521214 0.0
0.0 0.0 0.0

-119785.03499499596 701803.7209309413 0.0
701803.7209309413 -168794.4203180436 0.0
0.0 0.0 0.0

-208572.15030301322 -271616.30563438643 0.0
-271616.30563438643 202882.64006459469 0.0
0.0 0.0 0.0

1.5530040975480461e6 572323.7914172341 0.0
572323.7914172341 -1.9231998976953102e6 0.0
0.0 0.0 0.0

1.140826224406389e6 755049.3423552237 0.0
755049.3423552237 -1.5683195442463923e6 0.0
0.0 0.0 0.0

46981.59294854672 174577.9823624123 0.0
174577.9823624123 -121406.1975650414 0.0
0.0 0.0 0.0

863607.0191749646 1.0019013292328586e6 0.0
1.0019013292328586e6 -1.5388080431268062e6 0.0
0.0 0.0 0.0

-1.93506731908443e6 -626240.6709474793 0.0
-626240.6709474793 2.318732651741475e6 0.0
0.0 0.0 0.0

-126274.41477849925 1.052192535331212e6 0.0
1.052192535331212e6 -681100.7236093506 0.0
0.0 0.0 0.0

279055.8595934288 680407.7219992272 0.0
680407.7219992272 -754249.2961548809 0.0
0.0 0.0 0.0

-745785.5679464173 5.415605585329813e6 0.0
5.415605585329813e6 425858.9015440259 0.0
0.0 0.0 0.0

-652331.39326208 1.6729368433014373e6 0.0
1.6729368433014373e6 122542.17095639787 0.0
0.0 0.0 0.0

-364174.36165967444 1.1925465610436394e6 0.0
1.1925465610436394e6 121896.9092371717 0.0
0.0 0.0 0.0

-684621.489235359 4.344326781358459e6 0.0
4.344326781358459e6 551657.8165063527 0.0
0.0 0.0 0.0

-1.493808894979878e6 2.5167615746453777e6 0.0
2.5167615746453777e6 358654.3477699632 0.0
0.0 0.0 0.0

-418882.39859883685 1.3593582007203677e6 0.0
1.3593582007203677e6 190540.15769884674 0.0
0.0 0.0 0.0

39220.78441730105 2.3391216195277567e6 0.0
2.3391216195277567e6 -253561.27102216444 0.0
0.0 0.0 0.0

1.1424281169878077e6 682580.5852531301 0.0
682580.5852531301 -1.5109488823950698e6 0.0
0.0 0.0 0.0

1.5305956956571373e6 577785.8067683242 0.0
577785.8067683242 -1.9342813857909827e6 0.0
0.0 0.0 0.0

1.2867224229036234e6 622508.0231301952 0.0
622508.0231301952 -1.6666487138775296e6 0.0
0.0 0.0 0.0

-813277.3042845285 2.0959948265340696e6 0.0
2.0959948265340696e6 180893.73980947805 0.0
0.0 0.0 0.0

6190.79798709086 152669.95707076442 0.0
152669.95707076442 -472092.6506570261 0.0
0.0 0.0 0.0

-802244.4618142133 -433523.78255073517 0.0
-433523.78255073517 975755.9612419391 0.0
0.0 0.0 0.0

90233.05125832648 164661.9891745119 0.0
164661.9891745119 -212119.01435418215 0.0
0.0 0.0 0.0

1.1194355302270853e6 512934.39320797817 0.0
512934.39320797817 -1.414428291326307e6 0.0
0.0 0.0 0.0

-470919.4049024951 1.500033616677291e6 0.0
1.500033616677291e6 117776.78675573433 0.0
0.0 0.0 0.0

20189.072150258144 1.21613060327583e6 0.0
1.21613060327583e6 -762672.8388864723 0.0
0.0 0.0 0.0

15486.652615229461 -160029.62501209613 0.0
-160029.62501209613 -176162.04552770397 0.0
0.0 0.0 0.0

150407.5523577875 -1698.0825137773586 0.0
-1698.0825137773586 -110097.78265668398 0.0
0.0 0.0 0.0

-506451.6598492515 30674.862808103175 0.0
30674.862808103175 501783.45602432353 0.0
0.0 0.0 0.0

-269227.02457787923 1.4105632130756276e6 0.0
1.4105632130756276e6 630030.5395199952 0.0
0.0 0.0 0.0

56060.73148750252 1.4657161518411485e6 0.0
1.4657161518411485e6 -1.0124092484654444e6 0.0
0.0 0.0 0.0

1.235976362824807e6 648057.5253567309 0.0
648057.5253567309 -1.6132023056511546e6 0.0
0.0 0.0 0.0

1.5043785051762082e6 556012.8730843691 0.0
556012.8730843691 -1.7626790159323262e6 0.0
0.0 0.0 0.0

-639159.3894248578 6.12661432235997e6 0.0
6.12661432235997e6 107343.47877364661 0.0
0.0 0.0 0.0

-1.8205181738375125e6 -615928.6940612276 0.0
-615928.6940612276 2.217713596778403e6 0.0
0.0 0.0 0.0

993050.0568959782 736655.8055543208 0.0
736655.8055543208 -1.4481212492275012e6 0.0
0.0 0.0 0.0

-5.175374910070137e6 -1.2806327904458523e6 0.0
-1.2806327904458523e6 4.876246209467793e6 0.0
0.0 0.0 0.0

1.0709854452005131e6 787967.0021251555 0.0
787967.0021251555 -1.4913096616357192e6 0.0
0.0 0.0 0.0

-423159.9708407909 1.5682050716721856e6 0.0
1.5682050716721856e6 180177.02519232387 0.0
0.0 0.0 0.0

-337900.33443628624 3.2060789714089115e6 0.0
3.2060789714089115e6 -75848.4755028288 0.0
0.0 0.0 0.0

-542671.2056075291 2.8063060459141093e6 0.0
2.8063060459141093e6 248899.62490764595 0.0
0.0 0.0 0.0

-156931.98897015638 1.903705645104024e6 0.0
1.903705645104024e6 -494175.4724158456 0.0
0.0 0.0 0.0

-2.0734086463062963e6 -677172.657569787 0.0
-677172.657569787 2.3973490151747344e6 0.0
0.0 0.0 0.0

1.237972256312729e6 646039.4584212734 0.0
646039.4584212734 -1.6134197503156275e6 0.0
0.0 0.0 0.0

-188531.8433157558 351539.34149596555 0.0
351539.34149596555 72141.03536593395 0.0
0.0 0.0 0.0

-26031.619691829903 314256.8374281016 0.0
314256.8374281016 -120378.26317342072 0.0
0.0 0.0 0.0

-106855.83094890704 124705.82587717987 0.0
124705.82587717987 73769.2498029806 0.0
0.0 0.0 0.0

-135943.8670709281 656536.7323869214 0.0
656536.7323869214 -228292.3959851132 0.0
0.0 0.0 0.0

-126151.82186824782 1.5794029639716693e6 0.0
1.5794029639716693e6 1.5893501098770876e6 0.0
0.0 0.0 0.0

-482987.4934080742 3.688802092093716e6 0.0
3.688802092093716e6 653155.4437041824 0.0
0.0 0.0 0.0

-971536.1698824766 2.372550642441375e6 0.0
2.372550642441375e6 253502.7101695346 0.0
0.0 0.0 0.0

-588977.4580462952 4.088889662535091e6 0.0
4.088889662535091e6 597944.6872237393 0.0
0.0 0.0 0.0

57504.65712457156 1.028315575052514e6 0.0
1.028315575052514e6 -445965.7544584615 0.0
0.0 0.0 0.0

-673130.2165076614 1.7398936102233955e6 0.0
1.7398936102233955e6 135921.31973460087 0.0
0.0 0.0 0.0

-84134.39797580527 2.264112637969483e6 0.0
2.264112637969483e6 -336129.208258709 0.0
0.0 0.0 0.0

-34386.03730864375 2.0049273096440183e6 0.0
2.0049273096440183e6 -616389.424591831 0.0
0.0 0.0 0.0

-272034.60062540637 255913.98233257956 0.0
255913.98233257956 415489.79946792976 0.0
0.0 0.0 0.0

19662.294879099616 200141.16554346058 0.0
200141.16554346058 -90336.15923956521 0.0
0.0 0.0 0.0

35880.844495141006 784892.605933804 0.0
784892.605933804 -917998.9355378858 0.0
0.0 0.0 0.0

-438867.65275335487 -353724.59451798745 0.0
-353724.59451798745 520038.27679654374 0.0
0.0 0.0 0.0

1.511738147230586e6 567344.8253902213 0.0
567344.8253902213 -1.9133842278217266e6 0.0
0.0 0.0 0.0

50871.06382731315 1.8706092721472937e6 0.0
1.8706092721472937e6 419302.87206148705 0.0
0.0 0.0 0.0

-1.5782913411120581e6 -548525.0562684793 0.0
-548525.0562684793 1.9442510521996154e6 0.0
0.0 0.0 0.0

1.346277996145192e6 608251.8948846706 0.0
608251.8948846706 -1.7370699552920768e6 0.0
0.0 0.0 0.0

1.5010359067629045e6 573033.3286061282 0.0
573033.3286061282 -1.8993760086933335e6 0.0
0.0 0.0 0.0

-515151.8493831551 -365653.78835125716 0.0
-365653.78835125716 610437.5961350226 0.0
0.0 0.0 0.0

-3.8293859019291024e6 870785.5183703058 0.0
870785.5183703058 5.594468694385109e6 0.0
0.0 0.0 0.0

1.3934113240650934e6 602182.9166968927 0.0
602182.9166968927 -1.785970040506904e6 0.0
0.0 0.0 0.0

-1.3610810640903958e6 -516820.30870624224 0.0
-516820.30870624224 1.6516878126082032e6 0.0
0.0 0.0 0.0

-482882.6248339583 1.4170282402380824e6 0.0
1.4170282402380824e6 542837.0378302688 0.0
0.0 0.0 0.0

-197208.03503754426 -168616.33532967098 0.0
-168616.33532967098 270333.7815076417 0.0
0.0 0.0 0.0

-607438.6764543577 -378309.90382198157 0.0
-378309.90382198157 735790.4865730178 0.0
0.0 0.0 0.0

1.5282833701613739e6 580419.295241068 0.0
580419.295241068 -1.927504091865783e6 0.0
0.0 0.0 0.0

1.4106055826848247e6 604097.0562321234 0.0
604097.0562321234 -1.80424270632854e6 0.0
0.0 0.0 0.0

-1.2003795430563975e6 -506999.52653949615 0.0
-506999.52653949615 1.443541033391221e6 0.0
0.0 0.0 0.0

-1.2216591606067354e7 1.878587329953231e6 0.0
1.878587329953231e6 5.246793763419848e6 0.0
0.0 0.0 0.0

6.687308294901888e6 5.911730608087454e6 0.0
5.911730608087454e6 -1.7899992471135352e6 0.0
0.0 0.0 0.0

-96839.96418344617 561220.5591082377 0.0
561220.5591082377 -293580.3655447049 0.0
0.0 0.0 0.0

1.4264606787872156e6 592468.5647295838 0.0
592468.5647295838 -1.821082158829527e6 0.0
0.0 0.0 0.0

-1.0785520634520217e6 -492162.6223846036 0.0
-492162.6223846036 1.3065424164789575e6 0.0
0.0 0.0 0.0

-232539.51260512444 1.6419648839319476e6 0.0
1.6419648839319476e6 -309715.04940742743 0.0
0.0 0.0 0.0

23010.366197477124 235598.51761062842 0.0
235598.51761062842 -127629.3648425889 0.0
0.0 0.0 0.0

-762556.2670487496 1.8040575109818857e6 0.0
1.8040575109818857e6 176356.3857357438 0.0
0.0 0.0 0.0

91893.34149479106 1.8610142501182996e6 0.0
1.8610142501182996e6 409268.2844187409 0.0
0.0 0.0 0.0

-955811.3635480705 -448708.08567596646 0.0
-448708.08567596646 1.1668264429403022e6 0.0
0.0 0.0 0.0

1.4898069800166257e6 592722.275320081 0.0
592722.275320081 -1.8771611303760305e6 0.0
0.0 0.0 0.0

-667551.4633834716 3.882517170400696e6 0.0
3.882517170400696e6 549214.5330449732 0.0
0.0 0.0 0.0

425706.3310735088 1.564162181129475e6 0.0
1.564162181129475e6 -935377.8165511 0.0
0.0 0.0 0.0

-1.0081028862935351e6 4.039666961693208e6 0.0
4.039666961693208e6 393182.07947961916 0.0
0.0 0.0 0.0

-165770.4097802646 2.232594349945673e6 0.0
2.232594349945673e6 -390860.69222800696 0.0
0.0 0.0 0.0

-43039.736394341715 1.7542231058398415e6 0.0
1.7542231058398415e6 -682601.9018245157 0.0
0.0 0.0 0.0

-48072.010778383185 2.330688676929576e6 0.0
2.330688676929576e6 -269667.54172731325 0.0
0.0 0.0 0.0

-447409.233997188 3.216127156111841e6 0.0
3.216127156111841e6 393459.46195188566 0.0
0.0 0.0 0.0

-347841.74914995354 2.80130840621985e6 0.0
2.80130840621985e6 240322.47355538938 0.0
0.0 0.0 0.0

362396.5845830466 1.1913302025727537e6 0.0
1.1913302025727537e6 -844541.9422694253 0.0
0.0 0.0 0.0

-1.0528397760010809e6 2.365364407909396e6 0.0
2.365364407909396e6 259858.22085326846 0.0
0.0 0.0 0.0

-331137.8183750681 1.1204442408882033e6 0.0
1.1204442408882033e6 109959.68908758447 0.0
0.0 0.0 0.0

-221375.78111442903 2.237051930774603e6 0.0
2.237051930774603e6 15647.519085314285 0.0
0.0 0.0 0.0

-40591.54390352193 1.690718515516287e6 0.0
1.690718515516287e6 -650494.5347770625 0.0
0.0 0.0 0.0

139316.7211310198 167710.67234929657 0.0
167710.67234929657 -379005.67992407636 0.0
0.0 0.0 0.0

55104.810533451964 1.9384963566325682e6 0.0
1.9384963566325682e6 -473152.2611654041 0.0
0.0 0.0 0.0

85425.19162255374 286128.71319038764 0.0
286128.71319038764 -402943.1437081302 0.0
0.0 0.0 0.0

-725687.3098737343 3.074058532184503e6 0.0
3.074058532184503e6 -81875.21257096235 0.0
0.0 0.0 0.0

-960678.1828072246 2.1314720408592764e6 0.0
2.1314720408592764e6 223258.1682011276 0.0
0.0 0.0 0.0

148772.82148326084 1.3544437759576796e6 0.0
1.3544437759576796e6 -814202.3063284729 0.0
0.0 0.0 0.0

-258145.96953453624 1.742821264864268e6 0.0
1.742821264864268e6 427997.16924506996 0.0
0.0 0.0 0.0

-1.5335343845133306e6 2.4558953524744515e6 0.0
2.4558953524744515e6 368718.3934518241 0.0
0.0 0.0 0.0

-625779.3876343549 3.051274638004404e6 0.0
3.051274638004404e6 -52430.86433201612 0.0
0.0 0.0 0.0

-820285.7422885267 4.304624329156662e6 0.0
4.304624329156662e6 489178.59535869694 0.0
0.0 0.0 0.0

-227585.66510452254 2.776155873789644e6 0.0
2.776155873789644e6 924145.073051678 0.0
0.0 0.0 0.0

-858972.2330084271 1.9582711362190666e6 0.0
1.9582711362190666e6 198679.46307928703 0.0
0.0 0.0 0.0

-810345.7814388728 725609.0470799444 0.0
725609.0470799444 265310.30011129455 0.0
0.0 0.0 0.0

-1.1338024238800083e6 2.3900169768628916e6 0.0
2.3900169768628916e6 259213.31985127606 0.0
0.0 0.0 0.0

1.2801525940409922e6 535359.1294676842 0.0
535359.1294676842 -1.455489031754942e6 0.0
0.0 0.0 0.0

1.2167298657907313e6 525544.5135950218 0.0
525544.5135950218 -1.3828970154525538e6 0.0
0.0 0.0 0.0

-721245.975073586 4.0949531787616406e6 0.0
4.0949531787616406e6 554182.6738945358 0.0
0.0 0.0 0.0

-32484.080115132325 1.6264308595151978e6 0.0
1.6264308595151978e6 1.295638856093843e6 0.0
0.0 0.0 0.0

-1.2372790470402988e6 2.6625114561315165e6 0.0
2.6625114561315165e6 315257.56535768067 0.0
0.0 0.0 0.0

27604.358669484314 146573.16573725818 0.0
146573.16573725818 -62353.12616989591 0.0
0.0 0.0 0.0

-1.3779748633576185e6 2.5996070914770467e6 0.0
2.5996070914770467e6 332063.4672618194 0.0
0.0 0.0 0.0

-248018.61067072715 2.0737561512085597e6 0.0
2.0737561512085597e6 42899.346769247466 0.0
0.0 0.0 0.0

-15349.646931734504 1.2280721132780684e6 0.0
1.2280721132780684e6 -408113.1838555856 0.0
0.0 0.0 0.0

314686.6390401076 1.2273373399616128e6 0.0
1.2273373399616128e6 -835746.5168019838 0.0
0.0 0.0 0.0

-619839.6222614716 1.6917182090014813e6 0.0
1.6917182090014813e6 132882.4912111355 0.0
0.0 0.0 0.0

104017.25336287651 -58349.16500950153 0.0
-58349.16500950153 -217752.65443861496 0.0
0.0 0.0 0.0

-5.753623695863012e6 378753.3791898424 0.0
378753.3791898424 5.655858110116653e6 0.0
0.0 0.0 0.0

439574.7045674559 1.2263265768652356e6 0.0
1.2263265768652356e6 -1.0297548175312178e6 0.0
0.0 0.0 0.0

-25373.564349967062 162411.70817903263 0.0
162411.70817903263 128538.51039757158 0.0
0.0 0.0 0.0

-276177.90203923266 3.490948211844805e6 0.0
3.490948211844805e6 434505.3284861708 0.0
0.0 0.0 0.0

138738.21671557717 1.5282533863380365e6 0.0
1.5282533863380365e6 -742936.1319453899 0.0
0.0 0.0 0.0

-549557.2255244006 2.5742699806142827e6 0.0
2.5742699806142827e6 -120017.7982406972 0.0
0.0 0.0 0.0

-978418.8302843751 4.313246467951597e6 0.0
4.313246467951597e6 432277.2174775997 0.0
0.0 0.0 0.0

-172050.497224056 1.4598468690295708e6 0.0
1.4598468690295708e6 -365709.40380188567 0.0
0.0 0.0 0.0

120175.08159482773 162302.47617976894 0.0
162302.47617976894 -108946.13571976683 0.0
0.0 0.0 0.0

-147775.66716710408 234605.7536602294 0.0
234605.7536602294 241975.40426819638 0.0
0.0 0.0 0.0

-930534.9387708778 4.391102646889242e6 0.0
4.391102646889242e6 448202.890818138 0.0
0.0 0.0 0.0

-118310.50146185549 577483.9545610572 0.0
577483.9545610572 -321806.1502057729 0.0
0.0 0.0 0.0

1.3636148770143134e6 640410.5266912818 0.0
640410.5266912818 -1.7711408538070521e6 0.0
0.0 0.0 0.0

-137098.31446461385 678334.1478949673 0.0
678334.1478949673 -139890.17622194128 0.0
0.0 0.0 0.0

-131163.1155305071 1.3993206702052779e6 0.0
1.3993206702052779e6 -423656.8252262832 0.0
0.0 0.0 0.0

-228289.41293058678 1.6972127889253248e6 0.0
1.6972127889253248e6 -298776.1429535545 0.0
0.0 0.0 0.0

-150193.79494797683 2.181172079596441e6 0.0
2.181172079596441e6 23304.940030920385 0.0
0.0 0.0 0.0

-698686.8623512879 3.621234996461452e6 0.0
3.621234996461452e6 295512.6221456532 0.0
0.0 0.0 0.0

-83395.10692394705 1.8265180116027659e6 0.0
1.8265180116027659e6 -604662.1330272491 0.0
0.0 0.0 0.0

682883.6671893974 613839.8055470588 0.0
613839.8055470588 -1.2111734943476247e6 0.0
0.0 0.0 0.0

-154746.54955095338 1.4252833103072294e6 0.0
1.4252833103072294e6 -383522.3935041186 0.0
0.0 0.0 0.0

-118563.24934046807 1.2099465848966413e6 0.0
1.2099465848966413e6 -737538.8249211272 0.0
0.0 0.0 0.0

932026.527618385 402887.44733627 0.0
402887.44733627 -1.344654840031118e6 0.0
0.0 0.0 0.0

-777355.3548962339 1.9642162114535873e6 0.0
1.9642162114535873e6 174401.53236628935 0.0
0.0 0.0 0.0

-430334.27152941405 3.3312213062006254e6 0.0
3.3312213062006254e6 11544.427809298766 0.0
0.0 0.0 0.0

-234779.11463251396 1.6679021138400102e6 0.0
1.6679021138400102e6 540847.307732106 0.0
0.0 0.0 0.0

-73740.93733291376 -154617.9874676124 0.0
-154617.9874676124 -7428.47338035183 0.0
0.0 0.0 0.0

-379654.4984919388 2.4485542952445922e6 0.0
2.4485542952445922e6 -125497.93731053101 0.0
0.0 0.0 0.0

-147717.89706738596 2.1162605582319694e6 0.0
2.1162605582319694e6 114518.90170280088 0.0
0.0 0.0 0.0

207903.1592936474 632789.1947801824 0.0
632789.1947801824 -997146.6182595419 0.0
0.0 0.0 0.0

-2.5845104518200723e6 299953.4927143503 0.0
299953.4927143503 3.467733902214895e6 0.0
0.0 0.0 0.0

-364079.2684094617 998872.1451227155 0.0
998872.1451227155 744994.23294371 0.0
0.0 0.0 0.0

-237464.45913483994 2.3541066292272173e6 0.0
2.3541066292272173e6 -179201.20670763552 0.0
0.0 0.0 0.0

-640023.8296286152 3.4090986574937403e6 0.0
3.4090986574937403e6 252943.3723780057 0.0
0.0 0.0 0.0

96240.62662084764 1.668213248593255e6 0.0
1.668213248593255e6 -764097.6015225231 0.0
0.0 0.0 0.0

137421.75684434263 2.2660577453051987e6 0.0
2.2660577453051987e6 -323538.77756069007 0.0
0.0 0.0 0.0

432840.53367070097 1.1058455159925267e6 0.0
1.1058455159925267e6 -895001.1876506365 0.0
0.0 0.0 0.0

47020.3230538691 2.2258603265419207e6 0.0
2.2258603265419207e6 -345241.8600203636 0.0
0.0 0.0 0.0

-286351.2609181936 2.2851481866830215e6 0.0
2.2851481866830215e6 -292579.9406601267 0.0
0.0 0.0 0.0

639278.491449144 649442.0425945169 0.0
649442.0425945169 -1.1079094493078147e6 0.0
0.0 0.0 0.0

1.4653437698055883e6 599063.2739686831 0.0
599063.2739686831 -1.8533975615201285e6 0.0
0.0 0.0 0.0

-390173.38035249826 3.809940027184632e6 0.0
3.809940027184632e6 598956.7205684045 0.0
0.0 0.0 0.0

388073.0918594418 1.1416775767126216e6 0.0
1.1416775767126216e6 -878705.5610523648 0.0
0.0 0.0 0.0

-580127.3967341396 1.692236837314353e6 0.0
1.692236837314353e6 133750.8802089753 0.0
0.0 0.0 0.0

-260373.7311374867 1.937764769940025e6 0.0
1.937764769940025e6 -95602.81174892343 0.0
0.0 0.0 0.0

-54868.407473727144 969650.0745765542 0.0
969650.0745765542 260224.36225699895 0.0
0.0 0.0 0.0

-1.6204665469591594e6 2.362223821308486e6 0.0
2.362223821308486e6 388217.6154120461 0.0
0.0 0.0 0.0

268111.50241928204 783187.7088220372 0.0
783187.7088220372 -749347.6041156829 0.0
0.0 0.0 0.0

-954979.1416801937 1.421024883895406e6 0.0
1.421024883895406e6 2.4154901098749e6 0.0
0.0 0.0 0.0

-116798.20045256405 2.2486597760371147e6 0.0
2.2486597760371147e6 -270744.3107603423 0.0
0.0 0.0 0.0

-576760.2610936393 1.6816257019330207e6 0.0
1.6816257019330207e6 72826.61813050063 0.0
0.0 0.0 0.0

166383.47975146357 227997.4633731623 0.0
227997.4633731623 -296859.8127203181 0.0
0.0 0.0 0.0

4710.242511109915 1.6961654203620402e6 0.0
1.6961654203620402e6 -871072.5772907018 0.0
0.0 0.0 0.0

-139695.77261518256 1.6904654669091783e6 0.0
1.6904654669091783e6 -324160.8411594788 0.0
0.0 0.0 0.0

-680682.0754798434 3.664015621551314e6 0.0
3.664015621551314e6 363603.79203873966 0.0
0.0 0.0 0.0

-43382.518102536604 3.3170332389723235e6 0.0
3.3170332389723235e6 367845.96390953095 0.0
0.0 0.0 0.0

-172567.9916584475 2.223228625991868e6 0.0
2.223228625991868e6 -326231.38616052695 0.0
0.0 0.0 0.0

-128940.39845375212 2.0585683490466394e6 0.0
2.0585683490466394e6 242989.17268079275 0.0
0.0 0.0 0.0

-46570.94231971438 1.7971114283581192e6 0.0
1.7971114283581192e6 -722820.6109690372 0.0
0.0 0.0 0.0

7766.468075376122 -118867.44359252336 0.0
-118867.44359252336 -39661.432234666674 0.0
0.0 0.0 0.0

-250620.6737038059 1.3185823525446446e6 0.0
1.3185823525446446e6 398324.9319795439 0.0
0.0 0.0 0.0

-16118.726928055568 255041.4352099341 0.0
255041.4352099341 -71230.43876649135 0.0
0.0 0.0 0.0

-792550.9185771212 1.5546742816931917e6 0.0
1.5546742816931917e6 125421.12289955869 0.0
0.0 0.0 0.0

349348.34203466406 1.1605632103248655e6 0.0
1.1605632103248655e6 -912086.9625375887 0.0
0.0 0.0 0.0

-441944.0539896962 1.4504675942304751e6 0.0
1.4504675942304751e6 200387.91120588072 0.0
0.0 0.0 0.0

-400103.936362004 1.6212278546551766e6 0.0
1.6212278546551766e6 105752.65182646102 0.0
0.0 0.0 0.0

-326519.47196506395 2.7686137051342935e6 0.0
2.7686137051342935e6 10334.038130418194 0.0
0.0 0.0 0.0

449414.06800239766 1.112527639465592e6 0.0
1.112527639465592e6 -1.0222675694084105e6 0.0
0.0 0.0 0.0

-185583.97462399918 1.9211508851468721e6 0.0
1.9211508851468721e6 461070.3075944449 0.0
0.0 0.0 0.0

-1.335166386205343e6 -203576.6003888607 0.0
-203576.6003888607 1.523723313909581e6 0.0
0.0 0.0 0.0

-244615.8282407033 -147647.05712284727 0.0
-147647.05712284727 363054.7885347989 0.0
0.0 0.0 0.0

-65168.12622081346 1.4035433010390734e6 0.0
1.4035433010390734e6 -599499.5068642006 0.0
0.0 0.0 0.0

-414891.6883798338 3.0350019715813836e6 0.0
3.0350019715813836e6 233281.9260180674 0.0
0.0 0.0 0.0

-770097.3404247526 3.068680866134991e6 0.0
3.068680866134991e6 -20189.270891708322 0.0
0.0 0.0 0.0

-527771.8237681382 2.9838085220461776e6 0.0
2.9838085220461776e6 141386.78317426416 0.0
0.0 0.0 0.0

152453.39981014302 1.3436805563806188e6 0.0
1.3436805563806188e6 -665451.0214042412 0.0
0.0 0.0 0.0

-179027.6223766232 171377.7807053215 0.0
171377.7807053215 161718.46919876584 0.0
0.0 0.0 0.0

-1.1948562790969724e6 3.8450226923383595e6 0.0
3.8450226923383595e6 476164.8082553593 0.0
0.0 0.0 0.0

-1.2003371571782941e6 1.1276260818987868e6 0.0
1.1276260818987868e6 501741.2736100551 0.0
0.0 0.0 0.0

-214196.52987907847 2.429975327141638e6 0.0
2.429975327141638e6 -82496.24505398048 0.0
0.0 0.0 0.0

-185880.35475179856 913651.0556280679 0.0
913651.0556280679 -143823.57073660588 0.0
0.0 0.0 0.0

-665186.8568181565 2.601319695917721e6 0.0
2.601319695917721e6 -71853.38798574766 0.0
0.0 0.0 0.0

-353092.16595664376 63352.91372555298 0.0
63352.91372555298 559927.4458403448 0.0
0.0 0.0 0.0

-714447.0193724902 1.7290076174138545e6 0.0
1.7290076174138545e6 111270.49771299388 0.0
0.0 0.0 0.0

-273692.09174400254 1.6274455886378577e6 0.0
1.6274455886378577e6 632304.9895512502 0.0
0.0 0.0 0.0

-1.0502531660710115e6 2.698007038574906e6 0.0
2.698007038574906e6 305374.59753420774 0.0
0.0 0.0 0.0

-237905.356989439 2.2310271553137125e6 0.0
2.2310271553137125e6 -385664.75217819365 0.0
0.0 0.0 0.0

-1.0773734771014594e6 34578.34721890879 0.0
34578.34721890879 1.0414853903598716e6 0.0
0.0 0.0 0.0

-166190.8620007464 1.846774142053134e6 0.0
1.846774142053134e6 -494400.50232413894 0.0
0.0 0.0 0.0

-307873.9449473717 1.9316220732322193e6 0.0
1.9316220732322193e6 -206257.1348822269 0.0
0.0 0.0 0.0

-1.0221924025098141e6 3.9586289664973104e6 0.0
3.9586289664973104e6 565611.6680615041 0.0
0.0 0.0 0.0

711793.6929925093 365998.61300288705 0.0
365998.61300288705 -1.2034786351966562e6 0.0
0.0 0.0 0.0

-244986.85252514321 2.5599002511263285e6 0.0
2.5599002511263285e6 -114155.83204563166 0.0
0.0 0.0 0.0

-474640.25125298684 1.4424314406493688e6 0.0
1.4424314406493688e6 179564.6860815495 0.0
0.0 0.0 0.0

185252.45938401023 150411.5268085253 0.0
150411.5268085253 -210632.079748457 0.0
0.0 0.0 0.0

-209138.85042888368 2.3721415652463166e6 0.0
2.3721415652463166e6 -162744.12120243718 0.0
0.0 0.0 0.0

-317844.50135815213 247965.52507675166 0.0
247965.52507675166 263623.2675082524 0.0
0.0 0.0 0.0

-93335.67968995319 1.147762203175201e6 0.0
1.147762203175201e6 530506.9128819745 0.0
0.0 0.0 0.0

-445108.7559973036 1.3661757945653603e6 0.0
1.3661757945653603e6 150522.2856447648 0.0
0.0 0.0 0.0

33281.78382429801 168132.6458918597 0.0
168132.6458918597 -83308.19730760533 0.0
0.0 0.0 0.0

-218065.8461486781 860505.0993167275 0.0
860505.0993167275 15281.100948999374 0.0
0.0 0.0 0.0

-52885.006602374546 1.4256927467333854e6 0.0
1.4256927467333854e6 866622.3840938817 0.0
0.0 0.0 0.0

405036.3967583361 1.0912183995631419e6 0.0
1.0912183995631419e6 -942375.6517333207 0.0
0.0 0.0 0.0

-153095.67514040536 -153293.5236490951 0.0
-153293.5236490951 90261.49614834005 0.0
0.0 0.0 0.0

-296644.5398950108 3.9074591304107658e6 0.0
3.9074591304107658e6 564306.0616575589 0.0
0.0 0.0 0.0

52988.69175570186 153020.27746225012 0.0
153020.27746225012 19091.506107590492 0.0
0.0 0.0 0.0

-346724.7896981526 2.227665102450106e6 0.0
2.227665102450106e6 -166803.4918137784 0.0
0.0 0.0 0.0

-171596.6736485104 2.101759436482263e6 0.0
2.101759436482263e6 212669.18469993837 0.0
0.0 0.0 0.0

-660864.1377212444 3.6105907862760145e6 0.0
3.6105907862760145e6 311964.38361477014 0.0
0.0 0.0 0.0

-377803.0613210033 1.1319906400067017e6 0.0
1.1319906400067017e6 282216.52065087843 0.0
0.0 0.0 0.0

-425598.7332827888 2.8778035767307356e6 0.0
2.8778035767307356e6 215510.05802112975 0.0
0.0 0.0 0.0

-287952.0238164704 1.9220005285965023e6 0.0
1.9220005285965023e6 -29532.038086741122 0.0
0.0 0.0 0.0

-214277.84565592746 875111.1368886036 0.0
875111.1368886036 58947.707091319724 0.0
0.0 0.0 0.0

-235593.01154339316 2.511662782228849e6 0.0
2.511662782228849e6 -110994.40442336228 0.0
0.0 0.0 0.0

-494607.1144654167 1.4847326769024106e6 0.0
1.4847326769024106e6 107839.32380302565 0.0
0.0 0.0 0.0

-1.274749403373415e6 2.682621130306922e6 0.0
2.682621130306922e6 324797.3932550946 0.0
0.0 0.0 0.0

255007.15205045888 1.202649204530756e6 0.0
1.202649204530756e6 -842007.691888994 0.0
0.0 0.0 0.0

-664743.7314217021 -576931.0814934173 0.0
-576931.0814934173 409209.3819190261 0.0
0.0 0.0 0.0

-105875.33916469876 -90304.0826081763 0.0
-90304.0826081763 116363.82009516456 0.0
0.0 0.0 0.0

1.2694685722426674e6 697325.1645042185 0.0
697325.1645042185 -1.6978940272470396e6 0.0
0.0 0.0 0.0

-564143.0964718779 3.7263277408072357e6 0.0
3.7263277408072357e6 614544.5126684806 0.0
0.0 0.0 0.0

-314239.14815743745 1.341941339934643e6 0.0
1.341941339934643e6 710861.7556918198 0.0
0.0 0.0 0.0

60406.85203737403 201686.72003130455 0.0
201686.72003130455 -178309.602259489 0.0
0.0 0.0 0.0

-1.672088138500252e6 2.318038303056975e6 0.0
2.318038303056975e6 454469.3524377253 0.0
0.0 0.0 0.0

-219798.85641347917 85253.7522803015 0.0
85253.7522803015 174592.13440713155 0.0
0.0 0.0 0.0

-262852.75433273404 6.949306633854051e6 0.0
6.949306633854051e6 891779.2281475461 0.0
0.0 0.0 0.0

-416749.0311175359 2.6454967904187692e6 0.0
2.6454967904187692e6 18434.155516190076 0.0
0.0 0.0 0.0

-93902.89964387112 2.0815304391197134e6 0.0
2.0815304391197134e6 -545559.7866702534 0.0
0.0 0.0 0.0

-241857.4999779491 1.687693592935005e6 0.0
1.687693592935005e6 455190.26031527994 0.0
0.0 0.0 0.0

-610838.3257791841 83026.84895956817 0.0
83026.84895956817 571569.3441062435 0.0
0.0 0.0 0.0

-427926.45547055 3.123439485194597e6 0.0
3.123439485194597e6 501519.97062257596 0.0
0.0 0.0 0.0

-182951.35377839603 1.7219514880482315e6 0.0
1.7219514880482315e6 -239123.03480921825 0.0
0.0 0.0 0.0

1.4869849281280618e6 558776.5435603195 0.0
558776.5435603195 -1.8545666305602174e6 0.0
0.0 0.0 0.0

560857.0957890772 -52927.21937556635 0.0
-52927.21937556635 -851499.2388911203 0.0
0.0 0.0 0.0

-1.8669929392217305e6 2.2063289816523395e6 0.0
2.2063289816523395e6 575897.6514992103 0.0
0.0 0.0 0.0

-572567.0728080216 1.056371856294835e6 0.0
1.056371856294835e6 543209.6592155743 0.0
0.0 0.0 0.0

-100246.35910211435 1.3730756290964358e6 0.0
1.3730756290964358e6 -540758.8786822492 0.0
0.0 0.0 0.0

-177601.85984622358 2.3775441710187765e6 0.0
2.3775441710187765e6 231584.5394112341 0.0
0.0 0.0 0.0

297164.86707505106 -85704.24865825025 0.0
-85704.24865825025 -279134.8447437922 0.0
0.0 0.0 0.0

-28574.22017365822 522500.10280695173 0.0
522500.10280695173 -927445.1618979899 0.0
0.0 0.0 0.0

-121064.09091421637 1.352992103462649e6 0.0
1.352992103462649e6 -475049.6146999252 0.0
0.0 0.0 0.0

-422177.8821375439 2.8850444724778137e6 0.0
2.8850444724778137e6 218207.1713503804 0.0
0.0 0.0 0.0

-197692.7993520558 706131.3184757404 0.0
706131.3184757404 29367.72640288333 0.0
0.0 0.0 0.0

-31326.817002545955 1.3478586776003584e6 0.0
1.3478586776003584e6 -637225.9096302502 0.0
0.0 0.0 0.0

205520.9376457209 1.4293938592040353e6 0.0
1.4293938592040353e6 -794063.9743852789 0.0
0.0 0.0 0.0

-409276.4206086658 1.49135702656266e6 0.0
1.49135702656266e6 188583.02736146402 0.0
0.0 0.0 0.0

-105618.76710202734 1.912433693285894e6 0.0
1.912433693285894e6 -514108.6341064883 0.0
0.0 0.0 0.0

47589.606804025156 234911.4491655053 0.0
234911.4491655053 -42915.26552075203 0.0
0.0 0.0 0.0

244872.79515330392 236182.46539767188 0.0
236182.46539767188 -597392.6463131264 0.0
0.0 0.0 0.0

-585965.813373087 1.581695934283113e6 0.0
1.581695934283113e6 371358.21637405094 0.0
0.0 0.0 0.0

-387710.7432767076 1.2499490986518504e6 0.0
1.2499490986518504e6 -37399.254608062925 0.0
0.0 0.0 0.0

684860.8167052534 131270.07131319738 0.0
131270.07131319738 -1.495289861280766e6 0.0
0.0 0.0 0.0

-354389.5793491001 1.6776085201236303e6 0.0
1.6776085201236303e6 82037.45780947985 0.0
0.0 0.0 0.0

-142088.69143096748 1.164835618566663e6 0.0
1.164835618566663e6 -473628.9361891995 0.0
0.0 0.0 0.0

-273322.39749265806 2.7193064521624427e6 0.0
2.7193064521624427e6 -37452.027972597665 0.0
0.0 0.0 0.0

-1.9244792579845446e6 530654.143518721 0.0
530654.143518721 1.7068170267243602e6 0.0
0.0 0.0 0.0

-779164.2679708466 1.398107112014131e6 0.0
1.398107112014131e6 2.1239155284665753e6 0.0
0.0 0.0 0.0

-466.7874793334631 1.9650767483163255e6 0.0
1.9650767483163255e6 1.1377105785820854e6 0.0
0.0 0.0 0.0

46779.61043526948 2.0931579843453357e6 0.0
2.0931579843453357e6 -403967.1530871573 0.0
0.0 0.0 0.0

-270212.03307891154 1.2589535209536178e6 0.0
1.2589535209536178e6 486716.501205178 0.0
0.0 0.0 0.0

-163191.52848365848 728702.7573978759 0.0
728702.7573978759 -135269.85949931075 0.0
0.0 0.0 0.0

-94002.53210775398 1.301227552549424e6 0.0
1.301227552549424e6 -530822.6428440415 0.0
0.0 0.0 0.0

-466553.4763070402 1.4802681400685515e6 0.0
1.4802681400685515e6 115155.93775257203 0.0
0.0 0.0 0.0

-256384.67402720999 130403.59608616742 0.0
130403.59608616742 227891.59218777285 0.0
0.0 0.0 0.0

-217175.5285277619 3.9168488160592993e6 0.0
3.9168488160592993e6 536565.07325464 0.0
0.0 0.0 0.0

-354235.5509581809 2.7282605250552027e6 0.0
2.7282605250552027e6 215470.38871876625 0.0
0.0 0.0 0.0

553614.8924114261 504081.89317612635 0.0
504081.89317612635 -1.070390929155043e6 0.0
0.0 0.0 0.0

-318369.93404594774 3.050134417373275e6 0.0
3.050134417373275e6 135090.2708404199 0.0
0.0 0.0 0.0

-1.0879582374857785e6 3.6695752349988045e6 0.0
3.6695752349988045e6 375818.3721764859 0.0
0.0 0.0 0.0

17480.770612054584 1.629800377785757e6 0.0
1.629800377785757e6 58269.33946418799 0.0
0.0 0.0 0.0

325349.4666875078 1.3122342733324573e6 0.0
1.3122342733324573e6 1.08449942339178e6 0.0
0.0 0.0 0.0

-689782.851907626 -286364.01755533105 0.0
-286364.01755533105 783834.1293603738 0.0
0.0 0.0 0.0

-112824.25524034142 1.8582581613010492e6 0.0
1.8582581613010492e6 -170294.09856848294 0.0
0.0 0.0 0.0

-112336.82999994798 -175144.25552304072 0.0
-175144.25552304072 79692.20406841076 0.0
0.0 0.0 0.0

-804077.3179769414 4.538964331506444e6 0.0
4.538964331506444e6 523908.81928624073 0.0
0.0 0.0 0.0

-405209.5064488255 3.550610364473674e6 0.0
3.550610364473674e6 509683.73972933646 0.0
0.0 0.0 0.0

-1.7596620730696172e6 2.2995209021460307e6 0.0
2.2995209021460307e6 495224.83056435524 0.0
0.0 0.0 0.0

-567365.1812343522 3.231185602550311e6 0.0
3.231185602550311e6 959605.6591843055 0.0
0.0 0.0 0.0

-72769.98900058263 104621.40177362316 0.0
104621.40177362316 216468.1769819219 0.0
0.0 0.0 0.0

-1.0107339727940406e6 4.380419631657072e6 0.0
4.380419631657072e6 474792.2479129841 0.0
0.0 0.0 0.0

-267437.90677691 956472.3692443295 0.0
956472.3692443295 61702.913165040416 0.0
0.0 0.0 0.0

-406919.5729969044 1.3184428028873915e6 0.0
1.3184428028873915e6 78569.07635210961 0.0
0.0 0.0 0.0

979116.8253834782 774678.4492886215 0.0
774678.4492886215 -1.4882050281782509e6 0.0
0.0 0.0 0.0

-370647.16095328826 1.5402739293456643e6 0.0
1.5402739293456643e6 202484.38855034977 0.0
0.0 0.0 0.0

-7890.343577671272 3.667448075248921e6 0.0
3.667448075248921e6 763741.2773198262 0.0
0.0 0.0 0.0

66923.42364588959 1.7261120978405213e6 0.0
1.7261120978405213e6 -702164.5520233024 0.0
0.0 0.0 0.0

-2.270862066724506e6 -558787.2071773275 0.0
-558787.2071773275 2.570149399358017e6 0.0
0.0 0.0 0.0

-1.1760193545449437e6 2.712947790768695e6 0.0
2.712947790768695e6 326096.1648231083 0.0
0.0 0.0 0.0

-247477.01996205345 2.2306051385332523e6 0.0
2.2306051385332523e6 -109934.61305081635 0.0
0.0 0.0 0.0

-3.0307707145777605e6 1.6923968243706918e6 0.0
1.6923968243706918e6 4.360600740328675e6 0.0
0.0 0.0 0.0

814541.328336443 345826.74385602 0.0
345826.74385602 -1.1428852827536883e6 0.0
0.0 0.0 0.0

-740976.9979968421 2.6010333094377355e6 0.0
2.6010333094377355e6 -24184.078403739142 0.0
0.0 0.0 0.0

-492517.023471491 1.4262789407214671e6 0.0
1.4262789407214671e6 106203.99619902778 0.0
0.0 0.0 0.0

-153354.57829018752 1.8406027640567622e6 0.0
1.8406027640567622e6 -314842.71854683757 0.0
0.0 0.0 0.0

-376437.9128001378 2.576554771759074e6 0.0
2.576554771759074e6 -68224.89004734167 0.0
0.0 0.0 0.0

-100784.35327257268 3.4419599675128795e6 0.0
3.4419599675128795e6 290672.4737547394 0.0
0.0 0.0 0.0

-1.185737094351428e6 2.025900523702182e6 0.0
2.025900523702182e6 244307.01963202498 0.0
0.0 0.0 0.0

-175655.97957019528 2.272468971705156e6 0.0
2.272468971705156e6 11589.312875157768 0.0
0.0 0.0 0.0

1.27510592061365e6 652645.730305032 0.0
652645.730305032 -1.709259023500403e6 0.0
0.0 0.0 0.0

-528968.9820938052 1.0465985845324245e6 0.0
1.0465985845324245e6 -85055.65075683997 0.0
0.0 0.0 0.0

-239457.51482171164 927050.4335245031 0.0
927050.4335245031 112843.82560582204 0.0
0.0 0.0 0.0

-402020.71817484667 3.3303697608248796e6 0.0
3.3303697608248796e6 414069.468510406 0.0
0.0 0.0 0.0

-677124.0814025244 1.7340257686864939e6 0.0
1.7340257686864939e6 2.926715187225219e6 0.0
0.0 0.0 0.0

-111297.35316312063 3.8830305671570557e6 0.0
3.8830305671570557e6 458420.2833419383 0.0
0.0 0.0 0.0

-304973.00462544226 1.5125542312400162e6 0.0
1.5125542312400162e6 164805.7520175014 0.0
0.0 0.0 0.0

-467111.07292046625 2.710231593318276e6 0.0
2.710231593318276e6 159886.80833711082 0.0
0.0 0.0 0.0

-39159.968875513114 2.653050537057637e6 0.0
2.653050537057637e6 17222.063567920868 0.0
0.0 0.0 0.0

-228414.30283846156 2.5937940082394e6 0.0
2.5937940082394e6 -69263.23633964542 0.0
0.0 0.0 0.0

-930438.202112553 828831.4535694156 0.0
828831.4535694156 829802.0048252048 0.0
0.0 0.0 0.0

-2.8317970081603653e6 -345765.6624421882 0.0
-345765.6624421882 3.865724991977173e6 0.0
0.0 0.0 0.0

-2.9114836956277895e6 -764424.0174110461 0.0
-764424.0174110461 3.908125853507558e6 0.0
0.0 0.0 0.0

-574665.0585722777 2.9118688014401845e6 0.0
2.9118688014401845e6 318509.9119069681 0.0
0.0 0.0 0.0

-195255.5984318142 2.1365581173857828e6 0.0
2.1365581173857828e6 -217206.4409351995 0.0
0.0 0.0 0.0

-338944.29730100185 2.504832838480158e6 0.0
2.504832838480158e6 -124796.63842325057 0.0
0.0 0.0 0.0

-299726.73561372625 1.7013288954568289e6 0.0
1.7013288954568289e6 -95074.7876469398 0.0
0.0 0.0 0.0

-106205.12016987603 2.879156891865721e6 0.0
2.879156891865721e6 773412.5985970045 0.0
0.0 0.0 0.0

-478240.99578628293 926680.1680187808 0.0
926680.1680187808 390962.1902584607 0.0
0.0 0.0 0.0

-304776.4209716903 2.460767149508196e6 0.0
2.460767149508196e6 -156952.95587129355 0.0
0.0 0.0 0.0

-558037.0567034336 3.069337233952877e6 0.0
3.069337233952877e6 211591.8257210403 0.0
0.0 0.0 0.0

109074.14670506433 -94501.57782647714 0.0
-94501.57782647714 -207494.15242435888 0.0
0.0 0.0 0.0

226701.89494249475 1.3091038471208108e6 0.0
1.3091038471208108e6 -1.0222089939806073e6 0.0
0.0 0.0 0.0

-143333.23451050118 -90034.03242196194 0.0
-90034.03242196194 92690.2756599473 0.0
0.0 0.0 0.0

39541.577038305055 -131959.70653324644 0.0
-131959.70653324644 -266836.1053144493 0.0
0.0 0.0 0.0

41379.0005765415 -133911.6521740748 0.0
-133911.6521740748 -280876.26823156077 0.0
0.0 0.0 0.0

128831.02771170395 284449.8315855353 0.0
284449.8315855353 -278549.4843089359 0.0
0.0 0.0 0.0

-194853.53891407367 2.1689216544991597e6 0.0
2.1689216544991597e6 -475267.97313241934 0.0
0.0 0.0 0.0

385563.89465427765 1.1936615229161838e6 0.0
1.1936615229161838e6 -845594.0702297422 0.0
0.0 0.0 0.0

-106825.32001529358 2.219400107215931e6 0.0
2.219400107215931e6 -324483.9282134874 0.0
0.0 0.0 0.0

-309303.3395091648 2.711101139407395e6 0.0
2.711101139407395e6 -40286.318775933614 0.0
0.0 0.0 0.0

-314157.7423547734 2.732149866389725e6 0.0
2.732149866389725e6 -49143.32385734999 0.0
0.0 0.0 0.0

-820328.2830077591 4.255986777020088e6 0.0
4.255986777020088e6 503153.8111816396 0.0
0.0 0.0 0.0

332927.9892731345 4.658238107066823e6 0.0
4.658238107066823e6 -958339.6898253937 0.0
0.0 0.0 0.0

-391073.0211610079 2.7745067864870634e6 0.0
2.7745067864870634e6 1.3012210090897456e6 0.0
0.0 0.0 0.0

-272292.6950686347 2.665110781196193e6 0.0
2.665110781196193e6 -54259.16319926416 0.0
0.0 0.0 0.0

-334969.17866974056 3.5737554305390995e6 0.0
3.5737554305390995e6 545906.9577003291 0.0
0.0 0.0 0.0

-1.183400396564995e6 3.72788757989304e6 0.0
3.72788757989304e6 444029.5235490123 0.0
0.0 0.0 0.0

-126103.045214627 1.934388001724172e6 0.0
1.934388001724172e6 -450068.9525559152 0.0
0.0 0.0 0.0

-447610.66051974316 1.3708871279981935e6 0.0
1.3708871279981935e6 45007.56402108385 0.0
0.0 0.0 0.0

-354544.336103255 1.7146663713459726e6 0.0
1.7146663713459726e6 62546.83890521168 0.0
0.0 0.0 0.0

1.2445894136520303e6 484807.9864109571 0.0
484807.9864109571 -1.3686739718660857e6 0.0
0.0 0.0 0.0

-985932.0317765041 4.0074865426118206e6 0.0
4.0074865426118206e6 385796.07581726427 0.0
0.0 0.0 0.0

-1.990294867095455e6 2.153123830289936e6 0.0
2.153123830289936e6 669223.0681355131 0.0
0.0 0.0 0.0

-51725.14535452002 1.4726711853428255e6 0.0
1.4726711853428255e6 -550710.0105883129 0.0
0.0 0.0 0.0

118175.17198920762 1.6237196992283487e6 0.0
1.6237196992283487e6 -753137.7485800285 0.0
0.0 0.0 0.0

323377.67482943117 1.2346105127446542e6 0.0
1.2346105127446542e6 -854414.0166658092 0.0
0.0 0.0 0.0

317360.3184915971 1.2761216466652218e6 0.0
1.2761216466652218e6 -802555.3289364704 0.0
0.0 0.0 0.0

-587927.8668237706 5.886065269965916e6 0.0
5.886065269965916e6 350110.89637877897 0.0
0.0 0.0 0.0

-272235.5756645916 2.410785514670936e6 0.0
2.410785514670936e6 -220868.1886419492 0.0
0.0 0.0 0.0

-28678.09027791163 1.5394972850018262e6 0.0
1.5394972850018262e6 993627.7462181709 0.0
0.0 0.0 0.0

-1.559248522080041e6 564567.7068370339 0.0
564567.7068370339 938046.8486214745 0.0
0.0 0.0 0.0

-1.5735565429070543e6 532958.9961344765 0.0
532958.9961344765 375754.0660144853 0.0
0.0 0.0 0.0

1.1602622570887003e6 797548.1209191051 0.0
797548.1209191051 -1.6501694205754818e6 0.0
0.0 0.0 0.0

-277849.4232549315 2.6473618189058974e6 0.0
2.6473618189058974e6 -58455.40616636895 0.0
0.0 0.0 0.0

-363800.3464019182 3.198044255695592e6 0.0
3.198044255695592e6 263257.0271928686 0.0
0.0 0.0 0.0

1.1754918787087388e6 423372.17238688905 0.0
423372.17238688905 -1.2611717711875418e6 0.0
0.0 0.0 0.0

-382132.1192631439 1.5835958193982893e6 0.0
1.5835958193982893e6 -66144.21732883825 0.0
0.0 0.0 0.0

6458.8445953109185 1.9783874527370639e6 0.0
1.9783874527370639e6 397855.74798454624 0.0
0.0 0.0 0.0

-608881.6902096353 2.455374749142516e6 0.0
2.455374749142516e6 982623.53702898 0.0
0.0 0.0 0.0

26532.439429127087 -175069.3352078758 0.0
-175069.3352078758 -203469.94372300227 0.0
0.0 0.0 0.0

-36098.93852587417 1.780319001889874e6 0.0
1.780319001889874e6 -640726.9428117805 0.0
0.0 0.0 0.0

-49973.11949594482 994629.9067341164 0.0
994629.9067341164 -824590.3791203012 0.0
0.0 0.0 0.0

-7254.852319682235 1.5720244015707397e6 0.0
1.5720244015707397e6 -95634.98891955722 0.0
0.0 0.0 0.0

46182.89002897114 -154787.93542531223 0.0
-154787.93542531223 -152906.25562312448 0.0
0.0 0.0 0.0

-9.016744040820638e6 1.418246119556985e6 0.0
1.418246119556985e6 8.490779371652605e6 0.0
0.0 0.0 0.0

-1.1622476709943484e6 -208766.60314863818 0.0
-208766.60314863818 1.2640487832004996e6 0.0
0.0 0.0 0.0

-623527.9681570444 4.949434696789825e6 0.0
4.949434696789825e6 489186.94543209707 0.0
0.0 0.0 0.0

-646700.9980551881 2.22572282002772e6 0.0
2.22572282002772e6 -59856.45053663594 0.0
0.0 0.0 0.0

-93858.0644752312 1.2720707090368718e6 0.0
1.2720707090368718e6 -474712.6802239178 0.0
0.0 0.0 0.0

-328128.6336245487 3.074568640217678e6 0.0
3.074568640217678e6 296673.99727555044 0.0
0.0 0.0 0.0

-429898.59511008055 1.500581470590743e6 0.0
1.500581470590743e6 117386.54672074883 0.0
0.0 0.0 0.0

-1.3010506521524927e6 5.044813707036369e6 0.0
5.044813707036369e6 802340.4187882722 0.0
0.0 0.0 0.0

-81270.04232438972 407497.9275249777 0.0
407497.9275249777 -261647.61970838538 0.0
0.0 0.0 0.0

114431.3476660092 -103800.97609873547 0.0
-103800.97609873547 -264183.7395541074 0.0
0.0 0.0 0.0

-16383.068785620679 2.197041471874552e6 0.0
2.197041471874552e6 -359448.5842575228 0.0
0.0 0.0 0.0

-364081.6775072021 1.7036097039011996e6 0.0
1.7036097039011996e6 46072.835603397194 0.0
0.0 0.0 0.0

-96331.02017942228 1.7015974609365633e6 0.0
1.7015974609365633e6 876998.587946414 0.0
0.0 0.0 0.0

40024.723875215896 211168.80962090712 0.0
211168.80962090712 -30726.902299350706 0.0
0.0 0.0 0.0

35749.72779694319 1.7919843387740501e6 0.0
1.7919843387740501e6 -718522.0734152372 0.0
0.0 0.0 0.0

-6.418142637292513e6 -211131.36098535173 0.0
-211131.36098535173 4.178654891127451e6 0.0
0.0 0.0 0.0

46731.44215489493 175589.8774691559 0.0
175589.8774691559 -44545.80800634442 0.0
0.0 0.0 0.0

-361070.20246748667 1.7309314578083374e6 0.0
1.7309314578083374e6 39571.44351399617 0.0
0.0 0.0 0.0

-97684.80028245231 1.8486166599814259e6 0.0
1.8486166599814259e6 -500520.23099510896 0.0
0.0 0.0 0.0

157920.60353223467 1.3809384880785334e6 0.0
1.3809384880785334e6 -860091.3118588354 0.0
0.0 0.0 0.0

-1.266145638438838e6 4.780115882366321e6 0.0
4.780115882366321e6 785768.0791530446 0.0
0.0 0.0 0.0

80871.98791405628 1.3895363224769991e6 0.0
1.3895363224769991e6 -771809.9685694744 0.0
0.0 0.0 0.0

-270466.7892884988 2.2624298607000154e6 0.0
2.2624298607000154e6 -240834.0843530937 0.0
0.0 0.0 0.0

11925.868959340121 2.1993656119489064e6 0.0
2.1993656119489064e6 -352488.833043186 0.0
0.0 0.0 0.0

-1.2727529465321845e6 4.1135857440804923e6 0.0
4.1135857440804923e6 515717.2290233025 0.0
0.0 0.0 0.0

-370133.95257848303 1.6584641936217349e6 0.0
1.6584641936217349e6 53171.27086839946 0.0
0.0 0.0 0.0

-27083.261075492133 1.8470314572643929e6 0.0
1.8470314572643929e6 -645064.4672797612 0.0
0.0 0.0 0.0

-300650.07518597477 2.5159023662530505e6 0.0
2.5159023662530505e6 -36871.57162331287 0.0
0.0 0.0 0.0

-716725.5733891644 1.9115902282734974e6 0.0
1.9115902282734974e6 153590.61761169022 0.0
0.0 0.0 0.0

-360487.0241642577 1.738912175267413e6 0.0
1.738912175267413e6 47554.20897527631 0.0
0.0 0.0 0.0

-88891.33338772488 -218329.943933666 0.0
-218329.943933666 34652.19088354868 0.0
0.0 0.0 0.0

-164671.24088529928 705706.2010002384 0.0
705706.2010002384 139908.40545325718 0.0
0.0 0.0 0.0

18583.429440658103 1.317946210810566e6 0.0
1.317946210810566e6 -687163.0004018771 0.0
0.0 0.0 0.0

34865.27210960412 3.6718922227813383e6 0.0
3.6718922227813383e6 540597.6115429227 0.0
0.0 0.0 0.0

-56173.31671366995 1.7021294763531622e6 0.0
1.7021294763531622e6 -628641.2123395585 0.0
0.0 0.0 0.0

-161377.04295850443 1.6207590132060377e6 0.0
1.6207590132060377e6 -278687.0176996628 0.0
0.0 0.0 0.0

-181242.61819208608 53131.08529934984 0.0
53131.08529934984 353199.32472391584 0.0
0.0 0.0 0.0

-301328.9297976449 2.0309570510439542e6 0.0
2.0309570510439542e6 126390.6046376702 0.0
0.0 0.0 0.0

-129673.57812094128 1.3090636467215202e6 0.0
1.3090636467215202e6 -409642.0925520523 0.0
0.0 0.0 0.0

-158881.16760763037 1.913713171284863e6 0.0
1.913713171284863e6 -267028.07763137703 0.0
0.0 0.0 0.0

-2.1313112375185103e6 2.1197482214591615e6 0.0
2.1197482214591615e6 839819.0097566948 0.0
0.0 0.0 0.0

-2.457813839140948e6 303263.8480179838 0.0
303263.8480179838 1.6662822186399084e6 0.0
0.0 0.0 0.0

-763792.0193783795 5.108700802478276e6 0.0
5.108700802478276e6 376275.721283874 0.0
0.0 0.0 0.0

-2.086355583131684e6 2.111210150367847e6 0.0
2.111210150367847e6 766282.5838864198 0.0
0.0 0.0 0.0

-529102.2775870746 6.420887944778914e6 0.0
6.420887944778914e6 825640.1759772054 0.0
0.0 0.0 0.0

104547.1796712401 1.4883087223783184e6 0.0
1.4883087223783184e6 -873231.9313463384 0.0
0.0 0.0 0.0

-111625.80873956115 1.5620150354360812e6 0.0
1.5620150354360812e6 -665897.5822426996 0.0
0.0 0.0 0.0

-317831.40211265703 1.7071333904707415e6 0.0
1.7071333904707415e6 95819.94510834238 0.0
0.0 0.0 0.0

-55417.71942198498 164478.31611662908 0.0
164478.31611662908 23477.34115909538 0.0
0.0 0.0 0.0

-334973.34954200767 1.792399032006732e6 0.0
1.792399032006732e6 -47209.37562669289 0.0
0.0 0.0 0.0

-140216.01203719794 1.4616498376095167e6 0.0
1.4616498376095167e6 -125540.5567970888 0.0
0.0 0.0 0.0

-518354.82532724424 3.195884898975525e6 0.0
3.195884898975525e6 359400.55270988576 0.0
0.0 0.0 0.0

-1.1738772591726242e6 5.305252229240868e6 0.0
5.305252229240868e6 818814.6015496012 0.0
0.0 0.0 0.0

-379649.9397316468 2.933686870443037e6 0.0
2.933686870443037e6 100214.84121262815 0.0
0.0 0.0 0.0

-352796.59456660546 2.275970337105183e6 0.0
2.275970337105183e6 -150525.02421086718 0.0
0.0 0.0 0.0

1.523209636515926e6 568485.2422888526 0.0
568485.2422888526 -1.8202192460299947e6 0.0
0.0 0.0 0.0

-396475.8687639567 1.5334629993621584e6 0.0
1.5334629993621584e6 117852.26065600608 0.0
0.0 0.0 0.0

-317908.110414248 1.354220595404325e6 0.0
1.354220595404325e6 -146937.7746074891 0.0
0.0 0.0 0.0

-159364.0464866878 1.853501488443581e6 0.0
1.853501488443581e6 -95228.78259029526 0.0
0.0 0.0 0.0

246732.81166472915 1.3306958213252644e6 0.0
1.3306958213252644e6 -779902.6336281862 0.0
0.0 0.0 0.0

-258221.8465295647 1.8127086531479307e6 0.0
1.8127086531479307e6 278916.23073686764 0.0
0.0 0.0 0.0

-518699.5624652194 1.3430732792209447e6 0.0
1.3430732792209447e6 1.6618909881459489e6 0.0
0.0 0.0 0.0

-57935.34639472245 1.9953129752291301e6 0.0
1.9953129752291301e6 -463993.3969672793 0.0
0.0 0.0 0.0

-296536.55165233964 3.41431513255027e6 0.0
3.41431513255027e6 444897.06127249135 0.0
0.0 0.0 0.0

-361903.5744565081 1.455390072251033e6 0.0
1.455390072251033e6 206785.23223355704 0.0
0.0 0.0 0.0

-1.5603981454588263e6 -342847.5861354225 0.0
-342847.5861354225 1.9948113291440895e6 0.0
0.0 0.0 0.0

39319.98822911451 1.0651975463321705e6 0.0
1.0651975463321705e6 -131304.66421894118 0.0
0.0 0.0 0.0

24175.981454245688 2.0668287234793003e6 0.0
2.0668287234793003e6 -434255.7927266263 0.0
0.0 0.0 0.0

-347546.7725250516 1.7450854258819083e6 0.0
1.7450854258819083e6 83240.8228370373 0.0
0.0 0.0 0.0

-231577.5393221903 1.0146170781594735e6 0.0
1.0146170781594735e6 227701.8351823508 0.0
0.0 0.0 0.0

-6002.832994307129 1.6684514477896164e6 0.0
1.6684514477896164e6 -550309.756642198 0.0
0.0 0.0 0.0

-1.0664924900289604e6 2.378212245684248e6 0.0
2.378212245684248e6 268894.0925712985 0.0
0.0 0.0 0.0

-1.305318861150376e6 4.253440382522501e6 0.0
4.253440382522501e6 562682.9032015746 0.0
0.0 0.0 0.0

-464934.19365766936 1.358064871238404e6 0.0
1.358064871238404e6 15091.092433196085 0.0
0.0 0.0 0.0

11757.228830042586 1.9002175687391292e6 0.0
1.9002175687391292e6 -653208.3641175973 0.0
0.0 0.0 0.0

-1.09647512053261e6 3.7057458985527065e6 0.0
3.7057458985527065e6 407938.8713248277 0.0
0.0 0.0 0.0

-423927.19085041725 3.2767075494701588e6 0.0
3.2767075494701588e6 409317.6640089118 0.0
0.0 0.0 0.0

-45145.22169465723 1.6109771249685904e6 0.0
1.6109771249685904e6 1.2250332977806781e6 0.0
0.0 0.0 0.0

-353695.97316309373 1.2322920289832512e6 0.0
1.2322920289832512e6 52182.897915725116 0.0
0.0 0.0 0.0

-518220.79608038 1.673601012890526e6 0.0
1.673601012890526e6 108921.76036750848 0.0
0.0 0.0 0.0

-551266.9060609532 -241664.44859431888 0.0
-241664.44859431888 725395.4621571047 0.0
0.0 0.0 0.0

-1.2583692407089446e6 4.1739190857770713e6 0.0
4.1739190857770713e6 569253.269815072 0.0
0.0 0.0 0.0

1.5346656868966036e6 563648.1120892277 0.0
563648.1120892277 -1.8490626733218622e6 0.0
0.0 0.0 0.0

-825522.382473501 4.393078756149677e6 0.0
4.393078756149677e6 476488.0431535305 0.0
0.0 0.0 0.0

-221071.22765745467 -222848.3557785312 0.0
-222848.3557785312 256566.77611324927 0.0
0.0 0.0 0.0

-113053.49382821015 1.2230473789844161e6 0.0
1.2230473789844161e6 -434217.84855350753 0.0
0.0 0.0 0.0

-328478.8516309486 1.7079733420240686e6 0.0
1.7079733420240686e6 11969.709443862826 0.0
0.0 0.0 0.0

-88666.8347636362 2.207201178058684e6 0.0
2.207201178058684e6 -291075.50506144913 0.0
0.0 0.0 0.0

-218489.65063000502 2.1074605136503237e6 0.0
2.1074605136503237e6 -268282.1785690071 0.0
0.0 0.0 0.0

-75235.02235499368 1.4684045726001887e6 0.0
1.4684045726001887e6 -487830.24553837447 0.0
0.0 0.0 0.0

-323654.26092083927 180302.50813152373 0.0
180302.50813152373 329480.70187582565 0.0
0.0 0.0 0.0

-230238.54256436345 1.409337780704263e6 0.0
1.409337780704263e6 92586.25134262747 0.0
0.0 0.0 0.0

714912.7552511179 653384.6759261105 0.0
653384.6759261105 -1.110769468284517e6 0.0
0.0 0.0 0.0

105511.86835427249 1.643499135333199e6 0.0
1.643499135333199e6 691465.3117631888 0.0
0.0 0.0 0.0

391279.0927535752 2.2996677379501546e6 0.0
2.2996677379501546e6 -669437.683274693 0.0
0.0 0.0 0.0

-196554.40354451214 860140.5539008799 0.0
860140.5539008799 87607.88281700629 0.0
0.0 0.0 0.0

-1.0680578234567698e6 2.6905428746269834e6 0.0
2.6905428746269834e6 296421.08768141596 0.0
0.0 0.0 0.0

-515674.9972706043 1.7938132397319665e6 0.0
1.7938132397319665e6 -16320.749843081634 0.0
0.0 0.0 0.0

-319104.1725873917 2.691035190907766e6 0.0
2.691035190907766e6 89438.06526127514 0.0
0.0 0.0 0.0

-312474.76134264446 2.3723201813749787e6 0.0
2.3723201813749787e6 -157143.96886410192 0.0
0.0 0.0 0.0

-356816.9112205182 1.5923832347981422e6 0.0
1.5923832347981422e6 108990.56602449107 0.0
0.0 0.0 0.0

-371696.2820501958 1.5423292340897701e6 0.0
1.5423292340897701e6 345715.98030082457 0.0
0.0 0.0 0.0

-726023.4674243672 1.2708838177649146e6 0.0
1.2708838177649146e6 1.549542858298871e6 0.0
0.0 0.0 0.0

-42607.66248289982 1.1451484824100556e6 0.0
1.1451484824100556e6 -574243.4119881593 0.0
0.0 0.0 0.0

-162234.70873097843 2.0939222393995596e6 0.0
2.0939222393995596e6 -562193.0387089887 0.0
0.0 0.0 0.0

-160296.1852683142 2.0628308268356135e6 0.0
2.0628308268356135e6 157745.57435669407 0.0
0.0 0.0 0.0

764653.2281394084 826995.58537011 0.0
826995.58537011 -1.244430691511334e6 0.0
0.0 0.0 0.0

-103741.94110442376 2.2486807608928094e6 0.0
2.2486807608928094e6 -33121.07812095052 0.0
0.0 0.0 0.0

-1.3440998726674817e6 4.333556887901005e6 0.0
4.333556887901005e6 592021.0894881117 0.0
0.0 0.0 0.0

143458.5767021489 1.6897089301855948e6 0.0
1.6897089301855948e6 218544.5307986649 0.0
0.0 0.0 0.0

457047.3990613193 2.0823675209006036e6 0.0
2.0823675209006036e6 1.5234771279336726e6 0.0
0.0 0.0 0.0

-158177.3536071884 3.382489662528433e6 0.0
3.382489662528433e6 -527257.0050595382 0.0
0.0 0.0 0.0

-321515.5120882588 1.5121983500338262e6 0.0
1.5121983500338262e6 -184336.58373090488 0.0
0.0 0.0 0.0

-2.1300767881147866e6 1.4270732655631297e6 0.0
1.4270732655631297e6 1.1092906067084603e6 0.0
0.0 0.0 0.0

-934602.8154892942 4.149008457236997e6 0.0
4.149008457236997e6 398981.0941689147 0.0
0.0 0.0 0.0

-133144.61539943004 2.207550358724536e6 0.0
2.207550358724536e6 -2712.319267797109 0.0
0.0 0.0 0.0

59478.92098285261 1.582161284205573e6 0.0
1.582161284205573e6 608662.6198658148 0.0
0.0 0.0 0.0

-80127.03723646491 1.7094265698259484e6 0.0
1.7094265698259484e6 1.8243746515109274e6 0.0
0.0 0.0 0.0

-222810.88983452533 2.0868673794499065e6 0.0
2.0868673794499065e6 376737.17545460956 0.0
0.0 0.0 0.0

-56648.0637479953 1.4266262771986553e6 0.0
1.4266262771986553e6 605070.235545545 0.0
0.0 0.0 0.0

-385729.33495849627 3.3867860910217403e6 0.0
3.3867860910217403e6 401732.0495627178 0.0
0.0 0.0 0.0

135399.3470682887 2.1993939670869643e6 0.0
2.1993939670869643e6 -157302.20278323023 0.0
0.0 0.0 0.0

-127699.70791402237 2.123406029231913e6 0.0
2.123406029231913e6 245108.1065931879 0.0
0.0 0.0 0.0

-736758.5099368687 5.224904498362463e6 0.0
5.224904498362463e6 440208.4870535268 0.0
0.0 0.0 0.0

-181453.98658518275 1.6456698513494888e6 0.0
1.6456698513494888e6 355308.03561392694 0.0
0.0 0.0 0.0

1.4410281726703402e6 543390.832465776 0.0
543390.832465776 -1.6459068706010457e6 0.0
0.0 0.0 0.0

-9652.133681898842 419372.48413545813 0.0
419372.48413545813 -196477.27746326473 0.0
0.0 0.0 0.0

-121701.80890801924 -238627.43067995517 0.0
-238627.43067995517 74903.89350899795 0.0
0.0 0.0 0.0

-499091.8307841896 1.1646311479380038e6 0.0
1.1646311479380038e6 438503.6291596914 0.0
0.0 0.0 0.0

-1.0037309072368711e6 4.469161740100146e6 0.0
4.469161740100146e6 500883.02161127154 0.0
0.0 0.0 0.0

327968.68322036526 1.9690931414440137e6 0.0
1.9690931414440137e6 221008.05398524518 0.0
0.0 0.0 0.0

105544.32465414231 1.5004503126984704e6 0.0
1.5004503126984704e6 -70016.49356270472 0.0
0.0 0.0 0.0

-572058.2887832172 1.6560341292072425e6 0.0
1.6560341292072425e6 156893.80692866282 0.0
0.0 0.0 0.0

616122.1430519728 312936.0554573963 0.0
312936.0554573963 -794936.5417777915 0.0
0.0 0.0 0.0

-917509.6923957125 4.489584972886101e6 0.0
4.489584972886101e6 449393.54358957906 0.0
0.0 0.0 0.0

154509.95044825092 1.0852711879358427e6 0.0
1.0852711879358427e6 -613144.2245554818 0.0
0.0 0.0 0.0

-361954.4665064617 1.777529820716828e6 0.0
1.777529820716828e6 18020.41688984401 0.0
0.0 0.0 0.0

-365004.1367760188 3.8545336239919076e6 0.0
3.8545336239919076e6 595837.3355133676 0.0
0.0 0.0 0.0

-299538.65803569485 1.8489782413811195e6 0.0
1.8489782413811195e6 -93553.40322292678 0.0
0.0 0.0 0.0

1.3399099603285692e6 615015.7512470224 0.0
615015.7512470224 -1.7255743923170345e6 0.0
0.0 0.0 0.0

-232207.0713143609 2.692841516100238e6 0.0
2.692841516100238e6 -55678.29608629595 0.0
0.0 0.0 0.0

-539354.2147333303 4.51978380285036e6 0.0
4.51978380285036e6 569867.3494376875 0.0
0.0 0.0 0.0

-459655.06401504856 3.4704935108630643e6 0.0
3.4704935108630643e6 642106.6065804354 0.0
0.0 0.0 0.0

-76266.31030732616 1.3924924656182353e6 0.0
1.3924924656182353e6 -414256.2853811526 0.0
0.0 0.0 0.0

1.1615912203881417e6 517215.0202786967 0.0
517215.0202786967 -1.467275144538668e6 0.0
0.0 0.0 0.0

-395715.8812513885 1.2749311599869588e6 0.0
1.2749311599869588e6 17484.345976317476 0.0
0.0 0.0 0.0

258087.4583972618 1.224745741664295e6 0.0
1.224745741664295e6 -1.0761023490386065e6 0.0
0.0 0.0 0.0

-343433.0475686265 -304311.8827763567 0.0
-304311.8827763567 350682.9368839697 0.0
0.0 0.0 0.0

-168059.2687363574 775106.0167434288 0.0
775106.0167434288 161353.30068541362 0.0
0.0 0.0 0.0

-506416.2401720424 1.5571530932819792e6 0.0
1.5571530932819792e6 8762.51650143112 0.0
0.0 0.0 0.0

1.111363232399846e6 1.154803533684738e6 0.0
1.154803533684738e6 -1.3425317459995518e6 0.0
0.0 0.0 0.0

-5.08681270052463e6 414436.1566950254 0.0
414436.1566950254 4.897734335239625e6 0.0
0.0 0.0 0.0

47658.90537039926 1.940509507683094e6 0.0
1.940509507683094e6 350508.67332477856 0.0
0.0 0.0 0.0

-884863.8850378026 1.4630814958611329e6 0.0
1.4630814958611329e6 2.383681020971883e6 0.0
0.0 0.0 0.0

-613583.9232864059 1.9479965344897916e6 0.0
1.9479965344897916e6 -55910.88490315949 0.0
0.0 0.0 0.0

-196129.95012997364 805686.9548709154 0.0
805686.9548709154 1024.7238609876513 0.0
0.0 0.0 0.0

-97283.78760762517 1.4244809947089974e6 0.0
1.4244809947089974e6 -384647.06332021335 0.0
0.0 0.0 0.0

-132034.09133631975 2.034879595216404e6 0.0
2.034879595216404e6 -656779.6618582665 0.0
0.0 0.0 0.0

928865.7117186364 866667.2727686396 0.0
866667.2727686396 -1.521817190592389e6 0.0
0.0 0.0 0.0

-181067.0973165064 -255992.58411181156 0.0
-255992.58411181156 163834.27594443402 0.0
0.0 0.0 0.0

-742582.0993948668 -397090.7122466127 0.0
-397090.7122466127 917276.5525135732 0.0
0.0 0.0 0.0

-302852.7329958808 1.7820417209398644e6 0.0
1.7820417209398644e6 -31545.421939276748 0.0
0.0 0.0 0.0

-290328.6296499923 2.6228943619093187e6 0.0
2.6228943619093187e6 5541.88347953491 0.0
0.0 0.0 0.0

-964269.842854652 1.4663957606481418e6 0.0
1.4663957606481418e6 2.5772692400612454e6 0.0
0.0 0.0 0.0

-112345.94542916036 1.4478450111772285e6 0.0
1.4478450111772285e6 -348403.4200870287 0.0
0.0 0.0 0.0

-350428.79657123756 3.2509646718964563e6 0.0
3.2509646718964563e6 247244.8367912408 0.0
0.0 0.0 0.0

-439979.0309997147 1.3920753189356418e6 0.0
1.3920753189356418e6 103651.54889829687 0.0
0.0 0.0 0.0

93087.07487589114 -81101.70397720381 0.0
-81101.70397720381 -226764.30021612294 0.0
0.0 0.0 0.0

-756650.7375684236 5.781660010880809e6 0.0
5.781660010880809e6 919616.4778428045 0.0
0.0 0.0 0.0

-280668.34413327684 1.975099514427972e6 0.0
1.975099514427972e6 -251734.07546763372 0.0
0.0 0.0 0.0

406507.3718308807 1.374744379263342e6 0.0
1.374744379263342e6 -999697.5635876136 0.0
0.0 0.0 0.0

1.491635898764537e6 597221.7557144947 0.0
597221.7557144947 -1.841065803021212e6 0.0
0.0 0.0 0.0

33002.458387902356 2.1535675652960907e6 0.0
2.1535675652960907e6 -343021.0770667419 0.0
0.0 0.0 0.0

-147878.3276504958 629868.9134088603 0.0
629868.9134088603 115242.10737441509 0.0
0.0 0.0 0.0

-1.3714399359042586e6 451378.42389833246 0.0
451378.42389833246 1.184549914737097e6 0.0
0.0 0.0 0.0

-253665.0974706607 2.315538927682283e6 0.0
2.315538927682283e6 -154597.18549605634 0.0
0.0 0.0 0.0

39173.423617068176 1.3741242832030698e6 0.0
1.3741242832030698e6 200212.32340561892 0.0
0.0 0.0 0.0

-69479.87290187294 1.2681200835367856e6 0.0
1.2681200835367856e6 -468343.9112072645 0.0
0.0 0.0 0.0

187610.73604999058 -29074.48533196271 0.0
-29074.48533196271 -142650.83337733944 0.0
0.0 0.0 0.0

-616946.5085770293 3.1602486988077317e6 0.0
3.1602486988077317e6 409358.7834170974 0.0
0.0 0.0 0.0

-81102.68019675094 2.30349693783162e6 0.0
2.30349693783162e6 -279042.74654575746 0.0
0.0 0.0 0.0

-11119.629717588889 2.342112004451683e6 0.0
2.342112004451683e6 -65516.9050464427 0.0
0.0 0.0 0.0

-261938.7569474899 2.237312688548156e6 0.0
2.237312688548156e6 -336713.3335473295 0.0
0.0 0.0 0.0

-101967.63583200326 1.6813993896061275e6 0.0
1.6813993896061275e6 849195.0074829621 0.0
0.0 0.0 0.0

-180329.78481830546 1.5298311073864782e6 0.0
1.5298311073864782e6 -346827.1070889166 0.0
0.0 0.0 0.0

-268776.04429610114 2.5602341484378437e6 0.0
2.5602341484378437e6 -41792.637495564566 0.0
0.0 0.0 0.0

-337006.9260174691 2.4917155152389784e6 0.0
2.4917155152389784e6 -135230.38878416293 0.0
0.0 0.0 0.0

132259.3169265263 1.3696007368406022e6 0.0
1.3696007368406022e6 -1.0579705532006384e6 0.0
0.0 0.0 0.0

-419884.63535565574 1.0215391695338524e6 0.0
1.0215391695338524e6 328994.3434539187 0.0
0.0 0.0 0.0

-557346.7734583749 3.3876036691477126e6 0.0
3.3876036691477126e6 285758.5103192639 0.0
0.0 0.0 0.0

-1.3715372098779515e6 1.0644580144482725e6 0.0
1.0644580144482725e6 -194270.567428622 0.0
0.0 0.0 0.0

-293616.416094532 1.8517936265197326e6 0.0
1.8517936265197326e6 2.683403723472393e6 0.0
0.0 0.0 0.0

1.5095989444767507e6 566308.210999829 0.0
566308.210999829 -1.8089435648609465e6 0.0
0.0 0.0 0.0

-639808.27741381 -359538.07573623385 0.0
-359538.07573623385 764411.9524552671 0.0
0.0 0.0 0.0

459970.5838600163 1.1720972614317883e6 0.0
1.1720972614317883e6 -1.0309437380606033e6 0.0
0.0 0.0 0.0

135683.9486157545 1.4087669718116985e6 0.0
1.4087669718116985e6 -799991.7369895577 0.0
0.0 0.0 0.0

-167211.74480420578 2.175617620474805e6 0.0
2.175617620474805e6 -296024.5143333094 0.0
0.0 0.0 0.0

-637087.5925135843 1.7545735090260543e6 0.0
1.7545735090260543e6 124281.81898108547 0.0
0.0 0.0 0.0

-1.4578365014763917e6 630960.9712527877 0.0
630960.9712527877 1.3703907699691681e6 0.0
0.0 0.0 0.0

-234968.17384759968 2.5050869863411193e6 0.0
2.5050869863411193e6 -90737.03132616228 0.0
0.0 0.0 0.0

-1.8773852663202751e6 -589505.9966054843 0.0
-589505.9966054843 2.457440092696936e6 0.0
0.0 0.0 0.0

-94164.59796941713 475688.2737956607 0.0
475688.2737956607 27432.027453482915 0.0
0.0 0.0 0.0

1.1375952797514866e6 838551.6789891485 0.0
838551.6789891485 -1.5803138445447008e6 0.0
0.0 0.0 0.0

-1.0754833141573197e6 2.70702770406515e6 0.0
2.70702770406515e6 321785.2370738457 0.0
0.0 0.0 0.0

1.2210816582638388e6 639224.9644885452 0.0
639224.9644885452 -1.6728532477518562e6 0.0
0.0 0.0 0.0

-2.401265056417905e6 2.0982335172065967e6 0.0
2.0982335172065967e6 1.3580740387777677e6 0.0
0.0 0.0 0.0

-1.9705178139468723e6 -617332.5830825671 0.0
-617332.5830825671 2.6646749357094206e6 0.0
0.0 0.0 0.0

267492.6721197076 1.3186455605050542e6 0.0
1.3186455605050542e6 -830350.7833036582 0.0
0.0 0.0 0.0

-390513.7808394432 1.7285352021780177e6 0.0
1.7285352021780177e6 -20153.942201990212 0.0
0.0 0.0 0.0

-3.0060006027681106e6 211541.59487374418 0.0
211541.59487374418 631131.0332922165 0.0
0.0 0.0 0.0

1.20497344405238e6 725156.205139489 0.0
725156.205139489 -1.7150303325167822e6 0.0
0.0 0.0 0.0

-553746.3976652162 1.690193494858462e6 0.0
1.690193494858462e6 83286.62230932718 0.0
0.0 0.0 0.0

-254993.70433135744 1.1468557957684067e6 0.0
1.1468557957684067e6 301828.2117320362 0.0
0.0 0.0 0.0

-234459.52249247557 3.5443523561226125e6 0.0
3.5443523561226125e6 822665.6450774295 0.0
0.0 0.0 0.0

-13527.916502747335 1.509670110091451e6 0.0
1.509670110091451e6 -668892.4249758411 0.0
0.0 0.0 0.0

43944.71982140513 1.3831703181016385e6 0.0
1.3831703181016385e6 -779266.6704096217 0.0
0.0 0.0 0.0

-575244.3386302512 3.4152840604318706e6 0.0
3.4152840604318706e6 553934.6411352342 0.0
0.0 0.0 0.0

-1.1186808655503853e6 2.681077572377362e6 0.0
2.681077572377362e6 344432.28695849655 0.0
0.0 0.0 0.0

-213056.29850248297 112840.81439939588 0.0
112840.81439939588 401220.99444944214 0.0
0.0 0.0 0.0

1.2870841830623508e6 621255.6441909637 0.0
621255.6441909637 -1.6926678264953871e6 0.0
0.0 0.0 0.0

-1.0111950550412182e6 1.6297267384279491e6 0.0
1.6297267384279491e6 295220.8234158875 0.0
0.0 0.0 0.0

826524.2010425844 451355.0939443865 0.0
451355.0939443865 -1.164926307020673e6 0.0
0.0 0.0 0.0

-62831.83454721609 1.4181092372852794e6 0.0
1.4181092372852794e6 -470150.2014910399 0.0
0.0 0.0 0.0

1.2398511176338256e6 646020.6895119117 0.0
646020.6895119117 -1.6406185434807958e6 0.0
0.0 0.0 0.0

-9224.294833211286 1.3091914265949042e6 0.0
1.3091914265949042e6 -700162.1530992496 0.0
0.0 0.0 0.0

-1.1446944930685244e6 -52043.79267843599 0.0
-52043.79267843599 1.1236139400738901e6 0.0
0.0 0.0 0.0

-544405.9759100245 -266358.3825728017 0.0
-266358.3825728017 661705.0796139592 0.0
0.0 0.0 0.0

-179674.5464183794 1.2896786923326568e6 0.0
1.2896786923326568e6 -269058.27376344264 0.0
0.0 0.0 0.0

135310.8370887459 1.71737736512488e6 0.0
1.71737736512488e6 258787.9384779159 0.0
0.0 0.0 0.0

1.5211870497933277e6 568402.9692577455 0.0
568402.9692577455 -1.854018871450819e6 0.0
0.0 0.0 0.0

-324445.9758163679 1.572568628759203e6 0.0
1.572568628759203e6 121951.39290420915 0.0
0.0 0.0 0.0

-117414.0179421076 -163002.00320593387 0.0
-163002.00320593387 99161.20975337825 0.0
0.0 0.0 0.0

-143056.30871256557 1.6720986151127436e6 0.0
1.6720986151127436e6 -262498.7908379265 0.0
0.0 0.0 0.0

55696.53375834692 1.545499989937526e6 0.0
1.545499989937526e6 -975885.129240017 0.0
0.0 0.0 0.0

-409663.6348079849 1.4803545816104184e6 0.0
1.4803545816104184e6 425224.275695513 0.0
0.0 0.0 0.0

-139274.867846991 1.5767320230302776e6 0.0
1.5767320230302776e6 1.3749608897868213e6 0.0
0.0 0.0 0.0

-56411.270014033595 2.1019451307366905e6 0.0
2.1019451307366905e6 -436305.04133243405 0.0
0.0 0.0 0.0

-467836.4329998421 3.3704944956354634e6 0.0
3.3704944956354634e6 625418.9717964575 0.0
0.0 0.0 0.0

-555070.8951356852 1.5778161533405003e6 0.0
1.5778161533405003e6 117745.58898550546 0.0
0.0 0.0 0.0

-47682.175835171896 2.2379111184690264e6 0.0
2.2379111184690264e6 -291557.9168213919 0.0
0.0 0.0 0.0

993435.4437975468 775735.6822402925 0.0
775735.6822402925 -801716.7400997763 0.0
0.0 0.0 0.0

-1.666688188088892e6 -498720.20029425184 0.0
-498720.20029425184 2.088087854329904e6 0.0
0.0 0.0 0.0

-406983.3939189033 2.02031935357436e6 0.0
2.02031935357436e6 503874.7935449849 0.0
0.0 0.0 0.0

-867144.6485681845 -400454.8600226037 0.0
-400454.8600226037 1.0952121580808717e6 0.0
0.0 0.0 0.0

-135961.94847642444 2.2129764808101906e6 0.0
2.2129764808101906e6 -290192.76010919013 0.0
0.0 0.0 0.0

-3.7570706830905266e6 219930.42312217696 0.0
219930.42312217696 3.5835991520090587e6 0.0
0.0 0.0 0.0

-178391.52182315965 1.1429600455491517e6 0.0
1.1429600455491517e6 -239008.76806686132 0.0
0.0 0.0 0.0

-811048.3402154977 -343387.56592638843 0.0
-343387.56592638843 771661.8300814764 0.0
0.0 0.0 0.0

-904187.7886974631 -461128.9945964324 0.0
-461128.9945964324 793197.0746080478 0.0
0.0 0.0 0.0

-237989.3947841715 2.4393720612733387e6 0.0
2.4393720612733387e6 -123897.74815738114 0.0
0.0 0.0 0.0

-345024.45439408056 1.8167150698383742e6 0.0
1.8167150698383742e6 -188780.33939539734 0.0
0.0 0.0 0.0

-215710.4676419174 2.4691400614941637e6 0.0
2.4691400614941637e6 -134242.6122763936 0.0
0.0 0.0 0.0

-397988.555045457 91499.25720262695 0.0
91499.25720262695 351333.53265815694 0.0
0.0 0.0 0.0

-65895.12853197502 1.3446818124682265e6 0.0
1.3446818124682265e6 -462594.7661254372 0.0
0.0 0.0 0.0

220091.2311630546 1.2584169209069735e6 0.0
1.2584169209069735e6 -1.05005817500951e6 0.0
0.0 0.0 0.0

-312421.3584819457 1.624738195252516e6 0.0
1.624738195252516e6 138612.5555163123 0.0
0.0 0.0 0.0

-565.6977388155065 1.6341574285342165e6 0.0
1.6341574285342165e6 -920261.057418118 0.0
0.0 0.0 0.0

-3.0423012023189436e6 1.1339292461713802e6 0.0
1.1339292461713802e6 1.0009426712868637e6 0.0
0.0 0.0 0.0

-216640.83370013617 2.1570284404357723e6 0.0
2.1570284404357723e6 -420205.6839086493 0.0
0.0 0.0 0.0

-1.3657526087838318e6 2.479769247085611e6 0.0
2.479769247085611e6 403972.9284978957 0.0
0.0 0.0 0.0

-123360.71726153367 1.554410517392428e6 0.0
1.554410517392428e6 -260393.93322186242 0.0
0.0 0.0 0.0

-660536.1709652775 934981.4060172029 0.0
934981.4060172029 681742.303692871 0.0
0.0 0.0 0.0

-125503.86844919488 2.18472216706871e6 0.0
2.18472216706871e6 74588.41373889215 0.0
0.0 0.0 0.0

-589173.1159241636 6.0679120569599625e6 0.0
6.0679120569599625e6 312753.4399438676 0.0
0.0 0.0 0.0

-467839.99430101685 -341306.06572053407 0.0
-341306.06572053407 553844.1840458357 0.0
0.0 0.0 0.0

1.5070047720292176e6 566282.98718684 0.0
566282.98718684 -1.833401198040111e6 0.0
0.0 0.0 0.0

-602481.4226192752 3.944595580355716e6 0.0
3.944595580355716e6 601592.5277161926 0.0
0.0 0.0 0.0

61496.36744025609 -144140.46110218327 0.0
-144140.46110218327 -102239.33418529698 0.0
0.0 0.0 0.0

1.3681771764414813e6 591462.9824320377 0.0
591462.9824320377 -1.7392476779153878e6 0.0
0.0 0.0 0.0

-1.4515794751476524e6 -474610.83449573885 0.0
-474610.83449573885 1.8516335464975832e6 0.0
0.0 0.0 0.0

-5345.894282361194 -170501.78578358854 0.0
-170501.78578358854 -124167.19094645859 0.0
0.0 0.0 0.0

-99394.18912830768 1.3284529005470325e6 0.0
1.3284529005470325e6 -378788.17596805235 0.0
0.0 0.0 0.0

-552307.542600961 -346765.2725065824 0.0
-346765.2725065824 667809.3802811413 0.0
0.0 0.0 0.0

1.5155689339906848e6 580741.5386770879 0.0
580741.5386770879 -1.8475680214110794e6 0.0
0.0 0.0 0.0

1.399206830368334e6 599999.7595049512 0.0
599999.7595049512 -1.7583815897020386e6 0.0
0.0 0.0 0.0

-1.2744366088652948e6 -467495.8267600137 0.0
-467495.8267600137 1.664099017374562e6 0.0
0.0 0.0 0.0

-175370.8421422704 2.062930957240616e6 0.0
2.062930957240616e6 53728.57273734006 0.0
0.0 0.0 0.0

-227212.13264931846 2.35795220821209e6 0.0
2.35795220821209e6 -166550.4732153663 0.0
0.0 0.0 0.0

-615122.9625181924 1.606539203919061e6 0.0
1.606539203919061e6 164999.29660473144 0.0
0.0 0.0 0.0

1.4239078819271117e6 595598.7565640304 0.0
595598.7565640304 -1.787109574365052e6 0.0
0.0 0.0 0.0

-1.1298227914862419e6 -464264.64123700926 0.0
-464264.64123700926 1.4630025485619954e6 0.0
0.0 0.0 0.0

-118994.0436479047 1.4847774449898922e6 0.0
1.4847774449898922e6 -327031.8190066607 0.0
0.0 0.0 0.0

57247.76632136849 1.7651255055723616e6 0.0
1.7651255055723616e6 -719499.806178082 0.0
0.0 0.0 0.0

-927797.2470595945 4.2382420368252685e6 0.0
4.2382420368252685e6 440695.6446520038 0.0
0.0 0.0 0.0

-580850.2479201412 2.213725831488495e6 0.0
2.213725831488495e6 -43880.57082595222 0.0
0.0 0.0 0.0

-787510.4736293759 1.3136704506639354e6 0.0
1.3136704506639354e6 1.8651801611793442e6 0.0
0.0 0.0 0.0

-982360.391963168 -435646.50620349206 0.0
-435646.50620349206 1.2256817571105058e6 0.0
0.0 0.0 0.0

1.4323337506129446e6 590608.6762844204 0.0
590608.6762844204 -1.7908415843333201e6 0.0
0.0 0.0 0.0

-478385.3899441028 4.467187628763448e6 0.0
4.467187628763448e6 500634.8629425549 0.0
0.0 0.0 0.0

-771256.8624301237 1.5371561775050291e6 0.0
1.5371561775050291e6 2.4698439507300165e6 0.0
0.0 0.0 0.0

965033.9005868424 6.2918381787439e6 0.0
6.2918381787439e6 -2.2128554918811824e6 0.0
0.0 0.0 0.0

-332075.290197787 2.917513102878128e6 0.0
2.917513102878128e6 116004.32178444888 0.0
0.0 0.0 0.0

-1.0754013497970751e6 2.215692178544672e6 0.0
2.215692178544672e6 217686.78232000774 0.0
0.0 0.0 0.0

-71594.18834141924 -70467.61526430325 0.0
-70467.61526430325 90946.039974137 0.0
0.0 0.0 0.0

-702697.3910734142 1.7168132632408775e6 0.0
1.7168132632408775e6 171029.1282748849 0.0
0.0 0.0 0.0

310451.8988705728 316843.1240377299 0.0
316843.1240377299 -705882.2195226623 0.0
0.0 0.0 0.0

-264486.6982396163 3.9201497900394765e6 0.0
3.9201497900394765e6 564555.9265795805 0.0
0.0 0.0 0.0

-351561.8790214031 3.2514484600524227e6 0.0
3.2514484600524227e6 448822.14840989385 0.0
0.0 0.0 0.0

-118336.65009744394 611287.8869481422 0.0
611287.8869481422 -135790.62673786678 0.0
0.0 0.0 0.0

-68579.76118111506 2.2145735897019845e6 0.0
2.2145735897019845e6 -272353.2149639778 0.0
0.0 0.0 0.0

-2.3931791945703253e6 -804722.7861436984 0.0
-804722.7861436984 2.5528365355216307e6 0.0
0.0 0.0 0.0

-316494.27767914586 -641937.6956421969 0.0
-641937.6956421969 640525.689184276 0.0
0.0 0.0 0.0

-62175.55888518118 -2806.039728839147 0.0
-2806.039728839147 41746.23829200355 0.0
0.0 0.0 0.0

588246.4868276413 84569.70353688899 0.0
84569.70353688899 -516806.03047005396 0.0
0.0 0.0 0.0

-341713.08500487544 3.3052567536365185e6 0.0
3.3052567536365185e6 453641.12557453715 0.0
0.0 0.0 0.0

440555.36291412974 1.3475562610033355e6 0.0
1.3475562610033355e6 -959851.1040861692 0.0
0.0 0.0 0.0

-11916.799024310749 1.477948555385876e6 0.0
1.477948555385876e6 772393.3985940784 0.0
0.0 0.0 0.0

-101736.73670100256 2.0670092879844592e6 0.0
2.0670092879844592e6 -39640.48729156087 0.0
0.0 0.0 0.0

1.2552530981636979e6 515705.25326308055 0.0
515705.25326308055 -1.5593573110929849e6 0.0
0.0 0.0 0.0

-25256.91067057666 1.1615502816465625e6 0.0
1.1615502816465625e6 -455347.78534083307 0.0
0.0 0.0 0.0

-166202.02196814047 1.9927244543445725e6 0.0
1.9927244543445725e6 -263419.5385718801 0.0
0.0 0.0 0.0

353870.87040092965 1.0918089755744413e6 0.0
1.0918089755744413e6 -833967.1127119795 0.0
0.0 0.0 0.0

-794997.3517246761 4.440885388160668e6 0.0
4.440885388160668e6 525794.6359197082 0.0
0.0 0.0 0.0

-356053.96582987055 1.2696122644504001e6 0.0
1.2696122644504001e6 853798.9317709693 0.0
0.0 0.0 0.0

-53725.15915656116 1.237568725571704e6 0.0
1.237568725571704e6 -409971.87176403496 0.0
0.0 0.0 0.0

-125149.51223291365 1.7249387975423252e6 0.0
1.7249387975423252e6 -254318.4482349263 0.0
0.0 0.0 0.0

33714.50157727991 1.2012362751066508e6 0.0
1.2012362751066508e6 -734970.1002221337 0.0
0.0 0.0 0.0

-901457.7328779718 1.5163511043518563e6 0.0
1.5163511043518563e6 527575.7620676061 0.0
0.0 0.0 0.0

-832838.0323111229 5.948228494638069e6 0.0
5.948228494638069e6 440189.05888602504 0.0
0.0 0.0 0.0

-697440.7723068104 -338690.30302037526 0.0
-338690.30302037526 671609.97438831 0.0
0.0 0.0 0.0

-630152.6759492923 -263167.53276685206 0.0
-263167.53276685206 628423.5549993232 0.0
0.0 0.0 0.0

-422219.2459021804 1.2634356479176588e6 0.0
1.2634356479176588e6 360140.202116998 0.0
0.0 0.0 0.0

-799706.9101460511 3.9208709166493e6 0.0
3.9208709166493e6 508193.5040019962 0.0
0.0 0.0 0.0

-1.1537633677842182e6 2.3636669244815703e6 0.0
2.3636669244815703e6 270034.1252722131 0.0
0.0 0.0 0.0

-795471.606893751 1.832555454974439e6 0.0
1.832555454974439e6 183243.90375642775 0.0
0.0 0.0 0.0

-108407.14419182154 2.563889516315312e6 0.0
2.563889516315312e6 535326.0421896582 0.0
0.0 0.0 0.0

-254684.5740969738 2.441992124768794e6 0.0
2.441992124768794e6 -121389.41252424191 0.0
0.0 0.0 0.0

-536919.785209545 1.6295923649459272e6 0.0
1.6295923649459272e6 1.9934217524301223e6 0.0
0.0 0.0 0.0

-1.3339839990276282e6 395068.91164847894 0.0
395068.91164847894 -476693.57848713227 0.0
0.0 0.0 0.0

-4.39870108545845e6 1.134817417036126e6 0.0
1.134817417036126e6 6.544108904669459e6 0.0
0.0 0.0 0.0

-128520.63938488287 641413.5950386524 0.0
641413.5950386524 -199111.90714797072 0.0
0.0 0.0 0.0

-166951.97794041003 2.0106148466926622e6 0.0
2.0106148466926622e6 159051.54592285925 0.0
0.0 0.0 0.0

846124.7915440608 445986.7952412993 0.0
445986.7952412993 -1.0849553102652691e6 0.0
0.0 0.0 0.0

-73361.81828701224 524251.7994639356 0.0
524251.7994639356 21464.1697962462 0.0
0.0 0.0 0.0

-128126.86269301332 -131510.08992593802 0.0
-131510.08992593802 202212.98233732575 0.0
0.0 0.0 0.0

-457790.1056922899 2.215910921527982e6 0.0
2.215910921527982e6 536136.1851012796 0.0
0.0 0.0 0.0

297304.9906019574 1.192744680654782e6 0.0
1.192744680654782e6 -901919.8419257235 0.0
0.0 0.0 0.0

1.279149038737806e6 578889.8648404282 0.0
578889.8648404282 -1.5833141315415697e6 0.0
0.0 0.0 0.0

-228276.7450419245 2.300359419146413e6 0.0
2.300359419146413e6 51636.93769973467 0.0
0.0 0.0 0.0

-6.259868700922729e6 -1.294540034760883e6 0.0
-1.294540034760883e6 5.6716582593510505e6 0.0
0.0 0.0 0.0

-605600.8954232594 1.7150299172341945e6 0.0
1.7150299172341945e6 115624.20399452976 0.0
0.0 0.0 0.0

-533601.9717489372 1.4832799238673786e6 0.0
1.4832799238673786e6 -10869.545609247056 0.0
0.0 0.0 0.0

-360310.3469620828 2.989801861557605e6 0.0
2.989801861557605e6 302119.9901455109 0.0
0.0 0.0 0.0

35616.18937655885 -125312.6796247718 0.0
-125312.6796247718 -216335.79326195127 0.0
0.0 0.0 0.0

-72625.05335167442 1.3763387998624523e6 0.0
1.3763387998624523e6 -285019.37808695086 0.0
0.0 0.0 0.0

-223061.85255393403 -263713.3005187905 0.0
-263713.3005187905 238206.03459042707 0.0
0.0 0.0 0.0

-254512.06667764627 2.5434861168083474e6 0.0
2.5434861168083474e6 -87999.6858215947 0.0
0.0 0.0 0.0

-642657.8782588559 2.019741501711917e6 0.0
2.019741501711917e6 70941.28993477704 0.0
0.0 0.0 0.0

1.4645731857668036e6 590268.2903648998 0.0
590268.2903648998 -1.7957142900012974e6 0.0
0.0 0.0 0.0

-188250.89808228376 2.123761377650422e6 0.0
2.123761377650422e6 99940.34219120434 0.0
0.0 0.0 0.0

1.2346240158059413e6 544165.5956604565 0.0
544165.5956604565 -1.4070571602074236e6 0.0
0.0 0.0 0.0

-118408.20000324046 1.8251066294250449e6 0.0
1.8251066294250449e6 -538463.741888254 0.0
0.0 0.0 0.0

-1.1418093071803595e6 1.9238524285389087e6 0.0
1.9238524285389087e6 328344.85569446965 0.0
0.0 0.0 0.0

-50077.39948965481 1.3369412453251244e6 0.0
1.3369412453251244e6 -481046.14290640614 0.0
0.0 0.0 0.0

-545487.760775276 3.1459142740255403e6 0.0
3.1459142740255403e6 470226.33047261776 0.0
0.0 0.0 0.0

-1.0587616405902053e6 2.0392097116461727e6 0.0
2.0392097116461727e6 245545.59086480504 0.0
0.0 0.0 0.0

-537276.9040434326 1.522985230018649e6 0.0
1.522985230018649e6 174552.70032853037 0.0
0.0 0.0 0.0

-689047.1773655048 1.81566142582202e6 0.0
1.81566142582202e6 151821.19423376844 0.0
0.0 0.0 0.0

-1.2243310742937373e6 4.069465080482413e6 0.0
4.069465080482413e6 529143.723728276 0.0
0.0 0.0 0.0

-398012.93904121197 2.899287164108911e6 0.0
2.899287164108911e6 353808.7478992279 0.0
0.0 0.0 0.0

-1.3901646249421095e6 2.402576383806258e6 0.0
2.402576383806258e6 451597.9505996936 0.0
0.0 0.0 0.0

189224.7088250667 171163.04413874395 0.0
171163.04413874395 -758714.4193077534 0.0
0.0 0.0 0.0

-211206.4014446308 1.9790588759925158e6 0.0
1.9790588759925158e6 -443935.161360434 0.0
0.0 0.0 0.0

147207.2900112964 -67792.48997396379 0.0
-67792.48997396379 -223526.1357003475 0.0
0.0 0.0 0.0

-374889.08571213175 1.5914433082340106e6 0.0
1.5914433082340106e6 60822.047654225884 0.0
0.0 0.0 0.0

-1.222734436060016e6 -425426.5461491574 0.0
-425426.5461491574 1.434596129044034e6 0.0
0.0 0.0 0.0

-632150.4904213692 4.824309774895708e6 0.0
4.824309774895708e6 413587.79124319705 0.0
0.0 0.0 0.0

-70020.04659985975 1.8446617394970197e6 0.0
1.8446617394970197e6 -576477.5056573778 0.0
0.0 0.0 0.0

-126479.07894857047 1.617604570380172e6 0.0
1.617604570380172e6 -177194.44943126122 0.0
0.0 0.0 0.0

-597128.6514931428 3.1928740474502705e6 0.0
3.1928740474502705e6 213408.578608808 0.0
0.0 0.0 0.0

296402.1721319839 1.3689483055119088e6 0.0
1.3689483055119088e6 -800614.2432987627 0.0
0.0 0.0 0.0

476285.76866910787 171173.26652547478 0.0
171173.26652547478 -1.306072792844296e6 0.0
0.0 0.0 0.0

-321078.15620095644 3.354933996521934e6 0.0
3.354933996521934e6 452238.1853962116 0.0
0.0 0.0 0.0

-27342.854749539227 2.326696099726672e6 0.0
2.326696099726672e6 -261998.5326001209 0.0
0.0 0.0 0.0

-585326.9378547043 2.582601634440447e6 0.0
2.582601634440447e6 -47159.77089026102 0.0
0.0 0.0 0.0

1.3191955813294635e6 604757.9267602178 0.0
604757.9267602178 -1.7068767143468899e6 0.0
0.0 0.0 0.0

163475.01988436084 3710.5710642169993 0.0
3710.5710642169993 -70806.13950908063 0.0
0.0 0.0 0.0

1.2529266415771828e6 687058.141028231 0.0
687058.141028231 -1.71704501665584e6 0.0
0.0 0.0 0.0

35335.51149468802 -160161.62884273884 0.0
-160161.62884273884 -162679.02585087984 0.0
0.0 0.0 0.0

-740533.7450224254 2.258797364761565e6 0.0
2.258797364761565e6 41053.68846307331 0.0
0.0 0.0 0.0

-37862.27206586175 2.274536837475766e6 0.0
2.274536837475766e6 -253766.42452901375 0.0
0.0 0.0 0.0

-110848.72467709769 1.7114478948938334e6 0.0
1.7114478948938334e6 -251398.86774201895 0.0
0.0 0.0 0.0

-126083.89733800542 636571.1902542472 0.0
636571.1902542472 -187061.0523282228 0.0
0.0 0.0 0.0

-25547.47195257287 -187706.96319766887 0.0
-187706.96319766887 -85325.10278363164 0.0
0.0 0.0 0.0

-327180.8962200015 3.8318125055402005e6 0.0
3.8318125055402005e6 633186.1610412382 0.0
0.0 0.0 0.0

-548738.3870654099 2.3749135626743925e6 0.0
2.3749135626743925e6 459502.0345309664 0.0
0.0 0.0 0.0

386775.1187836545 665471.1447429149 0.0
665471.1447429149 -1.0268980058897985e6 0.0
0.0 0.0 0.0

-61831.88322662073 -160327.41504871618 0.0
-160327.41504871618 75905.42213179493 0.0
0.0 0.0 0.0

-447204.3206388925 1.7085695255115654e6 0.0
1.7085695255115654e6 326118.65833176736 0.0
0.0 0.0 0.0

-4.434598893545455e6 948574.0031000903 0.0
948574.0031000903 6.477274669902565e6 0.0
0.0 0.0 0.0

-522040.692613223 1.9431371131476166e6 0.0
1.9431371131476166e6 461946.56401330896 0.0
0.0 0.0 0.0

459933.8135462534 1.211055097355854e6 0.0
1.211055097355854e6 -1.0073740944239604e6 0.0
0.0 0.0 0.0

-568357.3914219043 1.303697000730894e6 0.0
1.303697000730894e6 1.0838101131866996e6 0.0
0.0 0.0 0.0

127671.76558026687 2.0300471851423823e6 0.0
2.0300471851423823e6 -4425.927316731759 0.0
0.0 0.0 0.0

-216433.55852940376 2.5750597618988496e6 0.0
2.5750597618988496e6 -90539.18749573863 0.0
0.0 0.0 0.0

-112196.28185344134 2.2398953760220986e6 0.0
2.2398953760220986e6 -296722.4306494473 0.0
0.0 0.0 0.0

973235.4444450403 726566.8174954808 0.0
726566.8174954808 -1.5237119183436814e6 0.0
0.0 0.0 0.0

1.0704328430616073e6 699410.4298099854 0.0
699410.4298099854 -1.6030721962449872e6 0.0
0.0 0.0 0.0

-489269.44816353405 3.165932384343442e6 0.0
3.165932384343442e6 255017.29570339058 0.0
0.0 0.0 0.0

-606860.5532475839 419869.06683443935 0.0
419869.06683443935 878459.3528419577 0.0
0.0 0.0 0.0

-304321.33263536287 2.386070346297439e6 0.0
2.386070346297439e6 -209948.95593698206 0.0
0.0 0.0 0.0

-2.583720845320224e6 -580180.1920918623 0.0
-580180.1920918623 2.948564082410809e6 0.0
0.0 0.0 0.0

392622.6972800261 1.4979780570706076e6 0.0
1.4979780570706076e6 -825802.9968813555 0.0
0.0 0.0 0.0

-2.804368675805615e6 828575.7862980639 0.0
828575.7862980639 5.96720321834201e6 0.0
0.0 0.0 0.0

1.3476836643156973e6 609885.7110799744 0.0
609885.7110799744 -1.720819272649976e6 0.0
0.0 0.0 0.0

-456841.11954654765 3.021862843095466e6 0.0
3.021862843095466e6 419491.786299436 0.0
0.0 0.0 0.0

-571009.6467670841 1.9376195345996025e6 0.0
1.9376195345996025e6 431260.10496274906 0.0
0.0 0.0 0.0

355695.73054365633 1.235754557603527e6 0.0
1.235754557603527e6 -904757.4746307965 0.0
0.0 0.0 0.0

-309353.2208508822 2.9378308344178097e6 0.0
2.9378308344178097e6 -74630.6657518665 0.0
0.0 0.0 0.0

-86139.32146164018 2.3478192809521602e6 0.0
2.3478192809521602e6 -332984.97257818165 0.0
0.0 0.0 0.0

-512128.2420919773 1.8985265121692123e6 0.0
1.8985265121692123e6 444014.42679636367 0.0
0.0 0.0 0.0

-322127.3415486248 1.116061651238117e6 0.0
1.116061651238117e6 167609.59393508956 0.0
0.0 0.0 0.0

-290949.9902205156 1.8233676640589922e6 0.0
1.8233676640589922e6 163594.9872839527 0.0
0.0 0.0 0.0

-329948.84680425475 2.0095544950905335e6 0.0
2.0095544950905335e6 -246187.01648333558 0.0
0.0 0.0 0.0

-296959.8584056779 301264.2480409772 0.0
301264.2480409772 194042.8272981926 0.0
0.0 0.0 0.0

463288.0027869018 1.1367264179067872e6 0.0
1.1367264179067872e6 -979004.8103923348 0.0
0.0 0.0 0.0

-90468.2838609267 2.23076209617251e6 0.0
2.23076209617251e6 -72649.82234452908 0.0
0.0 0.0 0.0

-209382.1117586843 2.0025330935450501e6 0.0
2.0025330935450501e6 -40659.67902754694 0.0
0.0 0.0 0.0

-312118.5582660539 2.812329425343247e6 0.0
2.812329425343247e6 303907.1971262141 0.0
0.0 0.0 0.0

-8.735217879266605e6 -775799.03693581 0.0
-775799.03693581 1.1070588928718802e7 0.0
0.0 0.0 0.0

412110.7287204555 1.5217841874612344e6 0.0
1.5217841874612344e6 -889112.8154689488 0.0
0.0 0.0 0.0

-604833.4442521633 1.33196908456458e6 0.0
1.33196908456458e6 1.9078680280698393e6 0.0
0.0 0.0 0.0

-1.1615586312690924e6 2.6697905900431164e6 0.0
2.6697905900431164e6 296190.5037192239 0.0
0.0 0.0 0.0

-78995.30840615585 3.5390060853444957e6 0.0
3.5390060853444957e6 1.0699188102066715e6 0.0
0.0 0.0 0.0

-888778.3680883448 1.4124085056796349e6 0.0
1.4124085056796349e6 2.4973735296884547e6 0.0
0.0 0.0 0.0

-284289.30619135115 1.1918799215460622e6 0.0
1.1918799215460622e6 579009.1955687664 0.0
0.0 0.0 0.0

-278417.11314909894 2.136765877070627e6 0.0
2.136765877070627e6 -371242.37537003437 0.0
0.0 0.0 0.0

-106602.19443020578 2.0901424979468083e6 0.0
2.0901424979468083e6 25791.647204305365 0.0
0.0 0.0 0.0

-165148.38785232874 735676.4124604615 0.0
735676.4124604615 -51401.04046506483 0.0
0.0 0.0 0.0

-126676.10587074517 658730.9696300294 0.0
658730.9696300294 -50546.0395666672 0.0
0.0 0.0 0.0

1.343506050355666e6 534637.2817282953 0.0
534637.2817282953 -1.6589074183251518e6 0.0
0.0 0.0 0.0

-334384.492810771 1.6158901550578205e6 0.0
1.6158901550578205e6 187316.43890143232 0.0
0.0 0.0 0.0

-89748.38824250834 1.167879375381138e6 0.0
1.167879375381138e6 -458479.178276042 0.0
0.0 0.0 0.0

1.1142995355916787e6 479538.03326001624 0.0
479538.03326001624 -1.4061950422368124e6 0.0
0.0 0.0 0.0

-684690.9277407152 4.677038735453369e6 0.0
4.677038735453369e6 453278.7582440521 0.0
0.0 0.0 0.0

-628745.185949623 2.2091786404595505e6 0.0
2.2091786404595505e6 478217.6107181337 0.0
0.0 0.0 0.0

-1.7066093709933318e6 -453429.05135500134 0.0
-453429.05135500134 2.0837016184629956e6 0.0
0.0 0.0 0.0

-167189.63401362926 2.361696950306819e6 0.0
2.361696950306819e6 488678.91765538213 0.0
0.0 0.0 0.0

-269930.23769716924 2.2588388588670874e6 0.0
2.2588388588670874e6 56605.65127822739 0.0
0.0 0.0 0.0

-207506.4732898643 1.863345404048726e6 0.0
1.863345404048726e6 -350709.2205672517 0.0
0.0 0.0 0.0

1.410243043189884e6 585186.219498634 0.0
585186.219498634 -1.839294419740166e6 0.0
0.0 0.0 0.0

192610.99495303474 1.923795070517423e6 0.0
1.923795070517423e6 -436593.9047024711 0.0
0.0 0.0 0.0

-242644.95505618246 2.0145846849894244e6 0.0
2.0145846849894244e6 -291851.43169432005 0.0
0.0 0.0 0.0

-101018.36965594167 1.462317521650061e6 0.0
1.462317521650061e6 -122752.27304870862 0.0
0.0 0.0 0.0

560110.7183830014 -53077.35160864661 0.0
-53077.35160864661 -517618.2273553801 0.0
0.0 0.0 0.0

-22266.089494456362 -159257.51246644687 0.0
-159257.51246644687 -35242.02770426536 0.0
0.0 0.0 0.0

-254627.71835578603 2.0304499215387478e6 0.0
2.0304499215387478e6 -94643.37747809658 0.0
0.0 0.0 0.0

66834.16779862298 1.6865387604366168e6 0.0
1.6865387604366168e6 -770053.0626804677 0.0
0.0 0.0 0.0

-55114.06513550812 1.240405873325732e6 0.0
1.240405873325732e6 -522083.55010468035 0.0
0.0 0.0 0.0

-5.65340322161359e6 -693423.1356415702 0.0
-693423.1356415702 8.787236087072797e6 0.0
0.0 0.0 0.0

-1.4583811108849447e6 2.3178795758011434e6 0.0
2.3178795758011434e6 453886.83320381783 0.0
0.0 0.0 0.0

-19575.79631002798 374996.23300761427 0.0
374996.23300761427 183701.45108673934 0.0
0.0 0.0 0.0

-61676.72863815744 2.24744621632377e6 0.0
2.24744621632377e6 -256068.70480161888 0.0
0.0 0.0 0.0

-323616.1988158402 1.649409381874038e6 0.0
1.649409381874038e6 275353.73303052445 0.0
0.0 0.0 0.0

-289311.18308472366 475920.87333213055 0.0
475920.87333213055 432302.34193541727 0.0
0.0 0.0 0.0

-375615.3757984624 1.5291600989539977e6 0.0
1.5291600989539977e6 53099.02636963212 0.0
0.0 0.0 0.0

-309767.34041154466 2.005654978552135e6 0.0
2.005654978552135e6 171521.5620667323 0.0
0.0 0.0 0.0

-292507.97928643227 1.7243312814190143e6 0.0
1.7243312814190143e6 271708.3968170207 0.0
0.0 0.0 0.0

-127145.09713356264 1.9825351151633002e6 0.0
1.9825351151633002e6 -393926.9116604931 0.0
0.0 0.0 0.0

-365534.1523380265 361045.5933797872 0.0
361045.5933797872 -290826.6511446724 0.0
0.0 0.0 0.0

-136028.6974542758 1.6933115805626858e6 0.0
1.6933115805626858e6 -378159.8559079574 0.0
0.0 0.0 0.0

-469647.4256079809 2.7583836598415296e6 0.0
2.7583836598415296e6 174314.94755606167 0.0
0.0 0.0 0.0

-564021.1188192962 1.500157761309949e6 0.0
1.500157761309949e6 132851.34313932637 0.0
0.0 0.0 0.0

-301762.81431587134 2.7915175285757263e6 0.0
2.7915175285757263e6 57410.938230086205 0.0
0.0 0.0 0.0

-309362.6646995649 2.623206453573892e6 0.0
2.623206453573892e6 -25925.307537346584 0.0
0.0 0.0 0.0

1.3761056618445944e6 605543.6850412084 0.0
605543.6850412084 -1.7352858752782107e6 0.0
0.0 0.0 0.0

-126969.12573631744 1.938779883900423e6 0.0
1.938779883900423e6 -99055.69780389451 0.0
0.0 0.0 0.0

-511509.20731948176 2.9200022112331805e6 0.0
2.9200022112331805e6 327712.3027468421 0.0
0.0 0.0 0.0

73196.37739622814 242385.64130243598 0.0
242385.64130243598 -260312.4589058222 0.0
0.0 0.0 0.0

-3.756943908878969e6 505446.13492928323 0.0
505446.13492928323 1.9909007323572077e6 0.0
0.0 0.0 0.0

2.1796950639970847e6 4.491944468749766e6 0.0
4.491944468749766e6 7.265704208481208e6 0.0
0.0 0.0 0.0

-182399.96824307324 3.6894112330492805e6 0.0
3.6894112330492805e6 -608002.4463676926 0.0
0.0 0.0 0.0

-401384.00878998236 1.1905337632917673e6 0.0
1.1905337632917673e6 1.0257627357851802e6 0.0
0.0 0.0 0.0

-82518.0754133467 1.9394662168114479e6 0.0
1.9394662168114479e6 -721945.4715536544 0.0
0.0 0.0 0.0

-136840.47704533444 2.1914858454888854e6 0.0
2.1914858454888854e6 47051.06478530043 0.0
0.0 0.0 0.0

-1.1648305767757199e6 5.100836191175832e6 0.0
5.100836191175832e6 559866.3857092906 0.0
0.0 0.0 0.0

-62595.70825891604 1.3407444502935533e6 0.0
1.3407444502935533e6 -595786.295180958 0.0
0.0 0.0 0.0

-232882.28318821115 2.16150436542243e6 0.0
2.16150436542243e6 -225305.93044075492 0.0
0.0 0.0 0.0

-32165.018471401418 370579.5542679957 0.0
370579.5542679957 -160459.26418860935 0.0
0.0 0.0 0.0

-1.0485514564396127e6 3.637816589114431e6 0.0
3.637816589114431e6 336265.0474600238 0.0
0.0 0.0 0.0

221136.564779936 1.2995105684419097e6 0.0
1.2995105684419097e6 -821380.1111560275 0.0
0.0 0.0 0.0

-129410.22349706216 2.2535466285539735e6 0.0
2.2535466285539735e6 -286981.62086210155 0.0
0.0 0.0 0.0

-307980.58265965164 1.1363440165583263e6 0.0
1.1363440165583263e6 124286.01911049758 0.0
0.0 0.0 0.0

-91798.64755216031 3.855609668165344e6 0.0
3.855609668165344e6 506988.15880860924 0.0
0.0 0.0 0.0

-196168.72131717627 1.6650981649342594e6 0.0
1.6650981649342594e6 -134262.0103573535 0.0
0.0 0.0 0.0

-316415.9052802026 1.094509503199241e6 0.0
1.094509503199241e6 646993.6937650163 0.0
0.0 0.0 0.0

-678675.9284909463 1.3099591406682413e6 0.0
1.3099591406682413e6 -13907.204300293524 0.0
0.0 0.0 0.0

-65102.01463389078 1.537037020142164e6 0.0
1.537037020142164e6 -285740.50255515485 0.0
0.0 0.0 0.0

-654689.5240639675 4.7472909801077545e6 0.0
4.7472909801077545e6 446405.87023994897 0.0
0.0 0.0 0.0

-255788.8278435774 3.914016502552782e6 0.0
3.914016502552782e6 574699.122823036 0.0
0.0 0.0 0.0

-112957.59832322158 1.963555148138997e6 0.0
1.963555148138997e6 -406472.9000210319 0.0
0.0 0.0 0.0

-1.1629511732532114e6 869074.4611716336 0.0
869074.4611716336 2.220833030024011e6 0.0
0.0 0.0 0.0

-201907.37597512204 1.8016340176033524e6 0.0
1.8016340176033524e6 -449008.8876800978 0.0
0.0 0.0 0.0

-259212.66814340217 1.3192962730144782e6 0.0
1.3192962730144782e6 -213128.38672346057 0.0
0.0 0.0 0.0

-164580.54119514045 674587.3204366794 0.0
674587.3204366794 -22352.79112449038 0.0
0.0 0.0 0.0

-198691.5934288412 1.5590497661397038e6 0.0
1.5590497661397038e6 226967.99544362276 0.0
0.0 0.0 0.0

83663.2282071961 2.2855285546086417e6 0.0
2.2855285546086417e6 -296649.76774194214 0.0
0.0 0.0 0.0

-384693.46433735 3.605470645188344e6 0.0
3.605470645188344e6 492153.21345940046 0.0
0.0 0.0 0.0

831862.691320317 1.223207169544897e6 0.0
1.223207169544897e6 -1.446405649551034e6 0.0
0.0 0.0 0.0

103104.25855930652 209698.80504245724 0.0
209698.80504245724 -317256.7308751868 0.0
0.0 0.0 0.0

-566554.2230387862 6.15919376076088e6 0.0
6.15919376076088e6 179069.06096411424 0.0
0.0 0.0 0.0

1.0913443258748562e6 734064.8388033925 0.0
734064.8388033925 -1.5197167865267452e6 0.0
0.0 0.0 0.0

23429.149579054545 2.2946557700329344e6 0.0
2.2946557700329344e6 -320461.90740974667 0.0
0.0 0.0 0.0

-405859.4375225451 3.0973496597459847e6 0.0
3.0973496597459847e6 261118.60024862536 0.0
0.0 0.0 0.0

-1.0645368810038263e7 3.8412531618863265e6 0.0
3.8412531618863265e6 2.3095366013681594e7 0.0
0.0 0.0 0.0

475419.2949026611 3.365851717288934e6 0.0
3.365851717288934e6 -2.5202698002305003e6 0.0
0.0 0.0 0.0

332923.71155272995 3.8290108843529294e6 0.0
3.8290108843529294e6 487520.9748797625 0.0
0.0 0.0 0.0

-261597.86206941638 3.9114528518640776e6 0.0
3.9114528518640776e6 549287.6608165251 0.0
0.0 0.0 0.0

-306698.8477766748 2.6492223448381545e6 0.0
2.6492223448381545e6 276440.22807399713 0.0
0.0 0.0 0.0

-186725.19767626046 6.146272458824375e6 0.0
6.146272458824375e6 178041.82101429993 0.0
0.0 0.0 0.0

-80825.6734938716 2.0349626544474422e6 0.0
2.0349626544474422e6 217157.39572590374 0.0
0.0 0.0 0.0

-156776.7433867553 3.6585969550901395e6 0.0
3.6585969550901395e6 416341.3632779835 0.0
0.0 0.0 0.0

-403267.4534887246 1.2997869741659504e6 0.0
1.2997869741659504e6 102257.54846212437 0.0
0.0 0.0 0.0

-133629.22522826883 681029.8194165897 0.0
681029.8194165897 -145981.16548512215 0.0
0.0 0.0 0.0

-307971.86274128966 -395195.29049910593 0.0
-395195.29049910593 306749.2443506777 0.0
0.0 0.0 0.0

-663138.7549441971 2.479917559001951e6 0.0
2.479917559001951e6 542459.0116784527 0.0
0.0 0.0 0.0

-678852.6038368205 4.0232457572098053e6 0.0
4.0232457572098053e6 567876.6506204485 0.0
0.0 0.0 0.0

-473645.8705325702 1.096908625713758e6 0.0
1.096908625713758e6 1.1752568516380657e6 0.0
0.0 0.0 0.0

-283511.41736275 1.7736481071695634e6 0.0
1.7736481071695634e6 99676.17722494742 0.0
0.0 0.0 0.0

-388437.6425995438 1.2764353613821194e6 0.0
1.2764353613821194e6 151231.64186188116 0.0
0.0 0.0 0.0

-67405.88114668864 1.2163722917817417e6 0.0
1.2163722917817417e6 -426181.1246080769 0.0
0.0 0.0 0.0

-731161.4778647933 1.3283586263504974e6 0.0
1.3283586263504974e6 2.0455764342850158e6 0.0
0.0 0.0 0.0

-395094.5696265759 1.392167599502502e6 0.0
1.392167599502502e6 220714.3009129796 0.0
0.0 0.0 0.0

19110.75338031024 1.0024957675547274e6 0.0
1.0024957675547274e6 -322010.485174161 0.0
0.0 0.0 0.0

-763239.0003753793 1.0397230009909703e6 0.0
1.0397230009909703e6 667235.3304912389 0.0
0.0 0.0 0.0

-1.7980682544120718e6 -380849.43695638253 0.0
-380849.43695638253 2.213400679764661e6 0.0
0.0 0.0 0.0

-296145.3375886779 1.8336702213198286e6 0.0
1.8336702213198286e6 39714.89493884519 0.0
0.0 0.0 0.0

-752247.7605150847 1.6415242380172715e6 0.0
1.6415242380172715e6 107294.0233252006 0.0
0.0 0.0 0.0

176813.78407874622 1.4440102926008885e6 0.0
1.4440102926008885e6 -791957.8323518333 0.0
0.0 0.0 0.0

-1.4261572156933623e6 2.269757548402686e6 0.0
2.269757548402686e6 291273.43327810144 0.0
0.0 0.0 0.0

-1.5368727965516157e6 2.2938078469362725e6 0.0
2.2938078469362725e6 486304.05117544194 0.0
0.0 0.0 0.0

-1.7274512085563191e6 2.2346342494425257e6 0.0
2.2346342494425257e6 608573.5963094651 0.0
0.0 0.0 0.0

-969332.213838594 4.3612806664407775e6 0.0
4.3612806664407775e6 444207.5405009607 0.0
0.0 0.0 0.0

-147649.76692542597 164627.42734570234 0.0
164627.42734570234 281709.4904683808 0.0
0.0 0.0 0.0

1.5363506867694631e6 553430.3221659968 0.0
553430.3221659968 -1.8076962921890635e6 0.0
0.0 0.0 0.0

-637231.4655089399 1.280393568445216e6 0.0
1.280393568445216e6 1.2910866082276064e6 0.0
0.0 0.0 0.0

-798409.3957049649 5.004890025397675e6 0.0
5.004890025397675e6 403417.7347679839 0.0
0.0 0.0 0.0

-74799.88744745195 1.7468235107905325e6 0.0
1.7468235107905325e6 -580914.8521821401 0.0
0.0 0.0 0.0

-618597.6722126055 -310358.07471972954 0.0
-310358.07471972954 774789.2953569086 0.0
0.0 0.0 0.0

25727.90775042506 2.246882851879954e6 0.0
2.246882851879954e6 -312243.8730931402 0.0
0.0 0.0 0.0

-287429.4509826299 2.1608822323932233e6 0.0
2.1608822323932233e6 -245569.23636170843 0.0
0.0 0.0 0.0

-165080.07526733546 1.7047820449526282e6 0.0
1.7047820449526282e6 -395879.62630736973 0.0
0.0 0.0 0.0

-64420.29897688015 1.1378632025925142e6 0.0
1.1378632025925142e6 -567474.0033550158 0.0
0.0 0.0 0.0

117580.25321890473 -146973.07188513488 0.0
-146973.07188513488 -273923.09751135064 0.0
0.0 0.0 0.0

-184934.70378978268 1.4911516434219803e6 0.0
1.4911516434219803e6 -331676.3582404559 0.0
0.0 0.0 0.0

-252102.39417223638 2.036286073011319e6 0.0
2.036286073011319e6 -58499.96489139921 0.0
0.0 0.0 0.0

21358.026161831076 3.2761911170840124e6 0.0
3.2761911170840124e6 689197.1214201135 0.0
0.0 0.0 0.0

-1.619309404454799e6 2.1345500109126475e6 0.0
2.1345500109126475e6 672410.588797237 0.0
0.0 0.0 0.0

-129008.9880192906 670918.1487008556 0.0
670918.1487008556 -103238.3038496515 0.0
0.0 0.0 0.0

248635.3539275779 1.8909483094230606e6 0.0
1.8909483094230606e6 -878382.8620146555 0.0
0.0 0.0 0.0

1.0876408354881948e6 635849.600642875 0.0
635849.600642875 -1.4751768967791912e6 0.0
0.0 0.0 0.0

43277.67335067698 -144183.80107508652 0.0
-144183.80107508652 -238091.84582210798 0.0
0.0 0.0 0.0

-793412.2133116021 1.3881714100000055e6 0.0
1.3881714100000055e6 262796.1290153334 0.0
0.0 0.0 0.0

-667064.9981371391 1.280815017373965e6 0.0
1.280815017373965e6 -88976.5366065356 0.0
0.0 0.0 0.0

-87946.25278833247 1.3073945351072105e6 0.0
1.3073945351072105e6 -407244.12520285416 0.0
0.0 0.0 0.0

-1.0157191148717247e6 4.490942555173406e6 0.0
4.490942555173406e6 420051.3719893989 0.0
0.0 0.0 0.0

1.1389731090744871e6 836248.0694116706 0.0
836248.0694116706 -1.7169130317290672e6 0.0
0.0 0.0 0.0

-310649.6497132231 3.404411345505632e6 0.0
3.404411345505632e6 254146.59962964107 0.0
0.0 0.0 0.0

-371190.34574749134 2.0850120129355674e6 0.0
2.0850120129355674e6 368131.1973913172 0.0
0.0 0.0 0.0

4045.6897766832553 1.900410916671808e6 0.0
1.900410916671808e6 -657774.8049704265 0.0
0.0 0.0 0.0

-857749.2769225681 2.311394378542026e6 0.0
2.311394378542026e6 151412.0951566681 0.0
0.0 0.0 0.0

-140905.2621791711 1.8749192569510704e6 0.0
1.8749192569510704e6 -325341.39411939675 0.0
0.0 0.0 0.0

-68116.7163329944 1.8010656613987784e6 0.0
1.8010656613987784e6 -823879.9065962126 0.0
0.0 0.0 0.0

-77898.6159086818 1.237926012878721e6 0.0
1.237926012878721e6 -517935.0584565695 0.0
0.0 0.0 0.0

-585060.7918685235 1.7014697447608372e6 0.0
1.7014697447608372e6 96467.16593286657 0.0
0.0 0.0 0.0

15134.02604508173 2.4260188677926594e6 0.0
2.4260188677926594e6 -822292.7613487752 0.0
0.0 0.0 0.0

-129929.64114614819 5.983040718207642e6 0.0
5.983040718207642e6 256555.1490242602 0.0
0.0 0.0 0.0

-355433.288554745 3.64799763577964e6 0.0
3.64799763577964e6 512974.68586859567 0.0
0.0 0.0 0.0

-1.1445408170355973e6 2.118237962989913e6 0.0
2.118237962989913e6 229436.01796978805 0.0
0.0 0.0 0.0

-329810.3665705872 1.372650537758763e6 0.0
1.372650537758763e6 211892.7050652212 0.0
0.0 0.0 0.0

1.1348963964898158e6 814421.8928251001 0.0
814421.8928251001 -1.7105746261508917e6 0.0
0.0 0.0 0.0

-227474.30081015406 1.5301645985285712e6 0.0
1.5301645985285712e6 344902.64285969763 0.0
0.0 0.0 0.0

1.251177750915418e6 694673.7661770515 0.0
694673.7661770515 -1.7481582375052543e6 0.0
0.0 0.0 0.0

-513037.7079470854 3.4360597618028186e6 0.0
3.4360597618028186e6 519702.5341454043 0.0
0.0 0.0 0.0

-540634.0194080032 3.348394709519015e6 0.0
3.348394709519015e6 483607.7071953889 0.0
0.0 0.0 0.0

-145049.51771507147 1.3385661891228056e6 0.0
1.3385661891228056e6 -393712.19831351057 0.0
0.0 0.0 0.0

-219921.5170311556 1.8788220772069846e6 0.0
1.8788220772069846e6 381101.48190073925 0.0
0.0 0.0 0.0

-991180.4089915332 3.649196054461444e6 0.0
3.649196054461444e6 354538.4463928997 0.0
0.0 0.0 0.0

-208859.50707707205 886273.8784474124 0.0
886273.8784474124 117553.19520841286 0.0
0.0 0.0 0.0

-31823.302733236633 -185224.95551148575 0.0
-185224.95551148575 -73778.16044340965 0.0
0.0 0.0 0.0

1.0798277319799135e6 590187.8111329306 0.0
590187.8111329306 -1.4834400799361658e6 0.0
0.0 0.0 0.0

513882.53742564697 677696.3577926229 0.0
677696.3577926229 -1.139271115517924e6 0.0
0.0 0.0 0.0

-985235.5567603735 4.658988921655255e6 0.0
4.658988921655255e6 533363.501070768 0.0
0.0 0.0 0.0

-132200.87072466905 2.381261822936859e6 0.0
2.381261822936859e6 -89084.00009476446 0.0
0.0 0.0 0.0

231702.4454330898 1.4301791282948593e6 0.0
1.4301791282948593e6 -782596.2501257483 0.0
0.0 0.0 0.0

-132229.30991094373 2.0241079119751216e6 0.0
2.0241079119751216e6 674861.187578145 0.0
0.0 0.0 0.0

338014.62763322354 -33484.12551309326 0.0
-33484.12551309326 -181410.69129731553 0.0
0.0 0.0 0.0

-433805.68452387874 2.165722961294167e6 0.0
2.165722961294167e6 634317.9259384813 0.0
0.0 0.0 0.0

-1.0248397987394256e6 1.4215607268210175e6 0.0
1.4215607268210175e6 383263.46842339955 0.0
0.0 0.0 0.0

-190820.32034446538 2.0785100416345622e6 0.0
2.0785100416345622e6 34350.62395192377 0.0
0.0 0.0 0.0

212805.25515135558 1.997613450374759e6 0.0
1.997613450374759e6 -349065.301000337 0.0
0.0 0.0 0.0

-618929.0323567154 1.7246942579935985e6 0.0
1.7246942579935985e6 99875.68078949058 0.0
0.0 0.0 0.0

-339328.60668051604 1.5842629835064863e6 0.0
1.5842629835064863e6 260863.30075463664 0.0
0.0 0.0 0.0

-1.0089335131320964e6 1.4243485783256958e6 0.0
1.4243485783256958e6 2.497159244900527e6 0.0
0.0 0.0 0.0

-457491.5568046471 1.3850611412552844e6 0.0
1.3850611412552844e6 -5991.202027378109 0.0
0.0 0.0 0.0

-405055.55616183596 1.6757520004230386e6 0.0
1.6757520004230386e6 -39448.58253791793 0.0
0.0 0.0 0.0

-338004.45296840137 511318.6313621802 0.0
511318.6313621802 480327.60885019123 0.0
0.0 0.0 0.0

-2.115740850700219e6 1.4217061560545184e6 0.0
1.4217061560545184e6 1.4494853135602793e6 0.0
0.0 0.0 0.0

-175474.88802776948 2.855439627542674e6 0.0
2.855439627542674e6 427236.4913614878 0.0
0.0 0.0 0.0

183525.45354603644 1.3280089450267274e6 0.0
1.3280089450267274e6 -781471.0462647376 0.0
0.0 0.0 0.0

-364871.4397885687 1.2149929463072657e6 0.0
1.2149929463072657e6 82077.47692972835 0.0
0.0 0.0 0.0

-271566.55698318215 2.295803173653597e6 0.0
2.295803173653597e6 -295614.0643040399 0.0
0.0 0.0 0.0

1.5380568677253064e6 3.398227427316605e6 0.0
3.398227427316605e6 -707210.291703021 0.0
0.0 0.0 0.0

-206160.07496852908 -117639.77736569963 0.0
-117639.77736569963 126403.38761247482 0.0
0.0 0.0 0.0

833953.2093106413 228688.6926916707 0.0
228688.6926916707 -776145.3396435835 0.0
0.0 0.0 0.0

-425082.6980361617 2.5438814548880956e6 0.0
2.5438814548880956e6 -13372.396723477941 0.0
0.0 0.0 0.0

-130385.13305074451 1.5056647810092487e6 0.0
1.5056647810092487e6 -308961.7825010966 0.0
0.0 0.0 0.0

-809665.2067908517 -162304.44455639416 0.0
-162304.44455639416 1.099233134479314e6 0.0
0.0 0.0 0.0

-298060.00728509563 3.889292082732037e6 0.0
3.889292082732037e6 597967.0765773931 0.0
0.0 0.0 0.0

-1.904622132798313e6 2.10232655632135e6 0.0
2.10232655632135e6 755252.5737646131 0.0
0.0 0.0 0.0

-86996.16263516502 3.27830066978559e6 0.0
3.27830066978559e6 271203.7641089046 0.0
0.0 0.0 0.0

50231.936515779336 -132838.07424632914 0.0
-132838.07424632914 -323348.2297604458 0.0
0.0 0.0 0.0

-1.257907176805978e6 1.1821034143347868e6 0.0
1.1821034143347868e6 488698.43445323687 0.0
0.0 0.0 0.0

47967.20942155662 1.2366110509509805e6 0.0
1.2366110509509805e6 -397025.4481492859 0.0
0.0 0.0 0.0

-2.0477646238899925e6 2.0937548230740153e6 0.0
2.0937548230740153e6 794307.0659427681 0.0
0.0 0.0 0.0

-133453.0694238419 566052.1053601453 0.0
566052.1053601453 76399.206120493 0.0
0.0 0.0 0.0

-373504.12191905244 2.185130954224647e6 0.0
2.185130954224647e6 -167591.01528711565 0.0
0.0 0.0 0.0

-33088.62206572955 1.1722306283587215e6 0.0
1.1722306283587215e6 -779614.0967880448 0.0
0.0 0.0 0.0

-81651.2974298324 1.2975205866456518e6 0.0
1.2975205866456518e6 -433441.21251920843 0.0
0.0 0.0 0.0

-253177.22316830017 3.1989027883120603e6 0.0
3.1989027883120603e6 151914.8637420684 0.0
0.0 0.0 0.0

-591884.3614316714 6.9431443541353885e6 0.0
6.9431443541353885e6 -213193.5717178015 0.0
0.0 0.0 0.0

125133.0960765301 -132231.7700654895 0.0
-132231.7700654895 -275983.0818374892 0.0
0.0 0.0 0.0

-1.2656284522619804e6 5.048530422946802e6 0.0
5.048530422946802e6 406326.83356878086 0.0
0.0 0.0 0.0

-584029.7355109713 5.048357037211963e6 0.0
5.048357037211963e6 469407.4552348263 0.0
0.0 0.0 0.0

-214119.71227692548 -143196.85931479835 0.0
-143196.85931479835 171434.3545652512 0.0
0.0 0.0 0.0

1.5321448412979825e6 575022.7993301951 0.0
575022.7993301951 -1.804550296234465e6 0.0
0.0 0.0 0.0

-444832.3624383596 1.6365265098696789e6 0.0
1.6365265098696789e6 141708.6189888013 0.0
0.0 0.0 0.0

-481375.59440502967 2.1034350251296577e6 0.0
2.1034350251296577e6 695567.0019367693 0.0
0.0 0.0 0.0

47863.384795417565 266017.7260545625 0.0
266017.7260545625 162934.8750847199 0.0
0.0 0.0 0.0

-10252.028154404747 409139.0198331649 0.0
409139.0198331649 -157146.85297036738 0.0
0.0 0.0 0.0

-462437.6871432601 2.0926671516289467e6 0.0
2.0926671516289467e6 677866.7476753873 0.0
0.0 0.0 0.0

-521758.37468574254 2.9010050535384156e6 0.0
2.9010050535384156e6 206879.26678832088 0.0
0.0 0.0 0.0

-53548.253892825975 1.1443265280195354e6 0.0
1.1443265280195354e6 -573343.7697988073 0.0
0.0 0.0 0.0

-684427.1663343878 4.568936767272776e6 0.0
4.568936767272776e6 494851.2490802498 0.0
0.0 0.0 0.0

-162474.88195849984 -136110.76073355725 0.0
-136110.76073355725 86868.63080365659 0.0
0.0 0.0 0.0

-408005.6748999867 1.5388504801416371e6 0.0
1.5388504801416371e6 -113705.07491413977 0.0
0.0 0.0 0.0

-537113.4201292305 503076.90783744206 0.0
503076.90783744206 791188.3594821591 0.0
0.0 0.0 0.0

-280976.7131979037 2.3349936554026203e6 0.0
2.3349936554026203e6 -13732.551779066023 0.0
0.0 0.0 0.0

-425649.90310984023 2.955783471404955e6 0.0
2.955783471404955e6 242310.83277070904 0.0
0.0 0.0 0.0

-1.2025463697060586e6 4.593801117525426e6 0.0
4.593801117525426e6 753713.581567685 0.0
0.0 0.0 0.0

182173.7340183333 1.3663506111031482e6 0.0
1.3663506111031482e6 -941321.4998708272 0.0
0.0 0.0 0.0

-2.52025236951125e6 2.1691338398146476e6 0.0
2.1691338398146476e6 1.8530695721806348e6 0.0
0.0 0.0 0.0

-811078.9839628078 -461961.9803379304 0.0
-461961.9803379304 602727.1196431722 0.0
0.0 0.0 0.0

-802806.680005682 -483119.15699696855 0.0
-483119.15699696855 1.3651015022288382e6 0.0
0.0 0.0 0.0

95008.1394634566 1.6135001360355858e6 0.0
1.6135001360355858e6 338979.20196364325 0.0
0.0 0.0 0.0

-90869.78286099166 2.4268876043502106e6 0.0
2.4268876043502106e6 556032.2771012167 0.0
0.0 0.0 0.0

-781.8673811303597 2.3487965503772805e6 0.0
2.3487965503772805e6 -257874.56548916307 0.0
0.0 0.0 0.0

132204.9886131338 269425.4853836952 0.0
269425.4853836952 -230703.45587380638 0.0
0.0 0.0 0.0

470299.4086334143 839341.2629443686 0.0
839341.2629443686 -241637.9233511617 0.0
0.0 0.0 0.0

-161245.2162753793 2.1965061376517625e6 0.0
2.1965061376517625e6 -67587.6858436211 0.0
0.0 0.0 0.0

-1.0319550045974376e6 3.814401204518196e6 0.0
3.814401204518196e6 470421.4056817369 0.0
0.0 0.0 0.0

292875.4120127068 1.253053176148569e6 0.0
1.253053176148569e6 -799149.0616354992 0.0
0.0 0.0 0.0

-372862.8166843277 2.969112530106708e6 0.0
2.969112530106708e6 976395.3260773877 0.0
0.0 0.0 0.0

-160607.79320747612 3.119034274173305e6 0.0
3.119034274173305e6 417545.5954928581 0.0
0.0 0.0 0.0

-2.1392024035207108e6 1.9655877680465798e6 0.0
1.9655877680465798e6 1.1269429989827957e6 0.0
0.0 0.0 0.0

-229033.89942246862 1.5320907193355302e6 0.0
1.5320907193355302e6 47942.31134624536 0.0
0.0 0.0 0.0

584807.026309488 14773.873322231815 0.0
14773.873322231815 -790060.2643282108 0.0
0.0 0.0 0.0

2154.4327955484587 183753.06437298373 0.0
183753.06437298373 -50138.68839823456 0.0
0.0 0.0 0.0

-1.0046704892306398e6 4.013914675055208e6 0.0
4.013914675055208e6 452526.4101788307 0.0
0.0 0.0 0.0

-695321.2131292842 2.556912813315014e6 0.0
2.556912813315014e6 760290.9589235514 0.0
0.0 0.0 0.0

-3.2925760559654445e6 -542779.6057133629 0.0
-542779.6057133629 3.6277668383940374e6 0.0
0.0 0.0 0.0

26720.672956327777 2.255108840891503e6 0.0
2.255108840891503e6 -103261.79025724277 0.0
0.0 0.0 0.0

92662.7195547155 1.611613018759141e6 0.0
1.611613018759141e6 -640059.5856105642 0.0
0.0 0.0 0.0

-444560.55402382027 2.373899622347257e6 0.0
2.373899622347257e6 719328.3279676074 0.0
0.0 0.0 0.0

-746682.0072146981 945314.6328378712 0.0
945314.6328378712 1.45755277503222e6 0.0
0.0 0.0 0.0

-492990.3505581724 2.8139225653573894e6 0.0
2.8139225653573894e6 120299.86149491815 0.0
0.0 0.0 0.0

-6.705773324135817e6 2.209884272862711e6 0.0
2.209884272862711e6 1.2127044410755765e7 0.0
0.0 0.0 0.0

-319329.8275211267 3.666629340045164e6 0.0
3.666629340045164e6 491004.1570911813 0.0
0.0 0.0 0.0

-207558.64400768236 1.942644225663011e6 0.0
1.942644225663011e6 -452339.49376735225 0.0
0.0 0.0 0.0

-427419.588047895 3.2719476674654037e6 0.0
3.2719476674654037e6 379.9720523240976 0.0
0.0 0.0 0.0

1.4366234594991824e6 600755.3609431236 0.0
600755.3609431236 -1.8705525299460385e6 0.0
0.0 0.0 0.0

-1.5610971212583054e6 4.367337415244203e6 0.0
4.367337415244203e6 668135.8866051949 0.0
0.0 0.0 0.0

-67075.2099438321 208339.25722218046 0.0
208339.25722218046 15517.975443081687 0.0
0.0 0.0 0.0

176317.41874291684 1.7300601890515182e6 0.0
1.7300601890515182e6 -217126.0009822611 0.0
0.0 0.0 0.0

-319543.444830293 1.7496849972515122e6 0.0
1.7496849972515122e6 13218.284276177874 0.0
0.0 0.0 0.0

-643571.1480391391 1.8515888693160692e6 0.0
1.8515888693160692e6 -52774.659976134775 0.0
0.0 0.0 0.0

-86713.99395690244 394224.07758173376 0.0
394224.07758173376 -63161.505965694894 0.0
0.0 0.0 0.0

-46395.67166430346 1.1222348642081786e6 0.0
1.1222348642081786e6 -885552.1037156059 0.0
0.0 0.0 0.0

-1.9062708734394528e6 1.7764106130617056e6 0.0
1.7764106130617056e6 777724.1655853253 0.0
0.0 0.0 0.0

168735.3230772412 3.1871129102377812e6 0.0
3.1871129102377812e6 -313191.0312525403 0.0
0.0 0.0 0.0

253706.18049315742 -101637.89867103212 0.0
-101637.89867103212 -315896.70938592765 0.0
0.0 0.0 0.0

-738482.5289306716 1.7078232417801982e6 0.0
1.7078232417801982e6 115334.92055109321 0.0
0.0 0.0 0.0

-1.7455986278504287e6 720705.8084446951 0.0
720705.8084446951 1.1951817513525945e6 0.0
0.0 0.0 0.0

-126474.98815637226 2.3709996697180765e6 0.0
2.3709996697180765e6 -102619.19175077569 0.0
0.0 0.0 0.0

-1.8532679028244228e6 612751.519523957 0.0
612751.519523957 1.1374328639983921e6 0.0
0.0 0.0 0.0

-156923.44353304966 2.189054703006433e6 0.0
2.189054703006433e6 -270322.038870633 0.0
0.0 0.0 0.0

-161378.3391712378 731595.2014977977 0.0
731595.2014977977 88776.43360815287 0.0
0.0 0.0 0.0

143331.93516597163 192098.5005482334 0.0
192098.5005482334 -170691.3060689224 0.0
0.0 0.0 0.0

-118545.2053381433 626277.5360616224 0.0
626277.5360616224 -167798.38481276584 0.0
0.0 0.0 0.0

-257729.52958501742 1.65651290697716e6 0.0
1.65651290697716e6 167558.80233173288 0.0
0.0 0.0 0.0

-622506.0348518968 -234526.53042279233 0.0
-234526.53042279233 824783.2213665134 0.0
0.0 0.0 0.0

19265.69490846833 1.2745538371857847e6 0.0
1.2745538371857847e6 -388391.8881225545 0.0
0.0 0.0 0.0

-167021.43681964418 1.8660185295417234e6 0.0
1.8660185295417234e6 6780.03057899158 0.0
0.0 0.0 0.0

-150866.90184105124 2.12254783035158e6 0.0
2.12254783035158e6 -509385.7108349952 0.0
0.0 0.0 0.0

81406.43588034208 -74796.24103699415 0.0
-74796.24103699415 -195907.02991979104 0.0
0.0 0.0 0.0

-116308.37212991713 1.3550599088840007e6 0.0
1.3550599088840007e6 -365643.2694849533 0.0
0.0 0.0 0.0

-327112.12695551215 1.7711504675450532e6 0.0
1.7711504675450532e6 17922.75919872489 0.0
0.0 0.0 0.0

97935.58256581266 1.7003162063382855e6 0.0
1.7003162063382855e6 611076.5929306445 0.0
0.0 0.0 0.0

-363397.618179891 2.4715704515785514e6 0.0
2.4715704515785514e6 -60486.93513307484 0.0
0.0 0.0 0.0

-3980.87761016858 2.2830108020389434e6 0.0
2.2830108020389434e6 -313645.83414719556 0.0
0.0 0.0 0.0

-1.2834022757800247e6 4.926152520087554e6 0.0
4.926152520087554e6 415191.66511433275 0.0
0.0 0.0 0.0

-263411.69286981586 2.3034482644840037e6 0.0
2.3034482644840037e6 -179798.20804214838 0.0
0.0 0.0 0.0

1.2977815297733373e6 4.951476358617491e6 0.0
4.951476358617491e6 -3.1915156610098816e6 0.0
0.0 0.0 0.0

-325343.2083506713 2.449309790029529e6 0.0
2.449309790029529e6 -120318.26307358369 0.0
0.0 0.0 0.0

-43572.283539470955 1.3559627956540426e6 0.0
1.3559627956540426e6 -619650.55972892 0.0
0.0 0.0 0.0

-339021.8768531878 2.8130727371100523e6 0.0
2.8130727371100523e6 23514.97770066891 0.0
0.0 0.0 0.0

-1.350508651879478e6 1.2359792253519513e6 0.0
1.2359792253519513e6 590183.4218295498 0.0
0.0 0.0 0.0

-330752.5048517732 1.804165192774405e6 0.0
1.804165192774405e6 30226.475629839944 0.0
0.0 0.0 0.0

-98867.53381487838 3.5186941631362326e6 0.0
3.5186941631362326e6 292799.6675139118 0.0
0.0 0.0 0.0

398666.08843377826 1.088366650802933e6 0.0
1.088366650802933e6 -971291.1329940739 0.0
0.0 0.0 0.0

-92476.87472606369 1.4053700260101955e6 0.0
1.4053700260101955e6 960475.7139268471 0.0
0.0 0.0 0.0

1.104245577672707e6 533643.9780504872 0.0
533643.9780504872 -1.3549911596680104e6 0.0
0.0 0.0 0.0

-297307.3590627804 2.9636127429505032e6 0.0
2.9636127429505032e6 147044.60288009647 0.0
0.0 0.0 0.0

1.3085234886822212e6 661001.5192952099 0.0
661001.5192952099 -1.7667226360496986e6 0.0
0.0 0.0 0.0

-391817.2013506261 2.900201760863616e6 0.0
2.900201760863616e6 276262.8595091024 0.0
0.0 0.0 0.0

-315402.7424704498 3.8660065890561626e6 0.0
3.8660065890561626e6 613858.7179855183 0.0
0.0 0.0 0.0

-687239.5562958528 1.9727656920314718e6 0.0
1.9727656920314718e6 12488.05249388027 0.0
0.0 0.0 0.0

-920595.8948615964 1.4837801877250886e6 0.0
1.4837801877250886e6 270552.21768196055 0.0
0.0 0.0 0.0

-1.129837804579831e6 700985.9131362668 0.0
700985.9131362668 1.1194897881867334e6 0.0
0.0 0.0 0.0

-102802.27633694824 1.2237064969563643e6 0.0
1.2237064969563643e6 -110145.82045722171 0.0
0.0 0.0 0.0

-2.515628098461408e6 1.2119893757647022e6 0.0
1.2119893757647022e6 1.4263059710855715e6 0.0
0.0 0.0 0.0

-132129.678364439 2.688652089073091e6 0.0
2.688652089073091e6 879982.5884231047 0.0
0.0 0.0 0.0

-49912.72295895009 600496.1679238938 0.0
600496.1679238938 -881769.567134028 0.0
0.0 0.0 0.0

-611897.1111949361 1.7296344102742737e6 0.0
1.7296344102742737e6 120371.61883915772 0.0
0.0 0.0 0.0

-190108.33650718472 2.3264753129794993e6 0.0
2.3264753129794993e6 -266097.02259559074 0.0
0.0 0.0 0.0

-243733.31436749088 2.270278886909556e6 0.0
2.270278886909556e6 -111764.33211553383 0.0
0.0 0.0 0.0

1.5563574516535667e6 558311.5977102156 0.0
558311.5977102156 -1.8520814239736549e6 0.0
0.0 0.0 0.0

-109324.29947697328 1.2933886339164046e6 0.0
1.2933886339164046e6 -429387.44186942856 0.0
0.0 0.0 0.0

2.281900498282531e6 1.2565879687478808e6 0.0
1.2565879687478808e6 -2.1284791373467096e6 0.0
0.0 0.0 0.0

-901817.8113518099 920515.0537655702 0.0
920515.0537655702 1.8020506384451336e6 0.0
0.0 0.0 0.0

-491626.64245181857 1.69507313968247e6 0.0
1.69507313968247e6 73858.58608799806 0.0
0.0 0.0 0.0

-388702.6024632978 -292082.7335130765 0.0
-292082.7335130765 399056.30190072267 0.0
0.0 0.0 0.0

-1.2607754393298428e6 2.520258811479856e6 0.0
2.520258811479856e6 375915.6085516765 0.0
0.0 0.0 0.0

-1.186735820215553e6 1.136215042101544e6 0.0
1.136215042101544e6 514184.1514695524 0.0
0.0 0.0 0.0

-231273.3041080664 2.0691831943258913e6 0.0
2.0691831943258913e6 -400408.0538154423 0.0
0.0 0.0 0.0

94089.34766890721 1.6892729163915482e6 0.0
1.6892729163915482e6 15322.589034571705 0.0
0.0 0.0 0.0

-64936.70200456139 1.5760693222117098e6 0.0
1.5760693222117098e6 -298736.4736953789 0.0
0.0 0.0 0.0

-347831.0482338634 1.1288444563482937e6 0.0
1.1288444563482937e6 91244.49125499192 0.0
0.0 0.0 0.0

-308148.5094553067 2.167336938544899e6 0.0
2.167336938544899e6 -252359.28820274427 0.0
0.0 0.0 0.0

140303.2147530757 963022.2387254746 0.0
963022.2387254746 -607883.70886621 0.0
0.0 0.0 0.0

-270648.6593814716 1.7665729685372328e6 0.0
1.7665729685372328e6 -382414.5518921482 0.0
0.0 0.0 0.0

-604674.0725238008 1.7387061481755169e6 0.0
1.7387061481755169e6 124275.29822818164 0.0
0.0 0.0 0.0

-564398.5441378842 3.139121670760332e6 0.0
3.139121670760332e6 285977.84025710216 0.0
0.0 0.0 0.0

339644.00149273383 3.277726248298528e6 0.0
3.277726248298528e6 -400574.8194772758 0.0
0.0 0.0 0.0

1.549853320465304e6 577857.5476766103 0.0
577857.5476766103 -1.8567417702656728e6 0.0
0.0 0.0 0.0

99617.6881060725 1.5527724115110543e6 0.0
1.5527724115110543e6 232829.59466145892 0.0
0.0 0.0 0.0

-181685.8971908981 2.2254754407628025e6 0.0
2.2254754407628025e6 62731.17444676267 0.0
0.0 0.0 0.0

-489115.4974811266 4.608173728916882e6 0.0
4.608173728916882e6 554539.6031798478 0.0
0.0 0.0 0.0

2625.712154854933 2.351936762667065e6 0.0
2.351936762667065e6 -270005.5818323215 0.0
0.0 0.0 0.0

-697149.2752115045 -21992.692397589642 0.0
-21992.692397589642 996917.6562321177 0.0
0.0 0.0 0.0

-117103.42133655859 -142565.19878676184 0.0
-142565.19878676184 135205.88284135418 0.0
0.0 0.0 0.0

-325418.1495434132 3.8814670557152336e6 0.0
3.8814670557152336e6 585622.8564351407 0.0
0.0 0.0 0.0

-1.4285438748254327e6 -78365.46975911726 0.0
-78365.46975911726 1.4482582406893298e6 0.0
0.0 0.0 0.0

-117095.39861371598 1.7376258952821486e6 0.0
1.7376258952821486e6 -543793.1604554747 0.0
0.0 0.0 0.0

-513070.0002472972 2.9067575246049454e6 0.0
2.9067575246049454e6 452976.311141912 0.0
0.0 0.0 0.0

-150026.057146651 724204.6220533829 0.0
724204.6220533829 21880.3570229283 0.0
0.0 0.0 0.0

-1.919174648865839e6 153600.1789355246 0.0
153600.1789355246 1.6580056238794997e6 0.0
0.0 0.0 0.0

-18413.276276421355 1.2652649142276538e6 0.0
1.2652649142276538e6 -634410.008250314 0.0
0.0 0.0 0.0

-316354.1772883653 2.694603970948066e6 0.0
2.694603970948066e6 52388.36302687162 0.0
0.0 0.0 0.0

107679.50761955741 569867.750109525 0.0
569867.750109525 67787.47003642084 0.0
0.0 0.0 0.0

-315577.025765271 1.9177188462480777e6 0.0
1.9177188462480777e6 -190107.64013684928 0.0
0.0 0.0 0.0

-474099.3054404375 5.108809492828554e6 0.0
5.108809492828554e6 324862.1531777392 0.0
0.0 0.0 0.0

-1.1975541403472538e6 2.642562267478769e6 0.0
2.642562267478769e6 390642.6423620221 0.0
0.0 0.0 0.0

-398906.4195904502 1.318294118288954e6 0.0
1.318294118288954e6 -21661.08313392033 0.0
0.0 0.0 0.0

-246393.8463903172 331373.0815988585 0.0
331373.0815988585 368578.2114521303 0.0
0.0 0.0 0.0

-225085.7558244699 1.8166374841915735e6 0.0
1.8166374841915735e6 215060.85112619575 0.0
0.0 0.0 0.0

-1.37960968398222e6 2.5681130347857093e6 0.0
2.5681130347857093e6 374947.9217388 0.0
0.0 0.0 0.0

-266429.32416362537 1.7070739901269649e6 0.0
1.7070739901269649e6 -360313.4455038486 0.0
0.0 0.0 0.0

-1.2022247914830835e6 2.627083636048462e6 0.0
2.627083636048462e6 352081.96049145365 0.0
0.0 0.0 0.0

-430660.9178103118 2.578568991974874e6 0.0
2.578568991974874e6 677192.3847402286 0.0
0.0 0.0 0.0

-10462.346106470146 227113.08760246314 0.0
227113.08760246314 7207.113007730743 0.0
0.0 0.0 0.0

1.4321331599993014e6 576111.9617694282 0.0
576111.9617694282 -1.7845623328001352e6 0.0
0.0 0.0 0.0

-374313.57305796305 1.7611309285626765e6 0.0
1.7611309285626765e6 138.7538736044371 0.0
0.0 0.0 0.0

-900810.1326572926 4.310533816346845e6 0.0
4.310533816346845e6 428882.14231793635 0.0
0.0 0.0 0.0

-579304.018938717 4.14154968603989e6 0.0
4.14154968603989e6 627312.4593552159 0.0
0.0 0.0 0.0

-1.5674441954665736e6 1.6040115723243055e6 0.0
1.6040115723243055e6 417629.5009396358 0.0
0.0 0.0 0.0

-183538.24519254963 2.1076089418614227e6 0.0
2.1076089418614227e6 -338577.6709520468 0.0
0.0 0.0 0.0

-1.1213164642591078e6 3.70980116537171e6 0.0
3.70980116537171e6 404454.9320959295 0.0
0.0 0.0 0.0

-204802.9138251785 760950.4144104068 0.0
760950.4144104068 39777.73375045392 0.0
0.0 0.0 0.0

-1.7821409089966577e6 676557.7733720253 0.0
676557.7733720253 1.3151098388212954e6 0.0
0.0 0.0 0.0

71453.0925530039 2.174208605278595e6 0.0
2.174208605278595e6 -371508.5111218431 0.0
0.0 0.0 0.0

-406547.4947298821 2.198250911232029e6 0.0
2.198250911232029e6 772864.2108733461 0.0
0.0 0.0 0.0

1.5355788515233872e6 577054.5387208938 0.0
577054.5387208938 -1.8755638592825653e6 0.0
0.0 0.0 0.0

-1.8045156800649783e6 1.5391247038796053e6 0.0
1.5391247038796053e6 1.0298486059527354e6 0.0
0.0 0.0 0.0

-365154.68014754984 -249744.36929861404 0.0
-249744.36929861404 509847.7762505737 0.0
0.0 0.0 0.0

-1.13699911373705e6 -336099.72379037616 0.0
-336099.72379037616 1.3495051602995521e6 0.0
0.0 0.0 0.0

-252363.17619285855 -182315.98283579692 0.0
-182315.98283579692 158941.06461845443 0.0
0.0 0.0 0.0

-285114.4656107255 180477.98674873766 0.0
180477.98674873766 471796.17153786385 0.0
0.0 0.0 0.0

-729233.067091652 2.182679209772506e6 0.0
2.182679209772506e6 592142.6511097315 0.0
0.0 0.0 0.0

-19579.40319064539 1.6070288655134023e6 0.0
1.6070288655134023e6 -672169.8906577688 0.0
0.0 0.0 0.0

-2.7887140836901735e6 1.9981251845048734e6 0.0
1.9981251845048734e6 1.5747284852293667e6 0.0
0.0 0.0 0.0

-36916.99804317542 266884.9951476546 0.0
266884.9951476546 100628.55318574034 0.0
0.0 0.0 0.0

446416.0919090267 1.0746348641892548e6 0.0
1.0746348641892548e6 -958241.9705640207 0.0
0.0 0.0 0.0

-1.2083318575780177e6 972831.937377 0.0
972831.937377 530363.0784434003 0.0
0.0 0.0 0.0

-1.0033405709109106e6 -382584.71444868983 0.0
-382584.71444868983 1.2242742971878739e6 0.0
0.0 0.0 0.0

-320018.37590459996 2.33515171681542e6 0.0
2.33515171681542e6 -221281.89730338653 0.0
0.0 0.0 0.0

308179.1148161115 1.3621477725744199e6 0.0
1.3621477725744199e6 -887025.245049708 0.0
0.0 0.0 0.0

-186609.29374923243 2.2119241552141616e6 0.0
2.2119241552141616e6 -267999.7959128062 0.0
0.0 0.0 0.0

-1.0263395928069555e6 764550.2634047979 0.0
764550.2634047979 491552.72677396465 0.0
0.0 0.0 0.0

422076.4738509856 4.4997805688026175e6 0.0
4.4997805688026175e6 -238455.1394131092 0.0
0.0 0.0 0.0

-37295.38865659328 1.4163083281287292e6 0.0
1.4163083281287292e6 -516696.39955192874 0.0
0.0 0.0 0.0

-161854.50891839046 2.2081977259039422e6 0.0
2.2081977259039422e6 -413720.2524865723 0.0
0.0 0.0 0.0

-61194.21925208697 1.1696161890606943e6 0.0
1.1696161890606943e6 -511575.98059491755 0.0
0.0 0.0 0.0

1.4899043229512994e6 596753.0737692027 0.0
596753.0737692027 -1.8458256661344292e6 0.0
0.0 0.0 0.0

-648308.0962185177 4.56403501560627e6 0.0
4.56403501560627e6 564251.8488005458 0.0
0.0 0.0 0.0

29934.54300720975 1.2348679021650648e6 0.0
1.2348679021650648e6 -704307.6183083024 0.0
0.0 0.0 0.0

-210112.2566722942 2.3028152048571273e6 0.0
2.3028152048571273e6 -179056.07240611865 0.0
0.0 0.0 0.0

-113542.08958695522 1.5577964431284966e6 0.0
1.5577964431284966e6 -302789.0480879727 0.0
0.0 0.0 0.0

126293.84172942041 569718.9835012096 0.0
569718.9835012096 -244399.91285230243 0.0
0.0 0.0 0.0

-326066.5916343038 1.0814698163161664e6 0.0
1.0814698163161664e6 19231.047958957002 0.0
0.0 0.0 0.0

-75116.09290935629 1.5896818503108958e6 0.0
1.5896818503108958e6 1.0644490966699412e6 0.0
0.0 0.0 0.0

1.448130374888442e6 559347.1094282758 0.0
559347.1094282758 -1.809406457941825e6 0.0
0.0 0.0 0.0

-526487.6889204632 390753.9128100754 0.0
390753.9128100754 82621.02449220314 0.0
0.0 0.0 0.0

-526234.2298400023 2.3660927754458734e6 0.0
2.3660927754458734e6 762768.2567083407 0.0
0.0 0.0 0.0

-137013.52226440143 1.4799886429168072e6 0.0
1.4799886429168072e6 -499500.48502983 0.0
0.0 0.0 0.0

2.571743014972817e6 2.277072027432177e6 0.0
2.277072027432177e6 -2.848938863689921e6 0.0
0.0 0.0 0.0

-86782.54458259967 1.7568376021547737e6 0.0
1.7568376021547737e6 -565577.4959178644 0.0
0.0 0.0 0.0

-727149.9310279107 4.287492466897727e6 0.0
4.287492466897727e6 533667.1816898002 0.0
0.0 0.0 0.0

-743777.5312900412 2.3018846127293063e6 0.0
2.3018846127293063e6 86987.32627994267 0.0
0.0 0.0 0.0

-3.0947760861858255e6 1.166895136577177e6 0.0
1.166895136577177e6 1.6741705486689098e6 0.0
0.0 0.0 0.0

-398349.0717679232 121494.71548877229 0.0
121494.71548877229 643826.8990576883 0.0
0.0 0.0 0.0

-339378.94892429595 -307781.7694244414 0.0
-307781.7694244414 375431.93449624337 0.0
0.0 0.0 0.0

-1.085075777829656e6 -132298.72291060048 0.0
-132298.72291060048 1.1049153449460182e6 0.0
0.0 0.0 0.0

-1.0829251573057303e6 2.364687135738475e6 0.0
2.364687135738475e6 263098.07542290096 0.0
0.0 0.0 0.0

53506.80888270296 1.3570834087437447e6 0.0
1.3570834087437447e6 -874652.7204249545 0.0
0.0 0.0 0.0

-299473.02610966325 1.3065054101784155e6 0.0
1.3065054101784155e6 208604.96834759397 0.0
0.0 0.0 0.0

-204571.380032568 2.278068890906192e6 0.0
2.278068890906192e6 -269164.8756238593 0.0
0.0 0.0 0.0

-140075.81483430444 673640.8699710867 0.0
673640.8699710867 -106584.12346038979 0.0
0.0 0.0 0.0

-327241.2006037334 1.7279825432014342e6 0.0
1.7279825432014342e6 59381.2546250966 0.0
0.0 0.0 0.0

-291840.70902796224 3.6972363289401713e6 0.0
3.6972363289401713e6 432066.5566560434 0.0
0.0 0.0 0.0

-347239.12221520627 1.3838820573453994e6 0.0
1.3838820573453994e6 266320.1572389931 0.0
0.0 0.0 0.0

-286822.8162760221 1.2028812327071258e6 0.0
1.2028812327071258e6 277602.6366764765 0.0
0.0 0.0 0.0

-47165.077476331484 1.1767914655184203e6 0.0
1.1767914655184203e6 -520798.7855529756 0.0
0.0 0.0 0.0

-73695.26225110628 234713.80742329024 0.0
234713.80742329024 12848.837088360866 0.0
0.0 0.0 0.0

-1.0654719436297133e6 2.151812586310763e6 0.0
2.151812586310763e6 235725.81303515646 0.0
0.0 0.0 0.0

1.1220339415232432e6 510863.59441783896 0.0
510863.59441783896 -1.458062120903073e6 0.0
0.0 0.0 0.0

-2.4514890626928587e6 -484455.40736197593 0.0
-484455.40736197593 3.16077824368457e6 0.0
0.0 0.0 0.0

-85900.70376194509 2.36499809542878e6 0.0
2.36499809542878e6 -238478.52742783885 0.0
0.0 0.0 0.0

-1.0989405776310908e6 2.345530001485042e6 0.0
2.345530001485042e6 288664.68903273146 0.0
0.0 0.0 0.0

170649.04486953805 1.5163745598006514e6 0.0
1.5163745598006514e6 -800737.5450030011 0.0
0.0 0.0 0.0

-843148.8670847404 4.624005837174074e6 0.0
4.624005837174074e6 469536.91550111945 0.0
0.0 0.0 0.0

42981.84355327126 910628.7289100722 0.0
910628.7289100722 -956637.0697639642 0.0
0.0 0.0 0.0

23228.676978878866 200232.36939766674 0.0
200232.36939766674 6157.913927516265 0.0
0.0 0.0 0.0

-3.6994040271108747e6 1.3027950794619042e6 0.0
1.3027950794619042e6 3.478163943921714e6 0.0
0.0 0.0 0.0

-433460.00319066003 1.4729811015960234e6 0.0
1.4729811015960234e6 -4723.701398247969 0.0
0.0 0.0 0.0

-281891.28495289746 1.5583426162252824e6 0.0
1.5583426162252824e6 242121.8989582045 0.0
0.0 0.0 0.0

-19291.913431921363 -154987.69604952022 0.0
-154987.69604952022 -123319.66322654052 0.0
0.0 0.0 0.0

-527268.0208971015 1.4546325134845225e6 0.0
1.4546325134845225e6 -34251.74416499844 0.0
0.0 0.0 0.0

-339130.7439538177 1.7779365185126113e6 0.0
1.7779365185126113e6 22224.62292462967 0.0
0.0 0.0 0.0

1.4212459424396018e6 581880.2771041631 0.0
581880.2771041631 -1.7358126612622146e6 0.0
0.0 0.0 0.0

-113480.75360792951 613837.9078479677 0.0
613837.9078479677 -140930.15010894754 0.0
0.0 0.0 0.0

88612.73746215254 298442.6898040401 0.0
298442.6898040401 -175498.04963190114 0.0
0.0 0.0 0.0

-1.015376304469904e6 4.986716392784455e6 0.0
4.986716392784455e6 498303.7949544857 0.0
0.0 0.0 0.0

196457.89086183265 -38992.75048993513 0.0
-38992.75048993513 -147792.59875927033 0.0
0.0 0.0 0.0

-185279.80205998395 265968.7372727855 0.0
265968.7372727855 94448.98723794191 0.0
0.0 0.0 0.0

-1.2718438898716376e6 2.6113472871122817e6 0.0
2.6113472871122817e6 340633.2540408826 0.0
0.0 0.0 0.0

-1.2830888114634887e6 -367065.8259035376 0.0
-367065.8259035376 1.668994586908021e6 0.0
0.0 0.0 0.0

60904.52121202882 -190115.71619689683 0.0
-190115.71619689683 -213981.15194901128 0.0
0.0 0.0 0.0

735944.1051963036 549575.6647183406 0.0
549575.6647183406 -1.1147477149231215e6 0.0
0.0 0.0 0.0

-336991.948794529 1.1248073402728434e6 0.0
1.1248073402728434e6 63825.54119963286 0.0
0.0 0.0 0.0

-529820.4174669923 190573.61343800023 0.0
190573.61343800023 584066.5984388813 0.0
0.0 0.0 0.0

-332644.90019581997 2.369677311140681e6 0.0
2.369677311140681e6 -194072.22568258358 0.0
0.0 0.0 0.0

-215703.72286184755 2.311073138949415e6 0.0
2.311073138949415e6 -248170.65135017133 0.0
0.0 0.0 0.0

88852.32322917448 1.252282953973204e6 0.0
1.252282953973204e6 -991439.2912734693 0.0
0.0 0.0 0.0

-62173.845877931075 1.6562366198584486e6 0.0
1.6562366198584486e6 -590378.5368678423 0.0
0.0 0.0 0.0

1657.2255921385076 1.374699761762683e6 0.0
1.374699761762683e6 -286563.8530103328 0.0
0.0 0.0 0.0

-514076.43151828856 278511.0202791844 0.0
278511.0202791844 482122.54651782947 0.0
0.0 0.0 0.0

-741044.6929569524 4.386727988482792e6 0.0
4.386727988482792e6 512891.17363341263 0.0
0.0 0.0 0.0

-545152.4194172304 1.7080099204655995e6 0.0
1.7080099204655995e6 106895.4628864977 0.0
0.0 0.0 0.0

-1.1533405779137427e6 2.3620474816310005e6 0.0
2.3620474816310005e6 263204.0242712522 0.0
0.0 0.0 0.0

938125.9115488341 3.376148160449234e6 0.0
3.376148160449234e6 5.621817359471124e6 0.0
0.0 0.0 0.0

-360598.0324523911 1.21305089094196e6 0.0
1.21305089094196e6 107143.40219026958 0.0
0.0 0.0 0.0

-192710.0077994665 2.272429686568701e6 0.0
2.272429686568701e6 -319342.673836667 0.0
0.0 0.0 0.0

-117890.45256243431 1.5623002580150443e6 0.0
1.5623002580150443e6 -562378.6414062954 0.0
0.0 0.0 0.0

-155056.4378638834 2.1637119952682615e6 0.0
2.1637119952682615e6 -430029.6929459413 0.0
0.0 0.0 0.0

-1.0523822658323955e6 4.496234997250225e6 0.0
4.496234997250225e6 438753.5689590593 0.0
0.0 0.0 0.0

-308194.70724679955 1.1048679291927442e6 0.0
1.1048679291927442e6 -1245.5068637239747 0.0
0.0 0.0 0.0

-153032.98612172288 1.5651518006846877e6 0.0
1.5651518006846877e6 -315535.97186053253 0.0
0.0 0.0 0.0

-135226.18855950978 1.569011127260931e6 0.0
1.569011127260931e6 -439269.0855579954 0.0
0.0 0.0 0.0

24467.480876920163 789239.428794437 0.0
789239.428794437 -671109.5803888418 0.0
0.0 0.0 0.0

-1.3285028852882695e6 5.83422992463849e6 0.0
5.83422992463849e6 316958.86970939283 0.0
0.0 0.0 0.0

1.2745067793083186e6 671857.6499927357 0.0
671857.6499927357 -1.7355648070632808e6 0.0
0.0 0.0 0.0

1.798396575803275e6 5.508694532850457e6 0.0
5.508694532850457e6 -301385.2579622539 0.0
0.0 0.0 0.0

457666.3183626891 6.090714697318199e6 0.0
6.090714697318199e6 -1.8005377794671236e6 0.0
0.0 0.0 0.0

-7082.42902762592 2.2547476664186716e6 0.0
2.2547476664186716e6 79612.71143733332 0.0
0.0 0.0 0.0

-17127.541498238847 1.3864953251807075e6 0.0
1.3864953251807075e6 -39414.15313556003 0.0
0.0 0.0 0.0

-742892.5252953795 1.2485477195066195e6 0.0
1.2485477195066195e6 97293.10047729939 0.0
0.0 0.0 0.0

-1.6172148123942772e6 817964.4505206726 0.0
817964.4505206726 -459797.54832809453 0.0
0.0 0.0 0.0

-155175.52503799464 551419.662755278 0.0
551419.662755278 -475147.4567264778 0.0
0.0 0.0 0.0

-1.0262783734262412e6 4.0044182016940042e6 0.0
4.0044182016940042e6 407039.48088672594 0.0
0.0 0.0 0.0

-137167.45296964006 2.1351446320853606e6 0.0
2.1351446320853606e6 -493378.5462012389 0.0
0.0 0.0 0.0

1.084640227269488e6 791334.5921245799 0.0
791334.5921245799 -1.5674919234967348e6 0.0
0.0 0.0 0.0

-186146.64404578766 2.130372567117675e6 0.0
2.130372567117675e6 -486060.73774981365 0.0
0.0 0.0 0.0

348555.2936064177 1.0748615528729067e6 0.0
1.0748615528729067e6 -925563.383076414 0.0
0.0 0.0 0.0

56882.10491866425 316900.0976796383 0.0
316900.0976796383 -315521.7690921164 0.0
0.0 0.0 0.0

93266.60131937011 1.664464284022006e6 0.0
1.664464284022006e6 556527.6773362102 0.0
0.0 0.0 0.0

-39467.05063136773 1.1925289570951788e6 0.0
1.1925289570951788e6 -311090.14870239573 0.0
0.0 0.0 0.0

-18727.550374831677 56259.295826636364 0.0
56259.295826636364 73937.28185118316 0.0
0.0 0.0 0.0

-866070.4068816984 -133247.42373759876 0.0
-133247.42373759876 886754.8383159512 0.0
0.0 0.0 0.0

-559134.2236804218 1.5793640938073038e6 0.0
1.5793640938073038e6 173253.52930834398 0.0
0.0 0.0 0.0

-60055.58208751411 1.6340731506264554e6 0.0
1.6340731506264554e6 1.1234329945004296e6 0.0
0.0 0.0 0.0

-143642.83766831295 721900.2815387729 0.0
721900.2815387729 -26142.89991825121 0.0
0.0 0.0 0.0

-172578.42690197896 -189289.962686956 0.0
-189289.962686956 266707.7451927794 0.0
0.0 0.0 0.0

-7.39338423856909e6 -226200.094266015 0.0
-226200.094266015 7.298401621475793e6 0.0
0.0 0.0 0.0

-516458.0641519323 1.7954948360695043e6 0.0
1.7954948360695043e6 6743.457388598967 0.0
0.0 0.0 0.0

-637651.7348850617 4.1434108428404224e6 0.0
4.1434108428404224e6 558174.2998114538 0.0
0.0 0.0 0.0

-105726.04437056114 1.519265314243229e6 0.0
1.519265314243229e6 1.1009542749663473e6 0.0
0.0 0.0 0.0

-25517.373543181035 632756.1586089028 0.0
632756.1586089028 -474295.3026894936 0.0
0.0 0.0 0.0

-328693.733802794 3.652248694951048e6 0.0
3.652248694951048e6 521305.62130095245 0.0
0.0 0.0 0.0

-3.1724649335318897e6 -475737.4669299857 0.0
-475737.4669299857 3.993629743001992e6 0.0
0.0 0.0 0.0

-179521.47806376294 3.279740944713063e6 0.0
3.279740944713063e6 260043.53791133274 0.0
0.0 0.0 0.0

-1.1125390855320147e6 2.139382999892745e6 0.0
2.139382999892745e6 233638.94695086958 0.0
0.0 0.0 0.0

-14344.967030400469 1.1404549324491206e6 0.0
1.1404549324491206e6 -719395.7090983368 0.0
0.0 0.0 0.0

-266680.25893727655 1.4446989959501233e6 0.0
1.4446989959501233e6 518470.506032103 0.0
0.0 0.0 0.0

-448815.30756559235 149243.29091647855 0.0
149243.29091647855 411912.0373270797 0.0
0.0 0.0 0.0

-509426.05098434625 4.777753858828331e6 0.0
4.777753858828331e6 486607.22821324115 0.0
0.0 0.0 0.0

-389951.3020022197 887397.04354489 0.0
887397.04354489 -232099.47643146577 0.0
0.0 0.0 0.0

-1.6931823722050348e6 4.436492864365429e6 0.0
4.436492864365429e6 548724.4818446682 0.0
0.0 0.0 0.0

-264790.77272030624 2.23547035576475e6 0.0
2.23547035576475e6 -48688.23391675431 0.0
0.0 0.0 0.0

-851315.9202427188 4.1117139173169583e6 0.0
4.1117139173169583e6 452716.780862424 0.0
0.0 0.0 0.0

1.256643471490351e6 572136.9688091069 0.0
572136.9688091069 -1.6695131515219978e6 0.0
0.0 0.0 0.0

-121534.69509661416 2.4059885961539694e6 0.0
2.4059885961539694e6 -99612.13742791227 0.0
0.0 0.0 0.0

-521731.87202049757 2.6135203750338545e6 0.0
2.6135203750338545e6 687252.883406455 0.0
0.0 0.0 0.0

-1.097807396627863e6 2.391258968912779e6 0.0
2.391258968912779e6 270973.4267631206 0.0
0.0 0.0 0.0

43567.38829031872 1.5743156409383628e6 0.0
1.5743156409383628e6 751645.8691736594 0.0
0.0 0.0 0.0

-374668.16102896316 -240930.722544216 0.0
-240930.722544216 325015.7723686429 0.0
0.0 0.0 0.0

-849491.5818891985 1.3309525776099483e6 0.0
1.3309525776099483e6 2.214152287986546e6 0.0
0.0 0.0 0.0

-269517.84117088927 1.8937738915814338e6 0.0
1.8937738915814338e6 -34939.52778092443 0.0
0.0 0.0 0.0

-252910.65562753618 3.4656141872317693e6 0.0
3.4656141872317693e6 434650.5279748342 0.0
0.0 0.0 0.0

-360217.6426358152 2.9829692782494784e6 0.0
2.9829692782494784e6 117225.72264582383 0.0
0.0 0.0 0.0

-418319.7125799266 5.081504792443635e6 0.0
5.081504792443635e6 363760.6901781709 0.0
0.0 0.0 0.0

34112.37057776129 1.1898983251011483e6 0.0
1.1898983251011483e6 -443940.08864786173 0.0
0.0 0.0 0.0

-287990.6503909399 1.6014198628014568e6 0.0
1.6014198628014568e6 214196.34793910428 0.0
0.0 0.0 0.0

-808459.951124815 5.354275278926731e6 0.0
5.354275278926731e6 303096.1768971409 0.0
0.0 0.0 0.0

358618.7429520316 1.4879929423211769e6 0.0
1.4879929423211769e6 -765789.2416282061 0.0
0.0 0.0 0.0

581292.8859554953 154225.36271037036 0.0
154225.36271037036 -975788.8444239008 0.0
0.0 0.0 0.0

-122963.58855720343 1.331435071704969e6 0.0
1.331435071704969e6 -124770.5660579732 0.0
0.0 0.0 0.0

-632049.1303132961 4.925820414274835e6 0.0
4.925820414274835e6 365759.0546556343 0.0
0.0 0.0 0.0

-92414.08372140807 1.5690375710554707e6 0.0
1.5690375710554707e6 -435051.57813300204 0.0
0.0 0.0 0.0

1.2606616955112207e6 531830.5459666699 0.0
531830.5459666699 -1.5798749033051021e6 0.0
0.0 0.0 0.0

-2.208975006431665e6 -700653.887768697 0.0
-700653.887768697 3.06444540755422e6 0.0
0.0 0.0 0.0

244540.48272455938 1.3924313309821188e6 0.0
1.3924313309821188e6 -818716.0683706393 0.0
0.0 0.0 0.0

-324802.4859507536 1.5442106165750143e6 0.0
1.5442106165750143e6 281481.4815721759 0.0
0.0 0.0 0.0

24591.678431899265 411602.3473923748 0.0
411602.3473923748 -188890.62167348308 0.0
0.0 0.0 0.0

-320676.7728376768 3.5167614428911353e6 0.0
3.5167614428911353e6 341839.08036501415 0.0
0.0 0.0 0.0

584007.9554652616 431420.4243956237 0.0
431420.4243956237 -1.0795997483096407e6 0.0
0.0 0.0 0.0

-310789.628271411 2.466613823510394e6 0.0
2.466613823510394e6 -94894.0506634062 0.0
0.0 0.0 0.0

-517756.44028948504 2.382257432694368e6 0.0
2.382257432694368e6 764003.5386251151 0.0
0.0 0.0 0.0

-818401.1378138993 6.169589108339881e6 0.0
6.169589108339881e6 170420.82170284487 0.0
0.0 0.0 0.0

-267468.10124349815 2.8368146445877664e6 0.0
2.8368146445877664e6 60754.73183176556 0.0
0.0 0.0 0.0

-525976.2775500552 1.689625219475665e6 0.0
1.689625219475665e6 2.6454273275481984e6 0.0
0.0 0.0 0.0

1.5462485516303577e6 565401.0653110091 0.0
565401.0653110091 -1.9303125267342546e6 0.0
0.0 0.0 0.0

-1.0149132028487104e6 4.629292887787183e6 0.0
4.629292887787183e6 395306.3413277373 0.0
0.0 0.0 0.0

-334498.38298010617 2.44929363235797e6 0.0
2.44929363235797e6 -59923.927692995974 0.0
0.0 0.0 0.0

-2.106075855059388e6 115401.49627551321 0.0
115401.49627551321 1.991938057234275e6 0.0
0.0 0.0 0.0

-308749.4485736494 1.7712285044184076e6 0.0
1.7712285044184076e6 39897.1026484859 0.0
0.0 0.0 0.0

322328.0142128603 25821.870203255465 0.0
25821.870203255465 -725074.5660359673 0.0
0.0 0.0 0.0

29182.375069250236 1.578358788302859e6 0.0
1.578358788302859e6 -702964.1618458948 0.0
0.0 0.0 0.0

-94329.0055370525 2.268866748711797e6 0.0
2.268866748711797e6 53813.02662887306 0.0
0.0 0.0 0.0

252395.48328235693 1.2417748985071827e6 0.0
1.2417748985071827e6 -794100.7706890679 0.0
0.0 0.0 0.0

1.4605211900016414e6 608095.2127411189 0.0
608095.2127411189 -1.8741341457813047e6 0.0
0.0 0.0 0.0

922327.1162214905 3.950448360291529e6 0.0
3.950448360291529e6 -1.229608743580516e6 0.0
0.0 0.0 0.0

-5.75613140351863e6 1.820198862894134e6 0.0
1.820198862894134e6 1.3696368594768955e6 0.0
0.0 0.0 0.0

-262896.1966083566 3.432693528357331e6 0.0
3.432693528357331e6 1.1596884879683524e6 0.0
0.0 0.0 0.0

-520950.1231463114 3.2335492596930796e6 0.0
3.2335492596930796e6 460981.1412502129 0.0
0.0 0.0 0.0

-290038.47744707303 1.5696444946815763e6 0.0
1.5696444946815763e6 247894.4756888998 0.0
0.0 0.0 0.0

1.214542295326318e6 528271.9078713506 0.0
528271.9078713506 -1.4363231825863014e6 0.0
0.0 0.0 0.0

-236656.3040843133 1.9235303506416308e6 0.0
1.9235303506416308e6 -15749.596897288626 0.0
0.0 0.0 0.0

-1.090182029485831e6 4.718106664634299e6 0.0
4.718106664634299e6 424682.8180480773 0.0
0.0 0.0 0.0

15426.895813698357 1.287015046485082e6 0.0
1.287015046485082e6 -769216.5758248162 0.0
0.0 0.0 0.0

-831773.4927356632 4.0598869522163835e6 0.0
4.0598869522163835e6 492323.7809007147 0.0
0.0 0.0 0.0

-167974.96665862197 774569.1811624654 0.0
774569.1811624654 208485.49855134217 0.0
0.0 0.0 0.0

-543668.7071794212 2.4555335928324778e6 0.0
2.4555335928324778e6 600733.5165113085 0.0
0.0 0.0 0.0

-284577.3590321457 1.776582169515027e6 0.0
1.776582169515027e6 -93327.83569758119 0.0
0.0 0.0 0.0

-308369.0391701123 2.4419455807586242e6 0.0
2.4419455807586242e6 -64066.398878574604 0.0
0.0 0.0 0.0

-727575.0825168536 2.066179812013773e6 0.0
2.066179812013773e6 127970.63323494873 0.0
0.0 0.0 0.0

61422.95106455637 1.5991237115209224e6 0.0
1.5991237115209224e6 -923243.9122710084 0.0
0.0 0.0 0.0

-1.3940029003011084e6 -423375.2092964717 0.0
-423375.2092964717 1.6234965985310003e6 0.0
0.0 0.0 0.0

-227322.55059120758 2.204279795079975e6 0.0
2.204279795079975e6 -404799.6822015523 0.0
0.0 0.0 0.0

-351335.84534864256 2.3600258659373797e6 0.0
2.3600258659373797e6 -143346.56287920955 0.0
0.0 0.0 0.0

-23888.375402039237 2.197253590861003e6 0.0
2.197253590861003e6 -763682.1579700422 0.0
0.0 0.0 0.0

899442.7570548585 539841.82063916 0.0
539841.82063916 -1.2012251653603436e6 0.0
0.0 0.0 0.0

-148465.5234169485 2.060624599504897e6 0.0
2.060624599504897e6 -396315.603629726 0.0
0.0 0.0 0.0

-303986.5561364839 1.686656563093865e6 0.0
1.686656563093865e6 92292.20564183658 0.0
0.0 0.0 0.0

-1.0122416235746427e6 4.0457101514980667e6 0.0
4.0457101514980667e6 415035.4217017925 0.0
0.0 0.0 0.0

-321056.89309815684 1.210906303595576e6 0.0
1.210906303595576e6 205497.53133615982 0.0
0.0 0.0 0.0

-243959.43266987268 2.027006638850688e6 0.0
2.027006638850688e6 204811.92760221736 0.0
0.0 0.0 0.0

-2.236670513848168e6 396562.8657678303 0.0
396562.8657678303 1.5227643780487105e6 0.0
0.0 0.0 0.0

-847725.6032432999 -382234.7239157113 0.0
-382234.7239157113 1.1792365460487956e6 0.0
0.0 0.0 0.0

-130148.80581074388 1.2580250265304393e6 0.0
1.2580250265304393e6 -434646.1914212642 0.0
0.0 0.0 0.0

-178452.86002610318 3.441754967475478e6 0.0
3.441754967475478e6 335728.575091308 0.0
0.0 0.0 0.0

-1.422468469030308e6 2.5531230011212644e6 0.0
2.5531230011212644e6 353880.9502746113 0.0
0.0 0.0 0.0

443680.36922553607 1.0921047528361594e6 0.0
1.0921047528361594e6 -967264.8358490402 0.0
0.0 0.0 0.0

-106169.4413528622 2.3778422743076636e6 0.0
2.3778422743076636e6 -293288.0625259983 0.0
0.0 0.0 0.0

-306721.8192159921 3.1734646651187516e6 0.0
3.1734646651187516e6 301555.0763960184 0.0
0.0 0.0 0.0

-216001.9008958862 2.2293029184013265e6 0.0
2.2293029184013265e6 -256664.12194506297 0.0
0.0 0.0 0.0

-323599.32808014716 3.0367164480197965e6 0.0
3.0367164480197965e6 146126.22981650737 0.0
0.0 0.0 0.0

22775.153229984702 2.2959577684257315e6 0.0
2.2959577684257315e6 -317942.1187567739 0.0
0.0 0.0 0.0

-1.0904530338797804e6 4.056197458102481e6 0.0
4.056197458102481e6 419363.9310299645 0.0
0.0 0.0 0.0

384507.28818451276 810490.6548593252 0.0
810490.6548593252 -882226.2129708562 0.0
0.0 0.0 0.0

1.4376326420000289e6 592706.3034731683 0.0
592706.3034731683 -1.8466511072123828e6 0.0
0.0 0.0 0.0

186135.1843492308 226017.7882560208 0.0
226017.7882560208 -50657.45249394876 0.0
0.0 0.0 0.0

-61345.901757430845 188801.09003535437 0.0
188801.09003535437 -64453.239343378606 0.0
0.0 0.0 0.0

-332395.1055027965 1.7045395791777654e6 0.0
1.7045395791777654e6 457184.77617294085 0.0
0.0 0.0 0.0

185878.1636644362 2.0938135704579845e6 0.0
2.0938135704579845e6 -368049.0897790648 0.0
0.0 0.0 0.0

-7197.195121599812 2.349808450910181e6 0.0
2.349808450910181e6 -260090.23240292206 0.0
0.0 0.0 0.0

137617.49779698168 60128.16605801393 0.0
60128.16605801393 -707277.5038600595 0.0
0.0 0.0 0.0

-214373.79224664433 2.789758747229195e6 0.0
2.789758747229195e6 10673.46084516788 0.0
0.0 0.0 0.0

-7747.616162870199 329087.60735728376 0.0
329087.60735728376 -86881.78222884881 0.0
0.0 0.0 0.0

-291175.0319417075 3.0065134734033076e6 0.0
3.0065134734033076e6 154094.90610282193 0.0
0.0 0.0 0.0

-403207.65441193717 372539.04697611206 0.0
372539.04697611206 597020.622316226 0.0
0.0 0.0 0.0

-565470.1987552647 4.331025711138576e6 0.0
4.331025711138576e6 599967.031604235 0.0
0.0 0.0 0.0

-539962.07151401 5.150412026868785e6 0.0
5.150412026868785e6 447445.6897754782 0.0
0.0 0.0 0.0

690207.643648233 521438.29154572345 0.0
521438.29154572345 -1.1786430551220218e6 0.0
0.0 0.0 0.0

923533.2385245495 507653.4175569505 0.0
507653.4175569505 -1.3157070445591735e6 0.0
0.0 0.0 0.0

-50112.73461966129 3.7629526165088904e6 0.0
3.7629526165088904e6 396988.6561475974 0.0
0.0 0.0 0.0

98651.09584436487 1.756407683120512e6 0.0
1.756407683120512e6 472526.6371887766 0.0
0.0 0.0 0.0

-275223.35039183625 2.2724530058178646e6 0.0
2.2724530058178646e6 -311895.5761590932 0.0
0.0 0.0 0.0

-351042.256209744 -309458.3519864349 0.0
-309458.3519864349 422808.0856118883 0.0
0.0 0.0 0.0

-1.3557256327815074e6 2.654243788790141e6 0.0
2.654243788790141e6 334694.85556077585 0.0
0.0 0.0 0.0

-72799.4311559776 278263.9228896763 0.0
278263.9228896763 46294.39579659554 0.0
0.0 0.0 0.0

2210.9249179599583 -134143.6995313739 0.0
-134143.6995313739 14574.43980226032 0.0
0.0 0.0 0.0

-500673.2773331312 3.1281653511779443e6 0.0
3.1281653511779443e6 297697.3973096068 0.0
0.0 0.0 0.0

1.4583809078698861e6 594097.6263814103 0.0
594097.6263814103 -1.8649598546036487e6 0.0
0.0 0.0 0.0

-699789.0854096813 1.7414822337137305e6 0.0
1.7414822337137305e6 124909.30424621841 0.0
0.0 0.0 0.0

-737735.4873535868 4.0272684779180125e6 0.0
4.0272684779180125e6 541873.367425533 0.0
0.0 0.0 0.0

135065.83001150168 1.44852881471729e6 0.0
1.44852881471729e6 -1.0094474734416534e6 0.0
0.0 0.0 0.0

2402.984773133154 3.3022187034462607e6 0.0
3.3022187034462607e6 613193.6379338757 0.0
0.0 0.0 0.0

-543998.744744444 1.7158258935671004e6 0.0
1.7158258935671004e6 104361.13989783562 0.0
0.0 0.0 0.0

-368228.46681761113 -248923.20999576594 0.0
-248923.20999576594 348177.80078743945 0.0
0.0 0.0 0.0

29735.93044759291 -135476.99135574224 0.0
-135476.99135574224 -260234.38417480767 0.0
0.0 0.0 0.0

-251999.95757195103 2.500003546100494e6 0.0
2.500003546100494e6 -91691.22290794531 0.0
0.0 0.0 0.0

-449331.0871918354 3.1856425263084467e6 0.0
3.1856425263084467e6 532721.7780009552 0.0
0.0 0.0 0.0

-445450.0326951047 3.2859440570982858e6 0.0
3.2859440570982858e6 548338.5000579896 0.0
0.0 0.0 0.0

-2.2238897484070985e6 -462676.0143250657 0.0
-462676.0143250657 2.6058698327953317e6 0.0
0.0 0.0 0.0

653215.2760985416 56769.93027077833 0.0
56769.93027077833 -552839.3986393511 0.0
0.0 0.0 0.0

-221905.65886770136 1.8722501514527218e6 0.0
1.8722501514527218e6 -137941.8998761864 0.0
0.0 0.0 0.0

-528396.262660344 1.6691112079045647e6 0.0
1.6691112079045647e6 -180079.53856389737 0.0
0.0 0.0 0.0

-1.1916508776078755e6 1.488957173364177e6 0.0
1.488957173364177e6 514287.90010807285 0.0
0.0 0.0 0.0

-1.25323151975568e6 4.055102463112918e6 0.0
4.055102463112918e6 509235.222610748 0.0
0.0 0.0 0.0

5303.011504297436 2.037389099333221e6 0.0
2.037389099333221e6 -413199.8751999548 0.0
0.0 0.0 0.0

-487343.7495901906 -273096.591880898 0.0
-273096.591880898 529073.5944616257 0.0
0.0 0.0 0.0

-59824.08717460513 3.601738316106564e6 0.0
3.601738316106564e6 376511.5088408413 0.0
0.0 0.0 0.0

-417094.9928405853 2.8678242248299606e6 0.0
2.8678242248299606e6 348337.08157930645 0.0
0.0 0.0 0.0

81396.94807450433 -55066.15756844625 0.0
-55066.15756844625 -96544.06607246018 0.0
0.0 0.0 0.0

-356093.5820611736 1.252160109806253e6 0.0
1.252160109806253e6 93849.66353444823 0.0
0.0 0.0 0.0

-388100.1096078952 1.4483407311623746e6 0.0
1.4483407311623746e6 122962.86291663378 0.0
0.0 0.0 0.0

-317724.34526184306 -181837.1925032457 0.0
-181837.1925032457 477187.6521647875 0.0
0.0 0.0 0.0

1.0902652604459487e6 520737.28213352966 0.0
520737.28213352966 -1.4135016494589192e6 0.0
0.0 0.0 0.0

994368.877341196 821320.011806646 0.0
821320.011806646 -1.6141256700495812e6 0.0
0.0 0.0 0.0

-610753.0986253144 2.1999296446475843e6 0.0
2.1999296446475843e6 522074.37715049286 0.0
0.0 0.0 0.0

195192.99677661897 373014.8967674233 0.0
373014.8967674233 -435923.6765288905 0.0
0.0 0.0 0.0

-280194.6072914683 5.473221534822167e6 0.0
5.473221534822167e6 3126.4346974906803 0.0
0.0 0.0 0.0

1.1957781387383e6 541632.5369210148 0.0
541632.5369210148 -1.4689520422700914e6 0.0
0.0 0.0 0.0

727172.8597144214 392737.5234521163 0.0
392737.5234521163 -1.1053172927244033e6 0.0
0.0 0.0 0.0

979864.0939054764 496739.2630619275 0.0
496739.2630619275 -1.2114123395050776e6 0.0
0.0 0.0 0.0

45523.04817924925 2.212773121326499e6 0.0
2.212773121326499e6 -340772.8343029671 0.0
0.0 0.0 0.0

94399.74084561289 2.1946600811665845e6 0.0
2.1946600811665845e6 -372731.4218830006 0.0
0.0 0.0 0.0

71161.46183904979 1.6177606579407419e6 0.0
1.6177606579407419e6 -766941.9476630159 0.0
0.0 0.0 0.0

-357094.21705067105 5.531594251015058e6 0.0
5.531594251015058e6 76560.50223076581 0.0
0.0 0.0 0.0

18580.07788251221 -101363.92774785217 0.0
-101363.92774785217 -121238.26278985976 0.0
0.0 0.0 0.0

-337491.224917101 1.3984648789344535e6 0.0
1.3984648789344535e6 238095.82055993367 0.0
0.0 0.0 0.0

-1.2538868043658086e6 2.6379523212092826e6 0.0
2.6379523212092826e6 292282.76235300285 0.0
0.0 0.0 0.0

-659994.0629589187 4.451353719076491e6 0.0
4.451353719076491e6 567627.6073032013 0.0
0.0 0.0 0.0

132433.90185100885 -141957.03220703188 0.0
-141957.03220703188 -225299.32208611935 0.0
0.0 0.0 0.0

104757.07530373917 -101792.68610107597 0.0
-101792.68610107597 -115747.60086045417 0.0
0.0 0.0 0.0

136512.80162362644 1.8228954342034291e6 0.0
1.8228954342034291e6 228729.14694943125 0.0
0.0 0.0 0.0

-662204.1973061846 -291230.4991905592 0.0
-291230.4991905592 880690.3147358622 0.0
0.0 0.0 0.0

-335255.3213825164 3.488364664009493e6 0.0
3.488364664009493e6 447218.51637690864 0.0
0.0 0.0 0.0

-477180.9101667147 2.832846830800533e6 0.0
2.832846830800533e6 237011.3523459437 0.0
0.0 0.0 0.0

-111200.91927193862 1.8852587069358816e6 0.0
1.8852587069358816e6 -436405.3616869758 0.0
0.0 0.0 0.0

-771060.1893882393 2.2900584629008975e6 0.0
2.2900584629008975e6 119745.077220471 0.0
0.0 0.0 0.0

-343230.98240401555 1.1561026908640456e6 0.0
1.1561026908640456e6 72422.07243487818 0.0
0.0 0.0 0.0

60652.53359001819 332666.5340780877 0.0
332666.5340780877 -103444.08599346268 0.0
0.0 0.0 0.0

-1.89676881271944e6 1.7362695276383841e6 0.0
1.7362695276383841e6 849064.523773468 0.0
0.0 0.0 0.0

275166.8574053872 458448.96682160825 0.0
458448.96682160825 -1.4967770066921772e6 0.0
0.0 0.0 0.0

-236177.6976394823 2.3271671622301606e6 0.0
2.3271671622301606e6 -226050.4958066063 0.0
0.0 0.0 0.0

1.2700027956383675e6 676913.4579445113 0.0
676913.4579445113 -1.66841682619764e6 0.0
0.0 0.0 0.0

-379665.70215506793 3.1511621801650627e6 0.0
3.1511621801650627e6 267261.04240754363 0.0
0.0 0.0 0.0

-152110.30470628003 499399.7660642278 0.0
499399.7660642278 -658752.9758510245 0.0
0.0 0.0 0.0

133047.11174273537 1.6032961900977623e6 0.0
1.6032961900977623e6 -632519.2032993712 0.0
0.0 0.0 0.0

-162916.9292004655 4.192005580545842e6 0.0
4.192005580545842e6 169763.24191998376 0.0
0.0 0.0 0.0

110621.6299345197 -114747.821350494 0.0
-114747.821350494 -162233.94091594167 0.0
0.0 0.0 0.0

-387098.3748026152 3.226418347513452e6 0.0
3.226418347513452e6 997336.5339753348 0.0
0.0 0.0 0.0

-390068.48403313314 1.0362196817336256e6 0.0
1.0362196817336256e6 664709.5638437477 0.0
0.0 0.0 0.0

-263552.24898201006 1.681185087164525e6 0.0
1.681185087164525e6 -35346.499250907626 0.0
0.0 0.0 0.0

-988063.5491759195 5.490020937951198e6 0.0
5.490020937951198e6 319929.42711236293 0.0
0.0 0.0 0.0

-686848.6871526763 3.7731771066111117e6 0.0
3.7731771066111117e6 541063.2484127504 0.0
0.0 0.0 0.0

-131901.09984725504 659716.6838926635 0.0
659716.6838926635 1166.7938450050642 0.0
0.0 0.0 0.0

934545.8701227922 1.0979501978511224e6 0.0
1.0979501978511224e6 -1.7942593225700674e6 0.0
0.0 0.0 0.0

81804.53302266472 -107894.93012245442 0.0
-107894.93012245442 -156073.36468772902 0.0
0.0 0.0 0.0

-31478.33095053907 2.2818827775971103e6 0.0
2.2818827775971103e6 -286927.9420250579 0.0
0.0 0.0 0.0

-218027.39280336237 2.336622383753502e6 0.0
2.336622383753502e6 458915.58503337915 0.0
0.0 0.0 0.0

-748519.4758500556 2.0868997490782933e6 0.0
2.0868997490782933e6 589576.8813708758 0.0
0.0 0.0 0.0

-321390.3175824734 1.4162947114264474e6 0.0
1.4162947114264474e6 204669.3060093522 0.0
0.0 0.0 0.0

-645585.7911142319 1.657436911993107e6 0.0
1.657436911993107e6 161345.32114978196 0.0
0.0 0.0 0.0

-1.985387704031608e6 1.7848186970660703e6 0.0
1.7848186970660703e6 954815.8131694469 0.0
0.0 0.0 0.0

-71986.56321235934 1.6420028898334627e6 0.0
1.6420028898334627e6 152725.4299114784 0.0
0.0 0.0 0.0

-578460.7969833568 1.6289447894447085e6 0.0
1.6289447894447085e6 126810.24124442058 0.0
0.0 0.0 0.0

-595259.7101784439 3.713153990354408e6 0.0
3.713153990354408e6 564563.2249374767 0.0
0.0 0.0 0.0

-462729.5990658718 3.06089979767328e6 0.0
3.06089979767328e6 794321.3510443744 0.0
0.0 0.0 0.0

-728687.1428639109 4.209492252261832e6 0.0
4.209492252261832e6 515102.23972120706 0.0
0.0 0.0 0.0

55526.05157796855 332742.4602746326 0.0
332742.4602746326 -645381.8503156212 0.0
0.0 0.0 0.0

-382096.1274240111 2.459477523164468e6 0.0
2.459477523164468e6 -88892.481725859 0.0
0.0 0.0 0.0

222111.45567224512 -15881.030263645664 0.0
-15881.030263645664 -83166.35371155739 0.0
0.0 0.0 0.0

1.0361815562092013e6 531446.3542895794 0.0
531446.3542895794 -1.3449188477145599e6 0.0
0.0 0.0 0.0

1.2221967951921555e6 742647.7200444759 0.0
742647.7200444759 -1.633703097518772e6 0.0
0.0 0.0 0.0

-372086.6971467658 1.8573782310902323e6 0.0
1.8573782310902323e6 509765.20480500866 0.0
0.0 0.0 0.0

-129511.49134936243 2.0605155344310384e6 0.0
2.0605155344310384e6 -339899.29603842105 0.0
0.0 0.0 0.0

-148086.1061614918 667326.1585160292 0.0
667326.1585160292 -64162.56986606133 0.0
0.0 0.0 0.0

1.242200710510829e6 519690.2123309644 0.0
519690.2123309644 -1.56448145765016e6 0.0
0.0 0.0 0.0

-72483.86428650575 2.0956031009276528e6 0.0
2.0956031009276528e6 -560641.3651389971 0.0
0.0 0.0 0.0

-158666.92863636796 1.7595853533812682e6 0.0
1.7595853533812682e6 -494741.65725330915 0.0
0.0 0.0 0.0

-189031.21236840406 744147.2252937268 0.0
744147.2252937268 -12569.328358046121 0.0
0.0 0.0 0.0

-470193.63439121726 1.6679297980246367e6 0.0
1.6679297980246367e6 45227.461657795095 0.0
0.0 0.0 0.0

145572.50645696983 -32226.001400823683 0.0
-32226.001400823683 -184176.21074172267 0.0
0.0 0.0 0.0

-242439.13836693723 2.01695243226053e6 0.0
2.01695243226053e6 -402108.5589366841 0.0
0.0 0.0 0.0

52976.35539919522 212251.9148420868 0.0
212251.9148420868 -777388.2425152976 0.0
0.0 0.0 0.0

-417176.41308072733 3.2359045589233944e6 0.0
3.2359045589233944e6 986871.6950402465 0.0
0.0 0.0 0.0

-489246.12385672785 2.9852451679460527e6 0.0
2.9852451679460527e6 350324.2746272616 0.0
0.0 0.0 0.0

-117365.60665072092 282523.49668979377 0.0
282523.49668979377 -112563.84169889337 0.0
0.0 0.0 0.0

-651377.2928315361 -103421.00895015355 0.0
-103421.00895015355 953448.3145114781 0.0
0.0 0.0 0.0

-961873.7043719797 2.3805341027275333e6 0.0
2.3805341027275333e6 264737.4563131264 0.0
0.0 0.0 0.0

-651535.5552612517 1.6098485334694055e6 0.0
1.6098485334694055e6 157140.66427900243 0.0
0.0 0.0 0.0

275049.1127954471 -71634.42595640627 0.0
-71634.42595640627 -337541.84177164256 0.0
0.0 0.0 0.0

40879.59441004593 -53897.407253301724 0.0
-53897.407253301724 -4961.439930198252 0.0
0.0 0.0 0.0

123067.37378780573 1.4927648751473331e6 0.0
1.4927648751473331e6 -949726.620736663 0.0
0.0 0.0 0.0

-186706.2529349083 806072.4631795011 0.0
806072.4631795011 152443.31567281933 0.0
0.0 0.0 0.0

-872149.4960432511 -98189.06403637021 0.0
-98189.06403637021 1.1733156755319012e6 0.0
0.0 0.0 0.0

-1.3154836215435383e6 72805.11699655037 0.0
72805.11699655037 1.9313475505067143e6 0.0
0.0 0.0 0.0

-196034.0626738643 1.8380653326324078e6 0.0
1.8380653326324078e6 -543996.1617388593 0.0
0.0 0.0 0.0

7961.853672754485 2.0365796253511028e6 0.0
2.0365796253511028e6 -412041.4083242563 0.0
0.0 0.0 0.0

1.572449633589722e6 569269.321844542 0.0
569269.321844542 -1.9683763401739993e6 0.0
0.0 0.0 0.0

-636647.0377469484 2.1995311581043582e6 0.0
2.1995311581043582e6 920252.8278357345 0.0
0.0 0.0 0.0

-946086.0553296952 -69683.8027523794 0.0
-69683.8027523794 929436.614429384 0.0
0.0 0.0 0.0

-79335.86076719801 1.451610223212475e6 0.0
1.451610223212475e6 -153423.54038937206 0.0
0.0 0.0 0.0

-670954.0096180565 3.6710370517724534e6 0.0
3.6710370517724534e6 569566.7955609767 0.0
0.0 0.0 0.0

-857018.1526369508 2.3306777986233993e6 0.0
2.3306777986233993e6 195761.819519724 0.0
0.0 0.0 0.0

-312645.3244946073 1.0557874692831133e6 0.0
1.0557874692831133e6 110993.8147548987 0.0
0.0 0.0 0.0

-627324.0260087822 1.7065070192172988e6 0.0
1.7065070192172988e6 130065.42608443729 0.0
0.0 0.0 0.0

-599970.8257694403 1.940436335924211e6 0.0
1.940436335924211e6 -43793.37571390238 0.0
0.0 0.0 0.0

-957109.788514893 -328442.3547682936 0.0
-328442.3547682936 1.1132059891478808e6 0.0
0.0 0.0 0.0

102704.71833454468 1.8554419962529414e6 0.0
1.8554419962529414e6 -65055.179653325744 0.0
0.0 0.0 0.0

-182631.34568504582 2.240180627133267e6 0.0
2.240180627133267e6 -348812.1420776902 0.0
0.0 0.0 0.0

-643618.4018013763 1.4148540732095453e6 0.0
1.4148540732095453e6 218522.38252215748 0.0
0.0 0.0 0.0

-239861.59789982598 -138662.2711209692 0.0
-138662.2711209692 374926.6776490888 0.0
0.0 0.0 0.0

-1.2247812072752467e6 2.339419005072749e6 0.0
2.339419005072749e6 280471.82204067573 0.0
0.0 0.0 0.0

55471.65229347069 2.0517836931541357e6 0.0
2.0517836931541357e6 -400649.59036749834 0.0
0.0 0.0 0.0

-685287.5875162503 384607.31233070797 0.0
384607.31233070797 635562.1366077568 0.0
0.0 0.0 0.0

164883.965756307 1.2898156543009328e6 0.0
1.2898156543009328e6 -751957.1657690761 0.0
0.0 0.0 0.0

-58543.65628685804 393167.99414323544 0.0
393167.99414323544 50504.113371176674 0.0
0.0 0.0 0.0

-82996.8166164301 275653.3730940446 0.0
275653.3730940446 -142450.60124133545 0.0
0.0 0.0 0.0

855486.4182553692 542571.8590909074 0.0
542571.8590909074 -1.2559663799656627e6 0.0
0.0 0.0 0.0

-155529.63391357427 2.3586805109135513e6 0.0
2.3586805109135513e6 -227310.77615658526 0.0
0.0 0.0 0.0

-616741.2208250526 1.8480742792066075e6 0.0
1.8480742792066075e6 31940.856086827553 0.0
0.0 0.0 0.0

-894494.7201532974 2.0913538929838496e6 0.0
2.0913538929838496e6 192350.22810946347 0.0
0.0 0.0 0.0

-337487.2828495697 3.0252558587743794e6 0.0
3.0252558587743794e6 125236.15895588511 0.0
0.0 0.0 0.0

1.0443306295245969e6 504866.5928378998 0.0
504866.5928378998 -1.3146717058565496e6 0.0
0.0 0.0 0.0

91274.22072975323 56893.48994254563 0.0
56893.48994254563 306439.6973689545 0.0
0.0 0.0 0.0

876917.6387717393 539075.0897306205 0.0
539075.0897306205 -1.2764290817231378e6 0.0
0.0 0.0 0.0

-262658.57883078064 1.5433404310168938e6 0.0
1.5433404310168938e6 57912.99155762972 0.0
0.0 0.0 0.0

-181777.6802170445 3.533494551166854e6 0.0
3.533494551166854e6 979685.7265470277 0.0
0.0 0.0 0.0

-1.437957219153677e6 2.168858268519197e6 0.0
2.168858268519197e6 322506.01930638077 0.0
0.0 0.0 0.0

-172802.06128611515 -191100.77433126752 0.0
-191100.77433126752 229370.2014101293 0.0
0.0 0.0 0.0

1.0333315691664383e6 805345.0222749542 0.0
805345.0222749542 -1.4929579003154226e6 0.0
0.0 0.0 0.0

-318344.4979817291 3.1262778379776482e6 0.0
3.1262778379776482e6 306288.2779036752 0.0
0.0 0.0 0.0

-65020.41561993527 2.363240623704965e6 0.0
2.363240623704965e6 -128643.99416168165 0.0
0.0 0.0 0.0

968067.4642246178 628378.6122877938 0.0
628378.6122877938 -1.4578537682811127e6 0.0
0.0 0.0 0.0

-1.2252347343053613e6 1.7670284365534836e6 0.0
1.7670284365534836e6 329759.07035155984 0.0
0.0 0.0 0.0

-555245.4564571737 2.6096284451039038e6 0.0
2.6096284451039038e6 806617.559082902 0.0
0.0 0.0 0.0

-2.6407448362364504e6 1.6938596319951545e6 0.0
1.6938596319951545e6 2.112160670301751e6 0.0
0.0 0.0 0.0

-161106.7242693632 1.8407028287844937e6 0.0
1.8407028287844937e6 689107.7439874879 0.0
0.0 0.0 0.0

173183.61906120268 988556.7376308483 0.0
988556.7376308483 -804251.0054985842 0.0
0.0 0.0 0.0

2.6919448098654165e6 4.429567499154044e6 0.0
4.429567499154044e6 -719524.3548825753 0.0
0.0 0.0 0.0

-456388.9912715445 2.3253238558900254e6 0.0
2.3253238558900254e6 838597.2278934465 0.0
0.0 0.0 0.0

160949.99252616894 -1378.7152187144443 0.0
-1378.7152187144443 -65917.1235317337 0.0
0.0 0.0 0.0

165952.05796399433 2.1844950785209406e6 0.0
2.1844950785209406e6 -366212.50815919536 0.0
0.0 0.0 0.0

10840.14015098958 1.2305107253061272e6 0.0
1.2305107253061272e6 -684198.0335568759 0.0
0.0 0.0 0.0

-230079.131751519 3.557510772681477e6 0.0
3.557510772681477e6 397206.3644420315 0.0
0.0 0.0 0.0

-386503.40411394864 1.1791160073927015e6 0.0
1.1791160073927015e6 46699.54200831501 0.0
0.0 0.0 0.0

-711028.8004432797 -97978.52206007241 0.0
-97978.52206007241 748635.6917242489 0.0
0.0 0.0 0.0

-1.388450212711683e6 1.8330909400776133e6 0.0
1.8330909400776133e6 306813.12471691094 0.0
0.0 0.0 0.0

-245897.84157043067 1.9432330020310406e6 0.0
1.9432330020310406e6 -55202.69126804927 0.0
0.0 0.0 0.0

-769562.3015063035 2.0805066505259608e6 0.0
2.0805066505259608e6 164265.65484572423 0.0
0.0 0.0 0.0

-580771.924564111 4.710845107123255e6 0.0
4.710845107123255e6 502503.12556100404 0.0
0.0 0.0 0.0

-1.0443734931284634e6 2.387797480285963e6 0.0
2.387797480285963e6 255344.20800165535 0.0
0.0 0.0 0.0

-15597.890757305402 2.1671480100337006e6 0.0
2.1671480100337006e6 -398466.3907894818 0.0
0.0 0.0 0.0

21393.221059269876 2.204347042014158e6 0.0
2.204347042014158e6 32816.293153484185 0.0
0.0 0.0 0.0

-258603.43307273113 2.232360117645494e6 0.0
2.232360117645494e6 -135346.10740498788 0.0
0.0 0.0 0.0

323605.5110547379 1.374138560112079e6 0.0
1.374138560112079e6 -780679.8455391813 0.0
0.0 0.0 0.0

-36965.91985991239 2.252064322569653e6 0.0
2.252064322569653e6 -328071.9775467963 0.0
0.0 0.0 0.0

-702306.417435445 1.9847131712272484e6 0.0
1.9847131712272484e6 -1499.1696472703188 0.0
0.0 0.0 0.0

-478861.0789336555 1.6036085388727358e6 0.0
1.6036085388727358e6 1.5442204762125122e6 0.0
0.0 0.0 0.0

-341340.2757089727 2.6093315577418366e6 0.0
2.6093315577418366e6 74547.69485300683 0.0
0.0 0.0 0.0

-113327.28911974262 2.0248875880376662e6 0.0
2.0248875880376662e6 -615294.0475013669 0.0
0.0 0.0 0.0

1.1610936133424367e6 546027.808544628 0.0
546027.808544628 -1.4306786499360884e6 0.0
0.0 0.0 0.0

-495163.2642314539 2.4305374419404385e6 0.0
2.4305374419404385e6 598579.882982183 0.0
0.0 0.0 0.0

-105174.28112908322 2.291783814051309e6 0.0
2.291783814051309e6 -74861.09030456994 0.0
0.0 0.0 0.0

-141810.3074542354 429408.13080058066 0.0
429408.13080058066 217069.22890645475 0.0
0.0 0.0 0.0

-308631.29048956826 1.047406415751794e6 0.0
1.047406415751794e6 58379.135872740226 0.0
0.0 0.0 0.0

-146217.20756790994 2.437673928797632e6 0.0
2.437673928797632e6 -190929.38969068762 0.0
0.0 0.0 0.0

-194291.6139284838 416627.2578042361 0.0
416627.2578042361 41772.117948904925 0.0
0.0 0.0 0.0

-469731.7679672262 332119.3996950988 0.0
332119.3996950988 380121.48012662586 0.0
0.0 0.0 0.0

25680.38409399122 327855.5014425265 0.0
327855.5014425265 -224717.02541920048 0.0
0.0 0.0 0.0

105886.97187006101 -83334.75955626898 0.0
-83334.75955626898 -264831.9421926365 0.0
0.0 0.0 0.0

-371743.5933971919 1.2965493003779924e6 0.0
1.2965493003779924e6 209549.46246493305 0.0
0.0 0.0 0.0

293394.95575970947 1.1784576680528673e6 0.0
1.1784576680528673e6 -820386.589064861 0.0
0.0 0.0 0.0

-3240.5875530627964 1.5735323295287162e6 0.0
1.5735323295287162e6 -712582.4497400296 0.0
0.0 0.0 0.0

-783921.1914910797 1.5882901319674125e6 0.0
1.5882901319674125e6 230420.50612078002 0.0
0.0 0.0 0.0

-1.1201272366559047e6 -245255.71956055702 0.0
-245255.71956055702 1.4495634318740175e6 0.0
0.0 0.0 0.0

14769.189684845158 1.6524178718353608e6 0.0
1.6524178718353608e6 -698501.0326191498 0.0
0.0 0.0 0.0

-1.1904017125474345e6 3.7524363454765733e6 0.0
3.7524363454765733e6 377160.254636028 0.0
0.0 0.0 0.0

108026.29059612443 1.959331353936993e6 0.0
1.959331353936993e6 -393643.5622397335 0.0
0.0 0.0 0.0

31488.18135893671 -179170.96609660613 0.0
-179170.96609660613 -268731.90240017616 0.0
0.0 0.0 0.0

-24836.947851273042 2.0669445354881464e6 0.0
2.0669445354881464e6 -426996.4368924203 0.0
0.0 0.0 0.0

-658756.0098018692 3.3878883576672203e6 0.0
3.3878883576672203e6 449889.6876055052 0.0
0.0 0.0 0.0

458509.83180738136 -15127.756074026765 0.0
-15127.756074026765 -568536.1358617296 0.0
0.0 0.0 0.0

1.516647470634561e6 591466.2218752129 0.0
591466.2218752129 -1.9177488708528015e6 0.0
0.0 0.0 0.0

-322334.1659979659 2.540134480274533e6 0.0
2.540134480274533e6 80424.7661282826 0.0
0.0 0.0 0.0

-34360.10616884637 -21909.121055135176 0.0
-21909.121055135176 -51610.769407135085 0.0
0.0 0.0 0.0

-318688.4100732015 2.5833957701680274e6 0.0
2.5833957701680274e6 -79746.87802478277 0.0
0.0 0.0 0.0

-57500.87369900555 1.3692493779960808e6 0.0
1.3692493779960808e6 639217.2479327559 0.0
0.0 0.0 0.0

-44827.32557072748 2.0944383384796234e6 0.0
2.0944383384796234e6 285597.1963158669 0.0
0.0 0.0 0.0

-666420.2790278014 2.4687154343280755e6 0.0
2.4687154343280755e6 559080.9083685552 0.0
0.0 0.0 0.0

-1.4912447091759196e6 2.0753090370113458e6 0.0
2.0753090370113458e6 318458.26470350806 0.0
0.0 0.0 0.0

150670.38670322378 -11159.312601353624 0.0
-11159.312601353624 -92529.82233610452 0.0
0.0 0.0 0.0

58373.66865189659 2.0854065048226858e6 0.0
2.0854065048226858e6 57244.79552019441 0.0
0.0 0.0 0.0

20457.14679182385 1.126548439024945e6 0.0
1.126548439024945e6 -1.0175879781875745e6 0.0
0.0 0.0 0.0

-609053.5968208933 1.2549113971675083e6 0.0
1.2549113971675083e6 112694.97361064379 0.0
0.0 0.0 0.0

-158659.03871371114 -108781.81049405558 0.0
-108781.81049405558 247338.47090160963 0.0
0.0 0.0 0.0

-455218.7984428637 1.8137518075068973e6 0.0
1.8137518075068973e6 -205603.29883253836 0.0
0.0 0.0 0.0

-208001.83674308614 3.6380647634366024e6 0.0
3.6380647634366024e6 272183.7696280731 0.0
0.0 0.0 0.0

-746774.8519366861 3.784174037174227e6 0.0
3.784174037174227e6 519147.5053437021 0.0
0.0 0.0 0.0

112662.04190040799 1.1325935080467714e6 0.0
1.1325935080467714e6 -710718.2459076092 0.0
0.0 0.0 0.0

-309623.12811494025 1.52615402447323e6 0.0
1.52615402447323e6 131571.15763448513 0.0
0.0 0.0 0.0

-1.423497460622368e6 -371460.1187977753 0.0
-371460.1187977753 1.8537777275923598e6 0.0
0.0 0.0 0.0

-158664.27342991804 2.125194227808796e6 0.0
2.125194227808796e6 85154.87479665955 0.0
0.0 0.0 0.0

-1.1995215390670225e6 2.3143112318180003e6 0.0
2.3143112318180003e6 268050.7850981676 0.0
0.0 0.0 0.0

371081.60910430347 1.0724112021309691e6 0.0
1.0724112021309691e6 -846043.4876243095 0.0
0.0 0.0 0.0

-101466.73605526556 1.797789233079073e6 0.0
1.797789233079073e6 -437924.23092168936 0.0
0.0 0.0 0.0

-103725.37325209109 1.7671426446978454e6 0.0
1.7671426446978454e6 -498729.7539196762 0.0
0.0 0.0 0.0

-634596.668531216 152618.24952289893 0.0
152618.24952289893 982578.574866896 0.0
0.0 0.0 0.0

-322451.52745196765 1.1401604111415532e6 0.0
1.1401604111415532e6 72151.71908750609 0.0
0.0 0.0 0.0

-1.5190975358249806e7 551267.0594216626 0.0
551267.0594216626 1.5813792598025348e7 0.0
0.0 0.0 0.0

1.9602464214072912e6 2.0703319987213819e6 0.0
2.0703319987213819e6 -1.4587550107088576e6 0.0
0.0 0.0 0.0

-608009.9585961275 1.611132407525229e6 0.0
1.611132407525229e6 116271.66748310643 0.0
0.0 0.0 0.0

-141160.6555698357 2.220577953539253e6 0.0
2.220577953539253e6 10761.834983887107 0.0
0.0 0.0 0.0

-661341.6983447734 1.1913100148573893e6 0.0
1.1913100148573893e6 -77425.22474007044 0.0
0.0 0.0 0.0

-56367.823476159276 -178140.82455909564 0.0
-178140.82455909564 -89392.63721569146 0.0
0.0 0.0 0.0

-167072.30175251886 548572.0248333048 0.0
548572.0248333048 -18710.4338433113 0.0
0.0 0.0 0.0

-340409.2142187844 1.7257586774789437e6 0.0
1.7257586774789437e6 -159990.73364029857 0.0
0.0 0.0 0.0

88469.6021856215 -4297.1605037321615 0.0
-4297.1605037321615 -36195.90829809853 0.0
0.0 0.0 0.0

21184.12715537069 4.0252928772325725e6 0.0
4.0252928772325725e6 305213.0290468441 0.0
0.0 0.0 0.0

72185.21601564827 1.790385301413816e6 0.0
1.790385301413816e6 512833.3755713724 0.0
0.0 0.0 0.0

-170464.56762451114 795821.3786628507 0.0
795821.3786628507 88425.78772560356 0.0
0.0 0.0 0.0

-1.993162610218091e6 1.5436321227471754e6 0.0
1.5436321227471754e6 1.4024189751604341e6 0.0
0.0 0.0 0.0

-260953.9146236027 2.400093385558659e6 0.0
2.400093385558659e6 -107423.72540653696 0.0
0.0 0.0 0.0

-282458.05814818456 2.22143417165102e6 0.0
2.22143417165102e6 -153445.22859902668 0.0
0.0 0.0 0.0

-339390.5935586367 1.7004217935129728e6 0.0
1.7004217935129728e6 128614.02217147191 0.0
0.0 0.0 0.0

-231840.72601612203 1.9312495120735504e6 0.0
1.9312495120735504e6 -146046.4982618635 0.0
0.0 0.0 0.0

-77602.39554317211 1.3589880790602313e6 0.0
1.3589880790602313e6 -361643.415239062 0.0
0.0 0.0 0.0

-229224.27559002853 2.2788059574042372e6 0.0
2.2788059574042372e6 -118135.70629179954 0.0
0.0 0.0 0.0

-232026.22409567083 1.7621011374217526e6 0.0
1.7621011374217526e6 331420.10166544066 0.0
0.0 0.0 0.0

-786990.6832032882 5.305879060339222e6 0.0
5.305879060339222e6 442511.1203063126 0.0
0.0 0.0 0.0

-307959.35607468535 1.2821643802282484e6 0.0
1.2821643802282484e6 151424.51332243384 0.0
0.0 0.0 0.0

-1.2612706400385478e6 2.1204373536134725e6 0.0
2.1204373536134725e6 392779.53003297583 0.0
0.0 0.0 0.0

328933.4502097149 1.3525816284760984e6 0.0
1.3525816284760984e6 -871709.6154340715 0.0
0.0 0.0 0.0

631197.2232528187 3.5496270563854165e6 0.0
3.5496270563854165e6 -336666.67529552546 0.0
0.0 0.0 0.0

-4.66866616411785e6 1.796357338941245e6 0.0
1.796357338941245e6 3.3027596583360294e6 0.0
0.0 0.0 0.0

43508.00656189374 1.4644254009958787e6 0.0
1.4644254009958787e6 591796.8622168056 0.0
0.0 0.0 0.0

778788.6365199847 803215.3782839425 0.0
803215.3782839425 -1.4280519196180028e6 0.0
0.0 0.0 0.0

-917761.1186207358 5.267094731860866e6 0.0
5.267094731860866e6 384037.0633515837 0.0
0.0 0.0 0.0

-385357.2992087901 2.959460191925443e6 0.0
2.959460191925443e6 390044.39590873674 0.0
0.0 0.0 0.0

-29394.284755999164 2.2155909553804235e6 0.0
2.2155909553804235e6 -408498.5334779561 0.0
0.0 0.0 0.0

-285590.44982893893 2.6204231732512405e6 0.0
2.6204231732512405e6 -21660.43188782604 0.0
0.0 0.0 0.0

-2.279820165143755e6 1.4166905248846288e6 0.0
1.4166905248846288e6 1.7554069017645316e6 0.0
0.0 0.0 0.0

-1.114536380999491e6 2.329351466926267e6 0.0
2.329351466926267e6 288582.2890549801 0.0
0.0 0.0 0.0

-358744.9675237065 1.7713651508226772e6 0.0
1.7713651508226772e6 49666.05429843647 0.0
0.0 0.0 0.0

1.3624912447602272e6 629535.4284116979 0.0
629535.4284116979 -1.805658175711236e6 0.0
0.0 0.0 0.0

-245130.06383477006 3.7168351342674545e6 0.0
3.7168351342674545e6 461783.20645799994 0.0
0.0 0.0 0.0

220416.03709019505 1.302114078483633e6 0.0
1.302114078483633e6 -886508.0900258418 0.0
0.0 0.0 0.0

-263502.409095458 3.663417013080145e6 0.0
3.663417013080145e6 494985.37081605033 0.0
0.0 0.0 0.0

-122806.68337996273 1.3556058495305593e6 0.0
1.3556058495305593e6 -360802.6680518547 0.0
0.0 0.0 0.0

142205.02309058543 2.089202603262399e6 0.0
2.089202603262399e6 73639.01491667346 0.0
0.0 0.0 0.0

-533838.6472649976 1.7071418412268036e6 0.0
1.7071418412268036e6 110029.93895952665 0.0
0.0 0.0 0.0

1995.399072834458 -91585.52671816327 0.0
-91585.52671816327 -141385.71935637388 0.0
0.0 0.0 0.0

-30669.741102316446 3.5437618830994684e6 0.0
3.5437618830994684e6 481654.54753912194 0.0
0.0 0.0 0.0

-1.6864987013881572e6 582966.0194236983 0.0
582966.0194236983 1.8147562896071146e6 0.0
0.0 0.0 0.0

-726584.4709901433 158476.53615609073 0.0
158476.53615609073 667590.2846839625 0.0
0.0 0.0 0.0

-282401.7536826591 1.957809227397328e6 0.0
1.957809227397328e6 -62712.49689065713 0.0
0.0 0.0 0.0

-319373.31882443425 2.506515352402232e6 0.0
2.506515352402232e6 -110290.04456442362 0.0
0.0 0.0 0.0

1.446011570728785e6 550452.4798352619 0.0
550452.4798352619 -1.778528237595207e6 0.0
0.0 0.0 0.0

-201409.78228857717 2.17167899071643e6 0.0
2.17167899071643e6 -42882.48667358092 0.0
0.0 0.0 0.0

-911394.6122066856 -346214.11533556465 0.0
-346214.11533556465 1.0781225976193822e6 0.0
0.0 0.0 0.0

29281.614443965955 2.751667286005571e6 0.0
2.751667286005571e6 -1.6361079908036052e6 0.0
0.0 0.0 0.0

-1.9498446510547427e6 5.3663577529631425e6 0.0
5.3663577529631425e6 1.5978242002965393e7 0.0
0.0 0.0 0.0

198030.53179671167 1.322028500300759e6 0.0
1.322028500300759e6 -999957.0189235823 0.0
0.0 0.0 0.0

-48630.10577937652 236678.38798942615 0.0
236678.38798942615 -257778.33537151862 0.0
0.0 0.0 0.0

-316576.149703319 3.528753373096046e6 0.0
3.528753373096046e6 959769.7713553639 0.0
0.0 0.0 0.0

-1.65184991366554e6 -381743.4355914193 0.0
-381743.4355914193 1.9439618514515092e6 0.0
0.0 0.0 0.0

-167967.75983446086 1.8372813623285687e6 0.0
1.8372813623285687e6 251810.92407186312 0.0
0.0 0.0 0.0

-551011.3811581745 5.099468536429085e6 0.0
5.099468536429085e6 347218.5612163063 0.0
0.0 0.0 0.0

-350472.3052452688 2.393021873561045e6 0.0
2.393021873561045e6 -164592.69955269975 0.0
0.0 0.0 0.0

194072.717841184 1.7498732383345983e6 0.0
1.7498732383345983e6 -187888.87725697842 0.0
0.0 0.0 0.0

-254598.44976837182 1.9546020126624184e6 0.0
1.9546020126624184e6 -125301.32063992438 0.0
0.0 0.0 0.0

-698224.037977505 1.226052716101621e6 0.0
1.226052716101621e6 2147.8323134264792 0.0
0.0 0.0 0.0

-988024.013962314 2.1196169458901705e6 0.0
2.1196169458901705e6 249939.9374887831 0.0
0.0 0.0 0.0

59395.37654930499 2.2660447697720574e6 0.0
2.2660447697720574e6 -344826.1876160306 0.0
0.0 0.0 0.0

-96438.3006946853 2.2115784232194545e6 0.0
2.2115784232194545e6 10068.326893146172 0.0
0.0 0.0 0.0

-64057.25900442091 2.0596059398008324e6 0.0
2.0596059398008324e6 -575950.8368133794 0.0
0.0 0.0 0.0

-290866.8302599678 2.5335363854279323e6 0.0
2.5335363854279323e6 -137885.34808030855 0.0
0.0 0.0 0.0

-1.6131295693574785e6 -356324.9407604809 0.0
-356324.9407604809 1.7980153358279425e6 0.0
0.0 0.0 0.0

-2.150000549764676e6 1.6911448263504603e6 0.0
1.6911448263504603e6 1.0799899736887487e6 0.0
0.0 0.0 0.0

-1.124684859190251e6 1.45612952048232e6 0.0
1.45612952048232e6 333375.2360093101 0.0
0.0 0.0 0.0

-988130.8768063381 1.0994482829402976e6 0.0
1.0994482829402976e6 655810.8125737899 0.0
0.0 0.0 0.0

-10068.164723737442 2.265809173860542e6 0.0
2.265809173860542e6 -303727.8806357085 0.0
0.0 0.0 0.0

-299371.6418226314 1.7681261401674037e6 0.0
1.7681261401674037e6 -102844.4965459013 0.0
0.0 0.0 0.0

-833803.2771352371 1.4153876864018233e6 0.0
1.4153876864018233e6 161482.32146260707 0.0
0.0 0.0 0.0

-70541.47863113592 1.6599899720576473e6 0.0
1.6599899720576473e6 139200.853420104 0.0
0.0 0.0 0.0

174500.32987537867 1.7886830071484647e6 0.0
1.7886830071484647e6 -70901.94001628904 0.0
0.0 0.0 0.0

913835.4770607457 772660.1282150717 0.0
772660.1282150717 -1.3748033887179415e6 0.0
0.0 0.0 0.0

-504352.26643075235 177554.64506739736 0.0
177554.64506739736 723711.2524996297 0.0
0.0 0.0 0.0

-1.5237584361414327e6 -418519.88256598864 0.0
-418519.88256598864 1.8363735237688934e6 0.0
0.0 0.0 0.0

1.360383555374004e6 640096.955001976 0.0
640096.955001976 -1.7379502059226641e6 0.0
0.0 0.0 0.0

-1.2253230263851e6 1.3053868612017916e6 0.0
1.3053868612017916e6 574825.0747191259 0.0
0.0 0.0 0.0

-564810.0441223038 -290614.386012276 0.0
-290614.386012276 669597.1029202323 0.0
0.0 0.0 0.0

-241459.05248055723 -209765.20028430913 0.0
-209765.20028430913 216746.69114886757 0.0
0.0 0.0 0.0

-161397.34753663055 1.5927824342259131e6 0.0
1.5927824342259131e6 -82139.31822957384 0.0
0.0 0.0 0.0

-79596.25834599927 -116337.09669843665 0.0
-116337.09669843665 134555.50392572908 0.0
0.0 0.0 0.0

-1.3908166401525629e6 6.06904582433892e6 0.0
6.06904582433892e6 310252.88795868366 0.0
0.0 0.0 0.0

-194050.53506347229 880494.5959674584 0.0
880494.5959674584 123584.52189074982 0.0
0.0 0.0 0.0

1.2157744337864602e6 726087.2320971268 0.0
726087.2320971268 -1.7158408985906085e6 0.0
0.0 0.0 0.0

1.3689342974957672e6 586748.0135575432 0.0
586748.0135575432 -1.7958390031728568e6 0.0
0.0 0.0 0.0

-338741.9029634612 1.1669708545093932e6 0.0
1.1669708545093932e6 52951.6120712984 0.0
0.0 0.0 0.0

-1.3445211278677993e6 1.9110119066444554e6 0.0
1.9110119066444554e6 297324.95218247146 0.0
0.0 0.0 0.0

-13983.656986617629 2.7240341333301156e6 0.0
2.7240341333301156e6 294817.1501349321 0.0
0.0 0.0 0.0

-587933.6963389271 2.682946839100331e6 0.0
2.682946839100331e6 670852.064942447 0.0
0.0 0.0 0.0

-304047.6495281305 3.589926611395358e6 0.0
3.589926611395358e6 346790.1873399294 0.0
0.0 0.0 0.0

-607526.2319064515 -279142.30896605796 0.0
-279142.30896605796 684479.5920780322 0.0
0.0 0.0 0.0

-1.122855877294061e6 923244.7464597736 0.0
923244.7464597736 477675.69500580715 0.0
0.0 0.0 0.0

-1.0400730981935569e6 2.147088975443619e6 0.0
2.147088975443619e6 243983.9957189352 0.0
0.0 0.0 0.0

-639204.7640121067 1.6204592443538702e6 0.0
1.6204592443538702e6 2.3645594867701265e6 0.0
0.0 0.0 0.0

-229528.633859279 3.6986836862087874e6 0.0
3.6986836862087874e6 495136.755588882 0.0
0.0 0.0 0.0

-200823.36312363553 2.3510434922618708e6 0.0
2.3510434922618708e6 -185150.03815884743 0.0
0.0 0.0 0.0

-254232.4913412245 1.4621537075282768e6 0.0
1.4621537075282768e6 404626.59174804314 0.0
0.0 0.0 0.0

-111695.60475132862 2.411561327195796e6 0.0
2.411561327195796e6 -237088.61995924896 0.0
0.0 0.0 0.0

-1.8683782376267163e6 1.211450256049152e6 0.0
1.211450256049152e6 -157743.32088733674 0.0
0.0 0.0 0.0

-223753.86698509956 827168.1128363713 0.0
827168.1128363713 35105.10007148956 0.0
0.0 0.0 0.0

-141981.6060550259 2.3499696933033927e6 0.0
2.3499696933033927e6 -276107.3431851513 0.0
0.0 0.0 0.0

-259223.3485363349 1.5835048827729886e6 0.0
1.5835048827729886e6 268803.0628581415 0.0
0.0 0.0 0.0

-325820.9518809717 3.315379671529721e6 0.0
3.315379671529721e6 215043.2864826377 0.0
0.0 0.0 0.0

1.3924165642006765e6 555576.8532765491 0.0
555576.8532765491 -1.684405171812765e6 0.0
0.0 0.0 0.0

-325854.9708199162 2.8609600737404926e6 0.0
2.8609600737404926e6 24499.75979145737 0.0
0.0 0.0 0.0

-2.1701076466149716e6 1.6898242664298143e6 0.0
1.6898242664298143e6 1.0811613172167218e6 0.0
0.0 0.0 0.0

-638404.4418669885 1.7001324170536296e6 0.0
1.7001324170536296e6 95615.76297823212 0.0
0.0 0.0 0.0

83758.40465147224 -77894.62236874344 0.0
-77894.62236874344 -240540.20406980853 0.0
0.0 0.0 0.0

-232126.69957840425 2.114539350499876e6 0.0
2.114539350499876e6 -346959.9766226694 0.0
0.0 0.0 0.0

-113165.47917860003 3.4654110684781317e6 0.0
3.4654110684781317e6 359012.8388369706 0.0
0.0 0.0 0.0

-4.202892870748088e6 468326.27791096875 0.0
468326.27791096875 2.028966559184497e6 0.0
0.0 0.0 0.0

239962.29045742733 1.825986369115796e6 0.0
1.825986369115796e6 -421030.3861486692 0.0
0.0 0.0 0.0

901755.4081991112 749747.4937452619 0.0
749747.4937452619 -1.4197897240130638e6 0.0
0.0 0.0 0.0

-156464.99023582775 2.101368898625835e6 0.0
2.101368898625835e6 -562199.8423036356 0.0
0.0 0.0 0.0

-124059.45901572994 2.214639468770242e6 0.0
2.214639468770242e6 465.5908696001279 0.0
0.0 0.0 0.0

-1.2056872633330347e6 1.8659902453019728e6 0.0
1.8659902453019728e6 365205.73100490676 0.0
0.0 0.0 0.0

-646526.7314237539 4.252221704795609e6 0.0
4.252221704795609e6 587016.2944191215 0.0
0.0 0.0 0.0

1.45527860954098e6 583300.6721120798 0.0
583300.6721120798 -1.7717930876271399e6 0.0
0.0 0.0 0.0

-205685.5708084224 1.6185793095382836e6 0.0
1.6185793095382836e6 1.5690846510283533e6 0.0
0.0 0.0 0.0

-75185.74947087062 1.180690006321418e6 0.0
1.180690006321418e6 -443221.93540010584 0.0
0.0 0.0 0.0

-3.03611061480744e6 1.0774414371779964e6 0.0
1.0774414371779964e6 3.053065898946244e6 0.0
0.0 0.0 0.0

-49959.17449371642 -78517.40879523955 0.0
-78517.40879523955 -41005.827189562246 0.0
0.0 0.0 0.0

-17667.263111367498 -89790.49518866342 0.0
-89790.49518866342 59470.51908381062 0.0
0.0 0.0 0.0

50246.61194292284 3.0556131566512166e6 0.0
3.0556131566512166e6 329153.44495479704 0.0
0.0 0.0 0.0

-492129.03891914716 -259667.08573632588 0.0
-259667.08573632588 651642.3144471399 0.0
0.0 0.0 0.0

58452.46722614221 1.8706654717211346e6 0.0
1.8706654717211346e6 -491725.8359840979 0.0
0.0 0.0 0.0

-38340.76146161332 1.4807455299356137e6 0.0
1.4807455299356137e6 702905.118815842 0.0
0.0 0.0 0.0

-1.477884018679621e6 4.478045232986127e6 0.0
4.478045232986127e6 381303.83348525316 0.0
0.0 0.0 0.0

-2.7435552560072383e6 -489518.88300457364 0.0
-489518.88300457364 2.64774248797479e6 0.0
0.0 0.0 0.0

296388.737580083 1.181778535776046e6 0.0
1.181778535776046e6 -834096.8079667392 0.0
0.0 0.0 0.0

-121777.99843417417 1.7624321947440065e6 0.0
1.7624321947440065e6 -28088.375792235332 0.0
0.0 0.0 0.0

-180361.73489805314 2.2520342669210946e6 0.0
2.2520342669210946e6 -91395.63056642323 0.0
0.0 0.0 0.0

-69109.64334054405 1.4843955900163872e6 0.0
1.4843955900163872e6 759386.0886195484 0.0
0.0 0.0 0.0

-591683.5204294643 -216170.7989930694 0.0
-216170.7989930694 602074.0660906143 0.0
0.0 0.0 0.0

-476909.92548722913 1.1590596953726318e6 0.0
1.1590596953726318e6 327217.0547183305 0.0
0.0 0.0 0.0

-558742.6866035056 1.9200320891342242e6 0.0
1.9200320891342242e6 44527.41722911497 0.0
0.0 0.0 0.0

-188505.8916342687 1.8068362232109064e6 0.0
1.8068362232109064e6 1.060896709651299e6 0.0
0.0 0.0 0.0

-349905.7173798239 2.315961579902417e6 0.0
2.315961579902417e6 -172362.78705562744 0.0
0.0 0.0 0.0

-107613.10833660286 -109410.7246969146 0.0
-109410.7246969146 40688.02922925563 0.0
0.0 0.0 0.0

-2.94774249864518e6 -597827.88709877 0.0
-597827.88709877 3.0847203455783213e6 0.0
0.0 0.0 0.0

-318105.4076630807 2.3463427085691285e6 0.0
2.3463427085691285e6 -122186.17497331943 0.0
0.0 0.0 0.0

-257157.6522327706 2.439676038371856e6 0.0
2.439676038371856e6 -100927.64117145799 0.0
0.0 0.0 0.0

-2.5543617942685387e6 -337310.9216591057 0.0
-337310.9216591057 3.6179424325361815e6 0.0
0.0 0.0 0.0

-250373.6718974692 3.374905836864667e6 0.0
3.374905836864667e6 302717.147863008 0.0
0.0 0.0 0.0

147066.87807998122 1.6633886159653007e6 0.0
1.6633886159653007e6 -33812.07725783651 0.0
0.0 0.0 0.0

43590.14121437227 198487.62637514097 0.0
198487.62637514097 -708847.4777855949 0.0
0.0 0.0 0.0

-12626.293486104725 240961.6875375225 0.0
240961.6875375225 311736.9198330039 0.0
0.0 0.0 0.0

-213963.42293238785 117122.17673376166 0.0
117122.17673376166 35300.32376379862 0.0
0.0 0.0 0.0

