# vtk DataFile Version 2.0
phase field modeling fracture
ASCII
DATASET UNSTRUCTURED_GRID
POINTS 2538 float
0.0 0.0 0.0
10.0 0.0 0.0
0.0 10.0 0.0
10.0 10.0 0.0
0.0 4.9995 0.0
0.0 5.0005 0.0
5.0 5.0 0.0
0.9416964895726688 0.0 0.0
1.803581725054446 0.0 0.0
2.592419885431098 0.0 0.0
3.314401822861676 0.0 0.0
3.975193910351406 0.0 0.0
4.579982132660152 0.0 0.0
5.133512780936812 0.0 0.0
5.640130319506143 0.0 0.0
6.103810708661955 0.0 0.0
6.528192895506818 0.0 0.0
6.916607540127679 0.0 0.0
7.272102969376355 0.0 0.0
7.597469242948583 0.0 0.0
7.895259826292669 0.0 0.0
8.167811885738017 0.0 0.0
8.417264413845215 0.0 0.0
8.645575169389538 0.0 0.0
8.854535961159101 0.0 0.0
9.045786767735546 0.0 0.0
9.220828555767493 0.0 0.0
9.38103509633881 0.0 0.0
9.527663687265145 0.0 0.0
9.661865124984566 0.0 0.0
9.784692609918062 0.0 0.0
9.897110148790482 0.0 0.0
10.0 0.09999999999992584 0.0
10.0 0.199999999999856 0.0
10.0 0.2999999999997771 0.0
10.0 0.3999999999996677 0.0
10.0 0.4999999999995511 0.0
10.0 0.5999999999994683 0.0
10.0 0.6999999999993983 0.0
10.0 0.7999999999993286 0.0
10.0 0.8999999999992587 0.0
10.0 0.9999999999991888 0.0
10.0 1.099999999999119 0.0
10.0 1.199999999999033 0.0
10.0 1.299999999998852 0.0
10.0 1.399999999998576 0.0
10.0 1.499999999998284 0.0
10.0 1.599999999997992 0.0
10.0 1.6999999999977 0.0
10.0 1.799999999997408 0.0
10.0 1.899999999997116 0.0
10.0 1.999999999996825 0.0
10.0 2.099999999996533 0.0
10.0 2.199999999996241 0.0
10.0 2.299999999995949 0.0
10.0 2.399999999995657 0.0
10.0 2.499999999995365 0.0
10.0 2.599999999995073 0.0
10.0 2.699999999994782 0.0
10.0 2.79999999999449 0.0
10.0 2.899999999994198 0.0
10.0 2.999999999993906 0.0
10.0 3.099999999993614 0.0
10.0 3.199999999993322 0.0
10.0 3.299999999993029 0.0
10.0 3.399999999992738 0.0
10.0 3.499999999992446 0.0
10.0 3.599999999992154 0.0
10.0 3.699999999991863 0.0
10.0 3.799999999991571 0.0
10.0 3.899999999991278 0.0
10.0 3.999999999991022 0.0
10.0 4.099999999991035 0.0
10.0 4.199999999991187 0.0
10.0 4.299999999991338 0.0
10.0 4.399999999991491 0.0
10.0 4.499999999991642 0.0
10.0 4.599999999991795 0.0
10.0 4.699999999991947 0.0
10.0 4.799999999992099 0.0
10.0 4.89999999999225 0.0
10.0 4.999999999992403 0.0
10.0 5.099999999992555 0.0
10.0 5.199999999992706 0.0
10.0 5.299999999992858 0.0
10.0 5.39999999999301 0.0
10.0 5.499999999993161 0.0
10.0 5.599999999993313 0.0
10.0 5.699999999993466 0.0
10.0 5.799999999993618 0.0
10.0 5.899999999993771 0.0
10.0 5.999999999993922 0.0
10.0 6.099999999994074 0.0
10.0 6.199999999994227 0.0
10.0 6.299999999994378 0.0
10.0 6.39999999999453 0.0
10.0 6.499999999994682 0.0
10.0 6.599999999994833 0.0
10.0 6.699999999994986 0.0
10.0 6.799999999995138 0.0
10.0 6.899999999995289 0.0
10.0 6.999999999995442 0.0
10.0 7.099999999995594 0.0
10.0 7.199999999995747 0.0
10.0 7.299999999995897 0.0
10.0 7.39999999999605 0.0
10.0 7.499999999996202 0.0
10.0 7.599999999996353 0.0
10.0 7.699999999996505 0.0
10.0 7.799999999996658 0.0
10.0 7.899999999996808 0.0
10.0 7.999999999996962 0.0
10.0 8.099999999997113 0.0
10.0 8.199999999997265 0.0
10.0 8.299999999997418 0.0
10.0 8.399999999997569 0.0
10.0 8.499999999997721 0.0
10.0 8.599999999997873 0.0
10.0 8.699999999998024 0.0
10.0 8.799999999998176 0.0
10.0 8.899999999998329 0.0
10.0 8.99999999999848 0.0
10.0 9.099999999998634 0.0
10.0 9.199999999998786 0.0
10.0 9.299999999998937 0.0
10.0 9.399999999999089 0.0
10.0 9.499999999999241 0.0
10.0 9.599999999999392 0.0
10.0 9.699999999999545 0.0
10.0 9.799999999999697 0.0
10.0 9.899999999999848 0.0
9.897110148790565 10.0 0.0
9.784692609918244 10.0 0.0
9.66186512498486 10.0 0.0
9.527663687265571 10.0 0.0
9.381035096339392 10.0 0.0
9.220828555768257 10.0 0.0
9.045786767736512 10.0 0.0
8.854535961160305 10.0 0.0
8.645575169391027 10.0 0.0
8.417264413847017 10.0 0.0
8.167811885740178 10.0 0.0
7.895259826295246 10.0 0.0
7.597469242951631 10.0 0.0
7.272102969379938 10.0 0.0
6.916607540131873 10.0 0.0
6.528192895511704 10.0 0.0
6.103810708667616 10.0 0.0
5.640130319512691 10.0 0.0
5.13351278094435 10.0 0.0
4.579982132668816 10.0 0.0
3.975193910361222 10.0 0.0
3.314401822869852 10.0 0.0
2.592419885437257 10.0 0.0
1.803581725058137 10.0 0.0
0.9416964895740705 10.0 0.0
0.0 9.00010000000243 0.0
0.0 8.000200000005481 0.0
0.0 7.000300000005135 0.0
0.0 6.000400000002569 0.0
0.901790731451151 5.000409820926855 0.0
1.657200899774397 5.000334279910023 0.0
2.289991063707192 5.000271000893629 0.0
2.820065163538221 5.000217993483646 0.0
3.264096435579811 5.000173590356442 0.0
3.636051481595835 5.00013639485184 0.0
3.947629914072366 5.000105237008593 0.0
4.208632181002628 5.0000791367819 0.0
4.427267949625672 5.000057273205037 0.0
4.610414277633563 5.000038958572237 0.0
4.763831845154243 5.000023616815485 0.0
4.892346298799659 5.00001076537012 0.0
4.892346298799748 4.99998923462988 0.0
4.763831845154455 4.999976383184515 0.0
4.610414277633943 4.999961041427763 0.0
4.427267949626277 4.999942726794963 0.0
4.208632181003523 4.9999208632181 0.0
3.94762991407365 4.999894762991407 0.0
3.636051481597624 4.99986360514816 0.0
3.264096435582253 4.999826409643559 0.0
2.820065163541503 4.999782006516354 0.0
2.289991063711534 4.999728999106371 0.0
1.657200899778495 4.999665720089978 0.0
0.9017907314530094 4.999590179073145 0.0
0.0 3.999600000002013 0.0
0.0 2.999700000005187 0.0
0.0 1.99980000000512 0.0
0.0 0.9999000000025537 0.0
9.897889398521345 2.93573355845387 0.0
9.906568249974548 7.060009441434234 0.0
9.913122631074113 3.64016132281653 0.0
9.922462129543863 6.354535290629151 0.0
9.917693659967533 4.354211663134567 0.0
9.909873057440208 5.637584487339942 0.0
9.914183254994697 4.950672966925282 0.0
9.913885043715895 7.666887930262611 0.0
9.91009668007573 2.351889069770817 0.0
9.905135696074536 8.138152454502785 0.0
9.913397459621809 1.849999999997262 0.0
7.099302372137626 0.297750452375005 0.0
7.095143729410097 9.700359990366296 0.0
4.942912558701401 5.095838627899509 0.0
4.315009232304429 5.165022115481685 0.0
4.946182472483878 4.906763777264103 0.0
4.317967462990024 4.825955043772673 0.0
9.916390871492647 8.64999999999792 0.0
9.921504649680616 1.368376469890358 0.0
8.292538149791614 0.206877570318844 0.0
8.292538149793597 9.793122429681448 0.0
5.884594439766573 9.587645267048616 0.0
5.794826292691579 0.3794853783929359 0.0
9.913397459621425 9.049999999998557 0.0
9.908526577714177 0.9568239351922434 0.0
3.456851160380649 5.315740054130451 0.0
3.457889657868442 4.707121019609468 0.0
8.945214200703926 0.1503383337970344 0.0
8.950161364448409 9.8413906539257 0.0
9.913862335499305 4.055887885208452 0.0
9.916697353372683 4.650158482607802 0.0
9.919076340414442 6.049999999994006 0.0
9.906994308667635 5.25749687748192 0.0
9.917490342358025 6.655979201891897 0.0
9.915757520293784 7.343848891656911 0.0
9.910049507471042 3.363474386285078 0.0
9.914471988502868 2.647400064832979 0.0
9.91474124160965 9.337490423485129 0.0
9.916971008170838 0.6499999999994355 0.0
4.307157269264427 9.509674045029644 0.0
4.331527375865619 0.4401616696422582 0.0
9.45434939180249 9.878397030523757 0.0
9.457696120412969 0.1270877537061785 0.0
2.555070293622606 5.422044496190925 0.0
2.566232917480916 4.608001224030952 0.0
3.026511860837692 9.332320638257093 0.0
2.945561971800619 0.5895662714727601 0.0
7.7395404387124 0.2511088946967771 0.0
7.736379255744154 9.745848826372828 0.0
4.687135269408529 5.122111433928926 0.0
4.688420821504113 4.871895064967488 0.0
9.910554884115975 0.3448356354522978 0.0
9.911230082250466 9.65764729394159 0.0
9.921953841410854 6.851023993342036 0.0
9.912065178606017 5.448170483544033 0.0
9.911660025326261 3.861846960030188 0.0
9.914847467973438 3.14501593945607 0.0
9.913397459621425 5.849999999993703 0.0
9.913397459621425 7.849999999996735 0.0
9.906916878988277 2.15455769998631 0.0
9.913397459621425 8.349999999997479 0.0
9.909472363117661 1.640528221515488 0.0
9.913987325695956 1.152857110636247 0.0
9.913397459621425 8.849999999998241 0.0
0.9100099990995943 2.614215977520411 0.0
0.8395284981715456 7.451196254860987 0.0
9.723278867451556 9.898135916635193 0.0
9.723316350887044 0.09841820909386662 0.0
1.385819164827588 4.454539963646463 0.0
1.338343629665047 5.523111536005823 0.0
1.377179700550677 0.6809168304959698 0.0
1.418060461092743 9.285896715136046 0.0
9.91268220142518 0.1457914080939694 0.0
9.906737126737994 9.845745933882352 0.0
0.7108351382691361 6.537941170074089 0.0
1.527735020267026 6.915620208855231 0.0
1.630993885659103 7.838271825205868 0.0
2.232760943566823 7.370850737296832 0.0
2.243414218068206 6.688299277952821 0.0
2.779655053105118 7.021588754814074 0.0
2.80227799359795 7.632420170547022 0.0
3.282022065908813 7.305859666021318 0.0
3.327597298795347 7.857554136825748 0.0
3.743210251018715 7.549183328204379 0.0
3.716353232200752 7.062036086888612 0.0
4.111978858674101 7.27497101169417 0.0
4.104192177581432 6.879858986267289 0.0
4.436230765617037 7.045693351607117 0.0
4.430360014817357 6.703971783962796 0.0
4.732390145036301 6.849841042423394 0.0
5.056161327708878 5.095276573498806 0.0
5.111586796021131 4.999081142133581 0.0
5.169267363407189 5.09444870412406 0.0
5.223795108752053 4.996986220359468 0.0
5.281480803887719 5.092780870372803 0.0
5.335670761900611 4.994887492556936 0.0
5.393485214772442 5.090486192743301 0.0
5.447323082877892 4.992601527033996 0.0
5.505243219343024 5.087953380710069 0.0
5.558739102026105 4.990287787962959 0.0
5.616491581184779 5.085335255235766 0.0
5.669852346908056 4.9879269227514 0.0
5.727502713908907 5.082679981817038 0.0
5.780766004135139 4.988313988715834 0.0
5.838244881129535 5.080480568766611 0.0
5.891357695677371 4.986433849408193 0.0
5.948696036767613 5.077969900389505 0.0
6.001601341641615 4.981313698556656 0.0
6.058851024265095 5.074871552128682 0.0
6.111614020704875 4.978360695880202 0.0
6.168801161530775 5.072044953270978 0.0
6.221368818778567 4.975825765213497 0.0
6.278268309066882 5.066182320461055 0.0
6.330814273567539 4.972837984645718 0.0
6.387565032421376 5.062889771971895 0.0
6.437476667631405 4.971693683589553 0.0
6.496181111585419 5.060210690175857 0.0
6.539454812256072 4.964658165361536 0.0
6.604198202576491 5.056387520850258 0.0
6.648506025747331 4.939374587506267 0.0
6.714026758992516 5.05873885840664 0.0
6.764418045981209 4.959246676066148 0.0
6.8219334571197 5.055299567406268 0.0
6.873708540948134 4.960426349093742 0.0
6.930181428849307 5.053461390218819 0.0
6.981893615341967 4.96435459462232 0.0
7.037791764774784 5.051219747103022 0.0
7.090993561518408 4.96392420322464 0.0
5.504417457283294 4.900897920552702 0.0
7.145434864123609 5.048960634292441 0.0
6.054532384032612 4.883956083938546 0.0
6.738027949040956 4.850032323068674 0.0
7.198432914526514 4.956325226333323 0.0
7.252637187936749 5.046012229327236 0.0
7.30926729605109 4.948903216650376 0.0
7.248106275544042 4.860306312845646 0.0
7.363100274863074 4.849952416808486 0.0
7.365733472701664 5.039519554615095 0.0
7.308483293090149 5.137557220352172 0.0
6.768399513646964 5.145609705119954 0.0
7.422800035311104 5.132251445551834 0.0
7.358273518796229 5.235980394389298 0.0
7.480824155801127 5.227946127939927 0.0
7.302193400058628 4.761917474298247 0.0
7.413570879789824 4.754555110721153 0.0
7.414392998903179 5.334729114426734 0.0
7.352769630272076 4.660405502266205 0.0
7.467556835255426 4.658352623795039 0.0
7.536246869015014 5.328986926716081 0.0
7.478865844607288 5.432598185493195 0.0
7.406396991826072 4.556956233957538 0.0
7.523581002009154 4.552005631348623 0.0
7.597792398573263 5.429506106314967 0.0
7.540511043402902 5.53619421580439 0.0
7.46214474876342 4.452580994318881 0.0
7.5852185078634 4.446021810672608 0.0
7.663329342323453 5.533453399066901 0.0
7.603478967594521 5.643227430483237 0.0
7.513450346818673 4.347641323140766 0.0
7.640744971722214 4.333388343316237 0.0
7.727671715775243 5.642390483050116 0.0
7.667774597993788 5.753188858425915 0.0
7.570065256728661 4.230515669344811 0.0
7.702881065467917 4.218307808529532 0.0
7.638288257073729 4.107994211855027 0.0
7.493362356301017 4.120843902105771 0.0
7.779018500630071 5.521233457321821 0.0
7.794641287388929 5.752364621610818 0.0
7.73369774483611 5.865894287356292 0.0
7.600834531784728 5.867752110500446 0.0
6.233038857278689 5.15645045634683 0.0
7.669727996028819 5.985665563643058 0.0
7.528582452554481 5.987393423295551 0.0
7.598722674572824 6.11001923494443 0.0
7.778305000222867 4.104318908265786 0.0
7.704329019832056 3.987744174608892 0.0
7.838453459801382 4.213322728668484 0.0
7.864495721576461 5.862306066517277 0.0
7.846552353360407 3.98481756181946 0.0
7.769730409703277 3.86544808681145 0.0
5.785249360396857 5.177248808588045 0.0
7.908837087876153 3.861484036275285 0.0
7.834824606222196 3.740586825753288 0.0
7.97685993406276 3.736209527152902 0.0
7.89665098770825 3.615501862931453 0.0
7.753228010315262 3.617800245018972 0.0
7.826063013090472 3.483173292579822 0.0
7.66789744383048 3.48859328808356 0.0
8.042515855796823 3.595394268381807 0.0
7.75200750488492 3.341279823834038 0.0
7.582870318332553 3.346584916806707 0.0
8.120807847415062 3.732493963388337 0.0
8.189783970303546 3.61159165475499 0.0
7.657801000286734 3.200439907646711 0.0
7.486781956172036 3.201402473247712 0.0
7.452595103886905 6.11418616185016 0.0
7.527098033550077 6.243191052852112 0.0
8.260502906807751 3.728437634721859 0.0
8.327629317451398 3.608173631356984 0.0
7.372763970891452 6.247552889754036 0.0
7.456170570815929 6.384992468962936 0.0
7.621837793616884 6.376077080857113 0.0
7.548039512904141 6.520750676893614 0.0
7.717475944451644 6.514856553988943 0.0
7.636658166268699 6.661648164052906 0.0
7.807468267259438 6.664076174524672 0.0
7.718022764310774 6.817938967122142 0.0
7.887785766941087 6.807440365887151 0.0
7.545993589083432 6.815070675854734 0.0
7.809874785067209 6.967537287475282 0.0
7.975643812145337 6.948729406725126 0.0
8.396477808021062 3.725446935061211 0.0
7.565651643157136 3.044354774611752 0.0
7.384328725505071 3.043048915147076 0.0
8.056405351948353 6.802790889114673 0.0
8.14128318237188 6.940027831915737 0.0
8.064621760266059 7.086348792208953 0.0
8.225003598857908 6.805225152373254 0.0
8.463085452993242 3.606998510553562 0.0
8.230426869720718 7.079551841000411 0.0
8.155262284174286 7.224761758176069 0.0
8.530696760758996 3.721683301125054 0.0
8.596669886994064 3.604516769862316 0.0
8.528531058025589 3.490411531312337 0.0
8.320451770844851 7.218191678954744 0.0
8.245273958732774 7.363444652121271 0.0
8.66324687389452 3.717094013035765 0.0
8.600103125209296 3.831913857228569 0.0
8.662131102573216 3.488322280861316 0.0
8.594166125380536 3.374071873435548 0.0
8.411074336066186 7.353871649576861 0.0
8.339644223432472 7.505172120620427 0.0
8.165883718619623 7.513159193685373 0.0
8.483453820080417 7.2082285366806 0.0
8.261200365730348 7.657400951288149 0.0
8.081570576666843 7.670933304838066 0.0
7.471613195794025 2.872548423100142 0.0
7.268733678357991 2.881209199257603 0.0
7.184255506995786 3.084448584600423 0.0
7.065899603697895 2.883902449336828 0.0
6.960163891183182 3.081014635802978 0.0
6.847612128388715 2.885646860602812 0.0
6.739800729737967 3.078895733381448 0.0
8.729373804596847 3.827689165637365 0.0
8.668550856907444 3.938702277545298 0.0
8.72770789162863 3.371798381178293 0.0
8.659764090070603 3.257493349874974 0.0
8.436453928793245 7.648724489148887 0.0
6.619080287792762 2.90880017416788 0.0
6.511740956842646 3.09340654756684 0.0
8.793527829963288 3.935174834810256 0.0
8.736430500996828 4.042719556852617 0.0
7.631260330584174 4.565300771328012 0.0
8.359058396840432 7.801678182761817 0.0
5.339436215072359 5.184870243702279 0.0
4.994031736761993 5.193306795607908 0.0
6.383387675268097 4.87760645722207 0.0
7.29117392392962 6.382172868329505 0.0
6.378196825372041 2.907113079755629 0.0
6.269817199014261 3.12412150658573 0.0
8.793149127377946 3.255386294257182 0.0
8.725774239201558 3.141596687892195 0.0
8.857434600673502 4.041295940541356 0.0
8.802868937128341 4.1471119953668 0.0
8.532045262478793 7.7905977476835 0.0
7.364542641624493 2.699128473342751 0.0
7.571677611088925 2.695732556686516 0.0
6.723058333614999 2.672341359410618 0.0
8.456744924757372 7.94483904450548 0.0
6.140831279784704 2.921247401137864 0.0
6.02419219050745 3.14358702955763 0.0
8.916255604212301 3.934279868822481 0.0
8.859287250884009 3.140226640574265 0.0
8.791092798057303 3.025929352146465 0.0
7.210445465986021 6.245773134960393 0.0
7.120884161792869 6.385155584680196 0.0
7.036931702064287 6.240721609143972 0.0
6.943722280007011 6.3869279517155 0.0
8.920094519678617 4.144837222494242 0.0
8.864374107136287 4.250930406527029 0.0
7.347569838739255 4.463467417508182 0.0
5.90383431757064 2.935113219563906 0.0
5.783476009580765 3.156456199832474 0.0
8.626013191558314 7.935092223505354 0.0
8.687240186957197 7.796697889991163 0.0
5.642059327424706 2.903018174330269 0.0
5.52647853955939 3.162549070310043 0.0
8.555300051897738 8.086169516016518 0.0
8.405624441178524 8.083972416481254 0.0
5.374124307190728 2.945480555950917 0.0
8.935805220807357 3.249260758206028 0.0
8.981625171409894 4.247375537584228 0.0
8.924725364486765 4.352101286657735 0.0
8.807208588134106 4.356163101450244 0.0
8.868277832430604 4.45657124153171 0.0
8.75099635287701 4.460644845248524 0.0
8.812385950597063 4.560891222623518 0.0
8.693833206943118 4.564602972998703 0.0
8.756474732548273 4.665720853686476 0.0
8.63721608225855 4.669394550615355 0.0
8.700108119351134 4.770682016274914 0.0
8.81920502916846 4.767536120893284 0.0
8.76355311338807 4.871451945248518 0.0
8.881442328033694 4.868382238751069 0.0
8.826433523510634 4.97132552240372 0.0
8.943387824985514 4.967694248194483 0.0
8.888718468126953 5.071044784833541 0.0
8.580377663835254 4.774669738817985 0.0
8.770572242937233 5.073880380431421 0.0
8.832915096600454 5.174518948293615 0.0
8.952224483821848 5.170970838320107 0.0
8.897282771771884 5.275476392171722 0.0
7.463928467290875 2.513944501591933 0.0
7.675935950092034 2.509420347143072 0.0
8.924252417741767 3.024418701372628 0.0
8.857265893102921 2.911213535286156 0.0
8.776981063213334 5.27944309004916 0.0
8.840710910770163 5.380165700477552 0.0
8.960876896785969 5.375521424256389 0.0
8.904555918255223 5.482125846038813 0.0
7.567193097677677 2.32750151280277 0.0
7.780880844888839 2.323064027160363 0.0
6.851602118390116 6.234522818184622 0.0
6.758680682687229 6.389359516748128 0.0
6.66345977321418 6.231254850996584 0.0
8.715764716958308 8.079994249772627 0.0
8.65189989696114 8.227534663647639 0.0
9.042229096541828 4.348551764001607 0.0
6.436774206993324 3.316782326998922 0.0
7.590527613340588 5.22651784724799 0.0
9.024366884701616 5.476726561488805 0.0
8.968734351641839 5.583879050892151 0.0
8.845941080047659 5.586406316932274 0.0
8.909881305857882 5.690482454668167 0.0
7.348726871578975 5.44047403999932 0.0
6.567070253986433 6.398115757512583 0.0
6.697077150072261 6.553426749743366 0.0
5.252377383990728 3.187782967482479 0.0
8.988440431820699 2.908621158637298 0.0
8.922541972760119 2.796420836075996 0.0
6.466806010659505 6.229115583261771 0.0
9.033851153821296 5.686506775615425 0.0
8.978340519963718 5.795772485582058 0.0
8.85111463793018 5.798672910287243 0.0
8.922171984280597 5.907237880910408 0.0
8.795190680908043 5.911854068712683 0.0
8.864373398892472 6.019728357749566 0.0
8.991346995940626 6.014539153309398 0.0
8.93374019140187 6.12698887312768 0.0
5.095192648098848 2.952353430985476 0.0
7.672651464908932 2.141715359830917 0.0
7.886266921042761 2.136211284120189 0.0
9.098474286589756 4.245971410451114 0.0
8.813172564986438 8.216887361735234 0.0
8.74802978243154 8.366104673219047 0.0
9.059985162956899 6.120982589539211 0.0
9.00342813739303 6.233245043891739 0.0
4.961413514304496 3.214209167276753 0.0
9.05248113004685 2.794651022570942 0.0
8.986028039118027 2.681341972594222 0.0
5.671890458441996 3.377122473800023 0.0
4.755829262593116 7.184480462344647 0.0
9.158258644940048 4.34465968221255 0.0
4.799687186662534 2.961354824469195 0.0
6.030554747591715 2.726787502996874 0.0
8.938327180212585 8.34758372042188 0.0
8.847392320655468 8.503370672816716 0.0
8.67342124373679 8.518117686968314 0.0
5.234423106934083 2.694925204361751 0.0
8.964923046453565 8.185313058214797 0.0
7.456650986668838 2.134076476407834 0.0
9.111732084821366 2.897226832609386 0.0
6.368055837513985 6.402805870976705 0.0
6.265629899005033 6.226581076317183 0.0
8.736327196352686 6.026404178766982 0.0
9.117473097358854 2.67987006607594 0.0
9.052137415465204 2.565428515518978 0.0
7.781001557847192 1.955874236406257 0.0
7.992134447300669 1.949184538864554 0.0
8.593074792993455 3.143159483125708 0.0
9.1291360203536 6.226877897052981 0.0
9.072154326613617 6.338696745620542 0.0
8.916532550320525 2.566986282201109 0.0
8.984021113721658 2.449252898983242 0.0
9.178032243215632 6.120533546076094 0.0
9.213703592343162 4.244823670856978 0.0
9.11972142641474 2.449071238668887 0.0
9.052853896812186 2.33190758581705 0.0
8.635035926402708 4.462329956179506 0.0
8.773614475966344 8.657865377672689 0.0
8.596400917257634 8.67759750279447 0.0
8.942023339420883 8.644678093589654 0.0
9.19471670675691 6.33096438039349 0.0
9.138460613363325 6.443043552768813 0.0
8.66620319432524 5.916297234509582 0.0
8.606669825267202 6.032658196729024 0.0
9.27222540210304 4.341341907533128 0.0
9.013782808177437 6.451040569407859 0.0
9.08360982569773 6.55729980456602 0.0
7.885622149776354 1.768093045890686 0.0
8.095672144455353 1.768790621151345 0.0
9.208772072925791 6.549717411809656 0.0
9.154272208194383 6.662613503537815 0.0
9.187669783927937 2.334640996932141 0.0
9.122379015831417 2.215832190697178 0.0
6.164077036161143 6.404611236428829 0.0
6.062367614988677 6.224307160647549 0.0
8.987075041759633 2.211477580983978 0.0
9.056972755801603 2.093573581203428 0.0
9.194557288902232 2.096029761809264 0.0
9.131223008370409 1.972713028695079 0.0
8.87381302587057 8.795793668920256 0.0
9.039169086943392 8.781606667490083 0.0
4.662813350519927 3.228118291851354 0.0
4.474181267994617 2.945703616023359 0.0
6.562627723301209 6.075544382232434 0.0
9.326886053211574 4.243083624343211 0.0
9.280374192897945 6.656072830232892 0.0
9.224718905178564 6.766740750539347 0.0
4.703284910421452 6.528907865005451 0.0
8.955136474970331 6.565989985649191 0.0
8.998148826814893 4.865480736169776 0.0
8.99429836796776 1.965972383552685 0.0
9.065669391141741 1.847195105148808 0.0
9.207236162050343 1.853010386995843 0.0
9.143218073349985 1.725630086781897 0.0
8.998867447699345 1.719378449325465 0.0
9.082595782768397 1.592017827427701 0.0
8.92804562738841 1.585238202229766 0.0
9.01637794607019 1.453847302675876 0.0
8.854253119154375 1.446306868730686 0.0
8.941620273019874 1.320083886766936 0.0
8.775393064215876 1.308487027359826 0.0
9.102170347200483 1.324733726345249 0.0
9.013857060361985 1.178821526410403 0.0
7.991031819452564 1.587689878441685 0.0
7.767218744640202 1.595993197647291 0.0
9.191539171305216 1.194087248761656 0.0
9.123965901037613 1.057102462689568 0.0
4.853921953226772 3.470213116851758 0.0
7.496563223334782 3.470157221608763 0.0
8.536691379028115 5.921845852206257 0.0
8.475496498707471 6.037633662010236 0.0
7.978668526342969 2.307231488316941 0.0
9.384721922092124 4.337357165846226 0.0
9.331039180200886 4.435926256444196 0.0
8.546261775564837 6.150267290476958 0.0
8.411727261785726 6.155319300628062 0.0
8.972203609044218 8.930944433074036 0.0
9.133480321468399 8.90955269607895 0.0
9.197778815538276 8.768743880012563 0.0
6.162231825784922 6.05277753404107 0.0
5.962111081146334 6.046949845237622 0.0
9.268727788642101 4.146883230687689 0.0
9.380694211527906 4.144811697563401 0.0
9.323823335199954 4.049557759546529 0.0
9.283324894520613 1.736313094621396 0.0
5.858151623803662 6.22041808248046 0.0
5.759668475561988 6.038806123495502 0.0
7.836860473863919 3.191674397465999 0.0
9.348591928839294 6.75855034547469 0.0
9.293979592221298 6.870213350675044 0.0
9.170543172728557 6.879819332293818 0.0
9.240028263813034 6.983394994050525 0.0
4.347372565145963 3.312731475520695 0.0
4.114183445909965 2.96879678229065 0.0
8.616264880152233 4.042035981070631 0.0
9.403174760076901 6.650407069150438 0.0
4.173860112179449 7.723461240865885 0.0
9.365302975518428 6.973476802087294 0.0
9.312420275675276 7.088420778208979 0.0
9.184876614539778 7.0978133687822 0.0
9.25921281729617 7.204979813006656 0.0
9.12816413817609 7.21569648263899 0.0
9.203944409919862 7.322703303071253 0.0
9.334311975087337 7.311477957762272 0.0
9.280415785210538 7.428795599957155 0.0
9.274060219641907 1.066603180421249 0.0
9.211820491509728 0.9316562593680151 0.0
9.050684011148748 0.9017681241401576 0.0
9.441953732403995 4.432092590771756 0.0
9.394725873909666 4.526051349391942 0.0
9.43453556160865 4.048003950509361 0.0
9.378043599351757 3.952631412328806 0.0
9.289691247910705 8.890746792319852 0.0
9.228148443138926 9.030109127390128 0.0
4.440757888677695 6.389562448928118 0.0
4.689874463978985 6.239329075084555 0.0
4.291519540095677 2.622920583112654 0.0
3.886073352912894 2.632778677714434 0.0
9.344015622314338 1.202401041544343 0.0
8.193292196814806 3.849649660906171 0.0
6.960946604527747 6.07044529864598 0.0
9.347708267319902 8.756364147482309 0.0
6.826423138602714 3.261415861395883 0.0
6.06309517882478 5.884563187328262 0.0
9.4085057714426 7.414123963607981 0.0
9.356416821537886 7.532359471354527 0.0
5.042074134251055 6.938947182785697 0.0
5.063988238156824 7.311205832605263 0.0
3.946666851334923 3.30681624613374 0.0
8.189857914071878 1.939951128540477 0.0
7.880690277686857 1.38928908049477 0.0
7.63766396748483 1.399736360041063 0.0
9.345004233592562 1.857695941115052 0.0
9.440465164139875 7.085860901905448 0.0
7.918332480761888 5.744468010879592 0.0
9.08007135068879 5.372457017512481 0.0
8.78639561093144 3.718391405525285 0.0
9.356843485085705 0.9414458825132457 0.0
9.29705128845331 0.8103081541678832 0.0
9.251825423225316 2.451701826351773 0.0
8.483895366325516 6.270717564685176 0.0
8.346386886249478 6.275973306650227 0.0
9.493299170161215 4.138582531223591 0.0
5.321115649032961 7.117073603021904 0.0
5.354076009109965 7.436189411362466 0.0
5.597984079819928 7.254284331170681 0.0
5.644042313435943 7.564172740776336 0.0
5.383963016128051 7.753854027984002 0.0
5.681168258142109 7.880444993178456 0.0
5.935548099874979 7.687258900444162 0.0
5.979508404301389 7.994332725561488 0.0
6.21936843555201 7.802335560754011 0.0
6.267092590637372 8.104873033518185 0.0
6.498845418385807 7.917606504106031 0.0
6.544600005636809 8.209910620392591 0.0
6.77336078689533 8.027284686082275 0.0
6.814840179123049 8.311778392637773 0.0
6.721304148677048 7.737863326704131 0.0
7.031320924898797 8.1335673274533 0.0
7.077388928622946 8.403901803728003 0.0
5.417471987089176 8.090112295667405 0.0
8.845427688507666 2.446352368201366 0.0
9.318512319918124 2.339233739859646 0.0
9.380241452597096 2.451895615249572 0.0
7.283805558009199 8.237518806365102 0.0
7.329200330160381 8.497045124353782 0.0
7.233272584416691 7.991590926766813 0.0
9.142592248414191 5.471315142785471 0.0
9.196303265878848 5.36738298742727 0.0
9.25795832955665 5.465260877691205 0.0
9.310581303233182 5.36341558704714 0.0
9.371094700882272 5.459458038195667 0.0
9.422767107822985 5.360687090455724 0.0
9.36402660964156 5.264821436196721 0.0
9.474220736978928 5.262802348886269 0.0
9.41680330511366 5.169477108906666 0.0
5.168675939028436 4.895496152382537 0.0
9.482591449057548 5.454699312257291 0.0
9.431567605310825 5.552723344040521 0.0
7.531449703396948 4.741663470323411 0.0
8.517293123442691 4.672601123164268 0.0
8.459978676626639 4.778466809901586 0.0
8.396595115309985 4.67568709170855 0.0
8.338966609235166 4.782101664607259 0.0
8.275355646032752 4.678829956447008 0.0
8.217675280223542 4.785699596769931 0.0
8.28149024865807 4.888803783902183 0.0
8.16019781596952 4.892696417098926 0.0
8.22433278506531 4.995725219088695 0.0
8.102825704443651 4.999629142625341 0.0
8.166887930010795 5.098242831115916 0.0
8.034904900788316 4.896825406879729 0.0
8.15353539905931 4.682103688185489 0.0
8.211891449058882 4.574219757233394 0.0
8.290305306104333 5.094007100958221 0.0
8.225684228618732 5.201525567655179 0.0
9.444618942559746 2.343141375196729 0.0
6.929446520625337 4.868116916840016 0.0
5.737810725167649 4.893891407574175 0.0
8.720389971487277 5.38508368411851 0.0
8.805734920311323 8.951818172412821 0.0
8.905272694453211 9.083303226359831 0.0
6.006155038818204 5.171375272745409 0.0
6.431496448228514 5.152985998213245 0.0
9.052675024457304 7.106590131831544 0.0
7.740007013494393 6.09727525827826 0.0
9.375852260355511 9.013078430361404 0.0
9.32035844773103 9.14584923943073 0.0
6.989707597683965 5.146377438798643 0.0
9.488190206836386 3.951168069367155 0.0
9.432429152094464 3.855725756072153 0.0
5.568386402814275 5.185723849666124 0.0
9.525561551078322 5.166162126187324 0.0
9.465026391994275 5.072601962964018 0.0
9.320357339516937 3.857795423728873 0.0
9.375955927831914 3.759314274140895 0.0
9.261783786753899 3.761412578759438 0.0
9.31820665563318 3.661845422072752 0.0
9.431798673168924 3.660830894813109 0.0
9.374584413615914 3.563138564686839 0.0
9.48759661134647 3.562294297118573 0.0
9.431339678707085 3.464016717943268 0.0
9.417896212887529 1.746970678437863 0.0
8.731705369070733 9.110902182838881 0.0
5.652297951447118 6.21188565774667 0.0
5.569122518069258 6.024400786163834 0.0
8.257007204149394 3.505875091031567 0.0
8.717428603143034 2.925525757227976 0.0
6.882852832747376 8.57686572931064 0.0
6.337330066435714 8.416819098143066 0.0
9.50188906539997 4.521022403818629 0.0
9.453500859905136 4.617181635748691 0.0
9.46806769570129 6.749352117850711 0.0
8.836822104875719 1.72282859852854 0.0
7.481071063421426 5.64593758994851 0.0
5.668814988976305 5.86611128457842 0.0
5.487644760735084 5.847591822776978 0.0
8.993992818065195 7.228173913870249 0.0
7.98322414937693 7.229980191466666 0.0
9.22810751684646 7.54864871395298 0.0
9.304103360459063 7.654622011545798 0.0
9.432787371848761 7.633691049023619 0.0
9.382619818023882 7.759136995934441 0.0
7.239096822516492 4.679179578301165 0.0
9.47692479956498 1.861231395362419 0.0
8.041243110813022 5.095895152648969 0.0
6.190208781188077 7.509864122823853 0.0
9.283062812782122 4.549418667685757 0.0
9.503847665760087 2.450295046295932 0.0
9.443345385250678 2.557904120404248 0.0
9.52009568463353 6.644015937008899 0.0
9.203119005973903 3.662458522935253 0.0
8.406198651282708 5.92630414760378 0.0
8.467263597743843 5.811987729136874 0.0
9.461423029059445 9.128120577356565 0.0
9.408445330070542 9.26024300250086 0.0
9.266505293379728 9.277952925446408 0.0
4.14874709022218 3.631681332690154 0.0
9.437448107949258 0.8198473430736303 0.0
9.376993771693973 0.6910550697058979 0.0
9.22882356848217 0.6931820370818127 0.0
4.451823867195988 6.103664366188579 0.0
4.200031743909027 6.232039028149317 0.0
4.687154754667774 5.975132870483986 0.0
6.268889397098538 6.592235545990395 0.0
7.509366161722768 8.340075462391164 0.0
7.564775703413765 8.59800936579159 0.0
9.542148732924264 3.854614593058991 0.0
7.036231103929761 6.550562550831048 0.0
4.089373665437328 2.268193930262139 0.0
3.642558884866483 2.250386188148396 0.0
3.442182385618804 2.651948803899947 0.0
3.146832503011753 2.222630466765926 0.0
2.948870467975985 2.805088883766417 0.0
9.352005315330274 5.067356449300542 0.0
9.31729677031493 3.462944187594675 0.0
9.37428383619102 3.365546369736205 0.0
9.4883538239391 3.365384871181599 0.0
9.432147665178338 3.267287636377487 0.0
9.25034519267688 7.775848812012313 0.0
9.332091350002502 7.881724023243533 0.0
9.462101000264603 7.86490055671988 0.0
9.413353271651825 7.98561007219363 0.0
8.273592814723814 6.158623919352561 0.0
8.207135014732339 6.280394934566054 0.0
9.541483811580331 5.548224291759592 0.0
9.491365919893726 5.644847811894615 0.0
8.088095771120983 4.577581369371366 0.0
8.14760102783746 4.468303741922308 0.0
9.556217963323956 4.414867468889523 0.0
9.543667331547693 3.266908751519594 0.0
9.489307652535885 3.169908976697059 0.0
9.26285575842982 8.635341362685686 0.0
9.403220742003983 8.621447866627538 0.0
9.326013417886902 8.506778946171965 0.0
9.455477927154853 8.503896705359047 0.0
9.566646674069602 4.611465258087684 0.0
9.499341049870914 0.9352184973273918 0.0
8.683891958597638 1.444705608998412 0.0
8.599973456173778 1.287265568270043 0.0
7.760988189317371 1.175381292562583 0.0
7.50927661322749 1.171223823957793 0.0
7.380927152434357 1.411062577009695 0.0
7.242417847270241 1.170759311509981 0.0
7.107236746116019 1.421234419770886 0.0
6.960799033544566 1.169618322344823 0.0
6.817786081200392 1.434174581170586 0.0
9.48095050141868 8.738557748483624 0.0
9.319762046171894 3.263060331456388 0.0
8.920653400180534 7.117307656029475 0.0
9.452431221190624 6.544166520883111 0.0
9.571407933653493 6.540336592280795 0.0
9.507586285214174 6.443281357841339 0.0
9.575252974749443 5.070210512157044 0.0
5.755172844377253 6.370710487467459 0.0
9.541351959064952 7.969072511059531 0.0
9.354607289792183 9.3921968735401 0.0
9.495213435762107 9.37218405175897 0.0
3.77688136092967 3.643094492921176 0.0
5.460967180339239 6.159077196937325 0.0
8.656589552918996 5.283032675040985 0.0
8.599307076390474 5.387421722684671 0.0
9.584017606465821 5.263931993965828 0.0
9.51536593891754 4.977534386249715 0.0
7.788544970111893 2.70578432810479 0.0
7.381746833264364 8.755477463411431 0.0
7.615969996822885 8.852710176548548 0.0
7.783643411970649 8.691528137204457 0.0
7.845017394185501 8.938777577473743 0.0
8.570520580943368 7.342304222498308 0.0
9.103648004226827 5.781084627507008 0.0
8.338082930126799 5.815990105349368 0.0
8.930848895071895 4.561111316304916 0.0
7.381089602119859 5.983657236035151 0.0
8.42066837692862 6.393608568217351 0.0
8.888256157021065 6.459558428285236 0.0
8.826495664731354 6.575679897210801 0.0
4.22522220414496 5.921354747981145 0.0
3.943296448343383 6.075578573904587 0.0
9.563175937841836 2.554860696349795 0.0
9.505342423182917 2.656889632284623 0.0
6.660863480070611 1.168750929063519 0.0
6.518316961679488 1.436478598119306 0.0
6.683474168246802 1.694104067636375 0.0
6.376799057174731 1.707382100972048 0.0
6.205091481342603 1.443621641108414 0.0
6.058670988071357 1.728841803855816 0.0
5.877457486049096 1.454297236926778 0.0
5.724979192982589 1.756666409586195 0.0
5.529885788012015 1.462283739157555 0.0
9.514953777019835 0.7018468683209754 0.0
8.398665270372675 5.702731562702358 0.0
9.456442249775696 0.5772068858285652 0.0
9.565795671866349 2.345573662774494 0.0
8.830758563027459 9.247271599108435 0.0
8.523580738257648 4.88015211128435 0.0
5.580123316488715 5.701889892660689 0.0
5.398591029446707 5.685938459654249 0.0
5.367686360823392 1.778740548277203 0.0
9.546603444041448 1.754984055696778 0.0
9.489649223089446 1.641312329051244 0.0
9.617973952467912 3.363804764345866 0.0
9.584322830999731 6.729956156156573 0.0
9.597221861144487 3.948534024289882 0.0
9.49401963819799 8.089507968561776 0.0
9.207321074262563 9.416906871900888 0.0
8.27185428346661 4.464932191097996 0.0
8.207416067213774 4.35878753684812 0.0
8.332747746635944 4.354903699457511 0.0
3.990181919126853 3.930792395858886 0.0
8.267392138262498 4.254008221702929 0.0
7.997788712685495 1.196805377512679 0.0
9.600316638269724 5.639973985281733 0.0
9.550939606739425 5.737313319038155 0.0
9.44084303195315 5.74233753256161 0.0
9.50112296154558 5.834555019909565 0.0
8.897429225733994 6.685415510921676 0.0
8.762930941408914 6.695907295903629 0.0
8.654628175336732 9.278157371342388 0.0
8.544676900803436 9.133790942553834 0.0
5.294904777716057 5.855935872688884 0.0
5.216749389964556 5.66865685845661 0.0
9.508453581298625 2.239460033375932 0.0
9.599691370793206 3.169496930704394 0.0
9.546615051106684 3.073514534194011 0.0
7.484714626923596 5.028675123117963 0.0
9.588496050271255 7.850836295555126 0.0
5.153197381012662 1.471340286561097 0.0
9.433168304679345 3.071871997104804 0.0
9.610464706874994 5.829217654498672 0.0
9.561407772947403 5.926179534044419 0.0
8.273381980676042 5.705233340662362 0.0
8.330794188929296 5.594351887246082 0.0
8.207319603076424 5.596747949305344 0.0
7.251338559467102 5.233758892662348 0.0
8.708518799790543 1.130513882092466 0.0
9.590155250193266 0.5878623138195824 0.0
9.389919385420015 5.841079912164009 0.0
7.991397852194216 5.859910582924319 0.0
9.624951589233206 4.975554514425905 0.0
7.240016788025947 2.531866266726309 0.0
7.635666783493215 3.873554782053258 0.0
9.608476620993713 1.863530872936442 0.0
9.365330459496413 8.10677840682376 0.0
8.775076110585598 2.572737931759856 0.0
8.699389445914996 2.444602334375113 0.0
8.625078713232146 2.580891022578613 0.0
8.54447196848446 2.447624719286678 0.0
8.468898498943965 2.586757328881282 0.0
8.62282309213608 2.307826916202421 0.0
9.622102662978762 6.439307895185218 0.0
9.561995355724862 6.35103962032292 0.0
3.898245450818314 1.856155797593496 0.0
9.681759177700954 5.07069253017652 0.0
9.059254996454502 4.963357716933865 0.0
9.113144532326562 4.861710138088372 0.0
9.62140874877204 2.656009146517733 0.0
7.884510615470827 0.9666888912541309 0.0
8.14902661050739 1.005010215149227 0.0
8.491263206618079 8.527197931363634 0.0
8.408859203395778 8.697060715788105 0.0
6.54422152733529 1.954566069381189 0.0
9.563546573097593 2.755667904356369 0.0
9.453065492925557 2.761122255953964 0.0
9.676889098520615 2.755084315170127 0.0
9.678287124781653 2.556838324720633 0.0
2.60254317790297 2.278874965850319 0.0
9.211706272534968 4.050470567310489 0.0
8.526711683538949 5.698821878547752 0.0
8.296604023060945 8.533761944401608 0.0
9.649704314258118 5.543946557831669 0.0
9.651176136337964 3.85122804518279 0.0
9.44590154800397 9.498503704959054 0.0
9.580491248736612 9.476376347552954 0.0
4.3239388803087 3.921156392977062 0.0
9.65737873521736 3.075324100817917 0.0
8.128000846282253 6.160273991836929 0.0
8.06242981852327 6.292371360998262 0.0
8.500465019503922 1.442700595221201 0.0
9.615253212967009 1.649819368149096 0.0
9.561768620580791 1.538553925606111 0.0
9.435477757657937 1.527391516499924 0.0
9.627993450010088 2.242685831452484 0.0
9.5338252733548 0.4673994795805215 0.0
9.398055066504014 0.4589059948533885 0.0
9.669486082509058 5.920177035588319 0.0
9.621072177439727 6.016493814615133 0.0
9.506185962103057 6.018397021409126 0.0
9.196884440497488 7.898824858961557 0.0
9.112591143666748 7.789491461180181 0.0
9.664357762385308 7.950712034233033 0.0
8.46233617997115 2.308903464128035 0.0
8.547917980328803 2.169381684694277 0.0
8.139931430059324 6.410762600521521 0.0
7.672499127532963 9.099143622036436 0.0
7.91372855627271 9.178704612763656 0.0
8.463425076318451 9.290653726808348 0.0
9.643938029094286 9.335632419679458 0.0
9.647017668702574 0.7068996148634754 0.0
6.241662276606473 5.884018212993202 0.0
6.157742245066693 5.73500474100449 0.0
6.318815619949124 5.730068085823802 0.0
6.247706374231452 5.593094310939028 0.0
6.406948541886973 5.593272398468375 0.0
6.092564106310554 5.587409338401505 0.0
8.535507922245372 5.286142900439676 0.0
8.022959839404006 4.471630490587016 0.0
7.963561162854596 4.581393556789843 0.0
9.683487139413305 1.546750704925431 0.0
9.630761777960082 1.435922217091829 0.0
5.121714348989337 7.950140247572198 0.0
5.136464096196084 8.310254432483559 0.0
5.47349124035624 8.455234262268478 0.0
5.176273618280354 8.687190323573228 0.0
4.796664658962938 8.592678692862421 0.0
9.568705729418735 4.887269869750176 0.0
9.462711651199594 4.88832222094458 0.0
9.674903475028225 4.882285174433025 0.0
5.4996067353406 5.546583260717527 0.0
5.663632234555963 5.557613452957074 0.0
6.829408195405585 1.947174574944512 0.0
5.336529198289861 1.127585641139875 0.0
9.672387559812332 6.34138351957329 0.0
4.463988917379896 2.271060678869338 0.0
8.618048281355405 6.263841736419089 0.0
6.480949808711781 5.74815588680617 0.0
6.562207427719153 5.592185077216444 0.0
6.643040463857446 5.721233693378952 0.0
6.712825900331884 5.588664360236 0.0
6.79240375630333 5.711383948285569 0.0
6.86115931532141 5.584697050428064 0.0
6.939210100691576 5.704407337029545 0.0
7.007668476576536 5.580801046893123 0.0
7.084627386867475 5.702817970154801 0.0
6.633257976075473 5.460881327825488 0.0
6.931430743764456 5.461960451448691 0.0
9.682652370938209 6.533133024505995 0.0
8.761108695241376 9.450742747770144 0.0
9.146031326900015 3.764292700000154 0.0
9.089378801805193 3.661317181076136 0.0
9.514354521818781 8.994988681611192 0.0
8.157650730500988 4.262987189670279 0.0
6.329633198899328 5.4647789391701 0.0
2.340685767996258 2.811285337457589 0.0
7.379572471323651 0.9290892725587991 0.0
4.171878172186605 4.222320767259098 0.0
4.4876601621649 4.16473354200826 0.0
5.336389369563535 6.806464508860387 0.0
9.595468321212476 9.108133206829102 0.0
9.645038675267227 8.982113951305912 0.0
8.393140678816192 4.246338342095281 0.0
8.309440721624494 4.155300532283633 0.0
9.418269339704423 1.9925512363779 0.0
9.662781807969623 0.477809346089035 0.0
8.011297869803792 0.7518828483803571 0.0
8.250149975885678 0.7646904662196189 0.0
9.608674873602773 0.3618049194050078 0.0
8.692696069692623 6.582927327365709 0.0
8.628225948401226 6.705702462696891 0.0
8.701883181418305 6.822086652299242 0.0
8.559276855155542 6.829564723911442 0.0
7.069268463354993 5.459534423493629 0.0
2.654575201159115 3.323490466195074 0.0
3.610801136544596 4.044075244426243 0.0
8.263757217166944 5.48730323490738 0.0
8.138838162809126 5.491254533497952 0.0
7.90196833683664 4.477386962763833 0.0
7.987943097943191 3.978756490171551 0.0
9.704623491880403 3.945605151832784 0.0
9.461009573830147 7.301728818091931 0.0
9.532468631193666 7.399916015174975 0.0
9.582688928417856 7.292330983701011 0.0
9.652579613269625 7.387768793572397 0.0
9.699264016151023 7.282867433965265 0.0
9.633305589700536 7.188543855060478 0.0
9.505576100168666 6.961225778216469 0.0
9.43876966151099 6.342441564206569 0.0
4.908483672172518 6.098703904450545 0.0
9.135448256237908 5.269827196966999 0.0
5.905650502271389 2.025036080946255 0.0
9.709890722072377 9.452748507541063 0.0
9.663337613522643 9.572126259365891 0.0
9.603900123387826 7.495180532331903 0.0
9.720147629525837 7.483400774981126 0.0
9.674588415444239 7.588303295299578 0.0
9.653186673863587 4.039274180923234 0.0
9.053164539680804 4.764545162185531 0.0
9.164908495749003 4.763017269285045 0.0
9.226019227262443 4.858029410614327 0.0
8.809947621994619 3.4964384919072 0.0
9.10538997155458 4.665865142902959 0.0
9.331074106432244 5.748993480915537 0.0
9.055854333858068 7.918554535314415 0.0
9.446431573964945 8.209836764658437 0.0
9.573844810886287 8.191100251691205 0.0
9.309704769895653 8.244395007943949 0.0
7.240329561730736 1.676197957122907 0.0
9.543389817573933 3.660019800390455 0.0
9.598599341122098 3.563130123982772 0.0
9.652615161407017 3.658119804270645 0.0
9.706336063693934 3.564815526226687 0.0
8.632284427755456 6.946688912416058 0.0
9.682863230715835 2.349655023034811 0.0
9.571538455120994 2.142369886250143 0.0
8.090821900439733 9.017409120951333 0.0
6.812258669899192 0.9007667548831626 0.0
6.50135254578461 0.8974046495177885 0.0
9.598335906230732 6.246437748035812 0.0
9.719677442549804 6.253968775436637 0.0
8.593026822691716 5.180101360605356 0.0
5.537586126848265 8.836083861509138 0.0
9.688689404995035 2.143487155934306 0.0
2.821389253975936 6.507820864074362 0.0
9.176571289960709 8.507736431357309 0.0
2.918303740542162 8.256728920338826 0.0
3.428955230180972 8.401446814887457 0.0
8.490587404589881 6.715350139132777 0.0
8.86049054904785 7.243279881821806 0.0
8.93696309213556 7.356650230611625 0.0
3.951931175165697 5.78308550088855 0.0
3.65055612573298 5.91672400098539 0.0
3.668142216548471 6.247526235973777 0.0
9.717269848920886 5.821831227352286 0.0
9.708364917734201 3.164198601626433 0.0
8.45581975650687 4.569560863828342 0.0
8.204448312099833 6.040774355519757 0.0
8.65969449127868 5.485991799508151 0.0
9.707534571012967 5.634423933296901 0.0
9.62102991883279 2.849662850313935 0.0
9.144093558002634 3.560383427867003 0.0
8.29763273805118 1.77155302934031 0.0
5.280452715709455 9.01633391004168 0.0
8.984558945859158 6.99932633710603 0.0
8.4157550875812 1.275784953143711 0.0
2.068078118650995 3.355462780535101 0.0
9.205703884756806 5.568274778556933 0.0
9.745857863753141 7.178456670302003 0.0
9.681628895748586 7.081494416756802 0.0
8.875818787971069 6.240744812097083 0.0
7.993733797566922 6.414830952863579 0.0
8.462810157069566 3.377071044664789 0.0
9.29428363519789 4.759591981903337 0.0
7.933956818298286 5.97437536746848 0.0
9.028281726378319 3.558713145763133 0.0
9.083461773461467 3.455531762175701 0.0
9.73231939683535 2.849247643393067 0.0
6.70072305037728 2.192432536215492 0.0
6.423245125077639 2.212870246546939 0.0
4.931537051605536 1.135086496804522 0.0
4.746426561586179 1.500381091957315 0.0
9.707706579932626 7.836419656220658 0.0
8.590593344701457 1.595639668013959 0.0
8.708946574109854 2.1688179918246 0.0
8.634728854549891 2.028564483452208 0.0
9.230357659411311 8.129337203173913 0.0
9.102841374461482 4.452881308250647 0.0
8.472081531214734 5.388993924853032 0.0
4.925996806199801 5.844046944846857 0.0
4.702806345752284 5.745688656289065 0.0
4.884357002239844 5.633237011762874 0.0
4.709628434300812 5.536404116679045 0.0
4.530800966746534 5.627044171217377 0.0
6.040296145349247 6.603808099703576 0.0
6.162203578696918 6.795213950202512 0.0
5.923135943221574 6.824060069869489 0.0
6.046693245732212 7.010423490915212 0.0
6.297337598588478 6.979895528204233 0.0
7.760448385794147 0.7294020304851334 0.0
8.492228348169641 6.958778476405878 0.0
2.89219822877093 1.704113597264478 0.0
2.26178643438086 1.7814602252425 0.0
9.726968895980871 6.009547057102511 0.0
6.63195110828313 0.6072886418835157 0.0
7.984023036954866 7.515675826210831 0.0
7.893857204140559 7.681876703427663 0.0
7.778465117872411 7.537836322197895 0.0
7.998204230811618 7.844922503023499 0.0
7.798554315988981 7.858161805718108 0.0
7.917846202023782 8.03040048103727 0.0
8.547520504556728 2.721261126162116 0.0
8.39253850806587 2.732073315877738 0.0
8.306047241032278 2.59069854402512 0.0
8.233011054235162 2.739783364361515 0.0
8.318836035587811 2.879838477099622 0.0
8.159530874574331 2.888511553151382 0.0
8.245490421394788 3.024568439743106 0.0
9.759103003747676 3.077839427881478 0.0
8.083610090773394 3.033523757291178 0.0
8.174562583800352 3.166768504406541 0.0
6.046769434852523 1.155662270344939 0.0
6.968371001421964 2.176347877216873 0.0
8.324858098380334 3.152966249334499 0.0
8.145556596142626 2.609897633546475 0.0
8.970652052821418 7.804556541250797 0.0
9.033737629244714 7.681328986528639 0.0
9.62347010002576 4.796939565664328 0.0
9.72520380348743 4.790261082613535 0.0
4.882631186210167 5.455006233451049 0.0
4.618356368594037 3.933076284395493 0.0
4.748083507220199 4.151025177732873 0.0
4.641724290430313 4.358202249373887 0.0
4.87055838101999 4.337900676660481 0.0
4.974114446887331 4.149149057174687 0.0
5.081577844806959 4.3240148266423 0.0
5.179521650033781 4.148725180298481 0.0
5.276261408871418 4.316673822529601 0.0
5.369189110897883 4.148362797753505 0.0
5.463892033849439 4.338819369807593 0.0
5.550828466075906 4.146274465971151 0.0
5.646554822352869 4.303571429647391 0.0
5.728109623160046 4.138582010823754 0.0
5.821689108984419 4.291959598724587 0.0
5.906082534948073 4.141649907302701 0.0
5.99655838673762 4.288752711512514 0.0
6.077312859438928 4.141011188943332 0.0
6.164215275138099 4.281164574562373 0.0
6.241782344986693 4.140701084167517 0.0
6.324316420613108 4.277393447415522 0.0
6.40284165425941 4.140026953305852 0.0
6.483655157361099 4.273418937894759 0.0
6.561170698911611 4.136221843106807 0.0
6.63512300179586 4.269917278694155 0.0
6.720306110251473 4.133393659385058 0.0
6.63777078218551 3.99617001426095 0.0
6.802492763973074 3.994355399489989 0.0
6.798834760478153 4.276914787769972 0.0
6.15377608509923 4.000134206628027 0.0
6.548727135071258 4.400510710520637 0.0
6.251479300130713 4.421887359316258 0.0
5.275876048175579 3.979624500657822 0.0
5.910905077162284 4.431174408784691 0.0
6.717070288412452 3.851239795555301 0.0
6.883499045994213 3.852555480300214 0.0
6.96664848901999 3.994033961856844 0.0
7.048208567116626 3.854750001965969 0.0
5.810004974283072 3.982497501655442 0.0
5.586615391658107 4.471070246359201 0.0
6.547331954052155 3.853872077215347 0.0
5.179081233207816 4.485638492900557 0.0
7.126615227065496 3.995337770596979 0.0
7.209459742762513 3.856893463870469 0.0
7.130226097876905 3.713620439679428 0.0
6.63075064074106 3.699684148676045 0.0
6.446985573861992 3.697358756862005 0.0
7.043151422977365 4.131713936060725 0.0
7.198322215260019 4.129850614748363 0.0
7.119378405252723 4.26005098890218 0.0
4.797146270976422 4.525762781577414 0.0
4.608329098388589 4.573584257851931 0.0
7.294442092743627 3.720853338661503 0.0
7.215753312764997 3.571378507508807 0.0
7.049631633956289 3.568047985538775 0.0
7.133765707749521 3.414282375958479 0.0
9.755079417839903 5.539705890434435 0.0
9.698955703441971 5.450920012703194 0.0
9.717604099406742 9.09084770432896 0.0
9.276716006673976 5.847248422342224 0.0
9.339081208926798 5.941174203394446 0.0
9.031261921742963 3.750271483819014 0.0
9.08721978689863 3.853416037308712 0.0
4.801461566647803 7.510704110489921 0.0
8.206553504932042 5.818005960412773 0.0
7.362361315389098 3.863102442315545 0.0
9.492826845316191 2.963845037486267 0.0
9.376710375304633 2.97229517374228 0.0
9.3192743723601 3.070687802230453 0.0
7.915389082113898 6.293241865913004 0.0
6.735006382384437 5.832450056405368 0.0
8.456481836836168 4.35369289249905 0.0
8.517718268476031 4.246675068616396 0.0
5.583512022030555 5.411069060406398 0.0
5.73625200174779 5.422617752052123 0.0
5.81006929286229 5.548584937688919 0.0
5.903438861894402 5.420604003204523 0.0
5.43801870974416 5.402925156167655 0.0
7.022641548594327 5.825217331839047 0.0
7.165095795605366 5.826005223633447 0.0
7.223078558430726 5.690146755650336 0.0
7.841396000338385 4.586693006493787 0.0
7.904793170875705 4.690826189066096 0.0
7.785999820520073 4.696719777099973 0.0
7.846448506395101 4.798518978096564 0.0
7.728149182067156 4.803800941124008 0.0
7.788983823826226 4.904802634695232 0.0
7.672018889153144 4.910077510508749 0.0
7.731996012352178 5.014717724244488 0.0
7.852072803124419 5.00743796185411 0.0
7.779278698005006 5.118909346425974 0.0
8.088113864063853 5.605434545811022 0.0
8.016457362785575 5.494849890158723 0.0
8.072290383394757 5.385594956317259 0.0
7.95068657972964 5.38825563681957 0.0
8.309366678475389 1.438342408757099 0.0
9.748160780780179 1.447794693754379 0.0
9.696454228162398 1.337889922375316 0.0
9.568813761940916 1.329560834053294 0.0
9.638326779791626 1.226729570935787 0.0
8.472132467407484 5.182856496818138 0.0
8.066211547412054 6.53691730655352 0.0
8.217035586462373 6.522976700918602 0.0
3.544839338670893 3.324491119989469 0.0
6.999740002965287 5.347729916247808 0.0
6.874544698914502 5.347027470386579 0.0
4.880451234715014 5.193043717957879 0.0
9.104510033763066 9.313204713465637 0.0
9.0466357104558 9.45359399494339 0.0
9.146803165140184 9.569652364413551 0.0
8.134107047896672 0.5527712356100052 0.0
8.369770412730738 0.5571215815175228 0.0
8.47386979744655 0.7564607169846485 0.0
8.585193608569258 0.5749174254532757 0.0
8.683868132726584 0.75505070091701 0.0
8.787381435061018 0.5813987798627239 0.0
8.697570280442534 0.3771156480326233 0.0
8.530048434259976 5.077280516000916 0.0
7.995091351438729 2.90367515012593 0.0
9.731083608815164 1.662638626153251 0.0
7.260488865351954 4.255073962371814 0.0
9.760728358076392 8.990038509880067 0.0
9.716710396257366 8.884160310398862 0.0
8.794627466210242 7.369659405098349 0.0
8.868068657550866 7.515048014893154 0.0
8.702594597629135 7.510501129643432 0.0
5.132320689147051 0.7610757801158905 0.0
9.755852887652699 3.853180024615871 0.0
9.787424819067885 2.757921105725315 0.0
9.731193479931608 0.3736343090103709 0.0
9.796526908308536 0.489684029254899 0.0
8.226019692057042 2.453349105940535 0.0
4.560989821496479 5.428206018250252 0.0
4.348810639659689 5.517048281386008 0.0
8.785190163106925 7.119142251269924 0.0
9.015515413043023 7.464769766852701 0.0
9.754861440190705 3.659036930324926 0.0
9.7543610723378 4.033687839160082 0.0
9.707881226943384 4.127219992296752 0.0
9.52841017383273 8.309020665649431 0.0
9.65186044414544 8.289498614805698 0.0
9.714051275521857 8.173576484362068 0.0
8.209758892476394 8.715513071423135 0.0
8.097084883671858 8.548851201381087 0.0
8.177989947800599 8.367872862579052 0.0
7.974142434808908 8.36779470623567 0.0
8.409012054919861 2.142624252464372 0.0
7.707002321497132 8.039129945341395 0.0
7.574653123518228 7.83895791570255 0.0
9.229858094382692 5.951357214361815 0.0
9.75307989876696 1.229893222503321 0.0
9.715811155868643 1.128779429890018 0.0
9.597960915003707 1.117058287635912 0.0
9.672063923518955 1.020806103150243 0.0
8.99090422125785 9.593878510105375 0.0
8.133165456134304 9.257620998029804 0.0
7.976779931497633 9.420725324095141 0.0
9.77231778617502 7.927819487779705 0.0
7.957213679655531 4.364530256281665 0.0
9.609903116082736 8.403725680286847 0.0
9.724891358972584 8.388392708395173 0.0
9.687487059868507 8.495935345161797 0.0
9.810055520269009 8.494090598382963 0.0
9.755967487162335 8.599790818513082 0.0
9.645698986824481 8.606121319182705 0.0
9.721376049217765 8.699989876681524 0.0
9.773009257015609 4.884557953188837 0.0
9.830105798750992 4.796546393900876 0.0
9.775335108731761 4.686093304257503 0.0
7.455611517737074 3.730099283949135 0.0
8.906943567829634 0.4197477661467797 0.0
8.980613334153533 0.5814185917581446 0.0
9.081059111759728 0.4263421860552371 0.0
9.821654809259165 3.576985724143072 0.0
9.761309244784803 3.4792267780002 0.0
9.763329553045937 9.353068233045157 0.0
4.463051839136694 1.164440352584939 0.0
8.0213168204867 5.283436382300235 0.0
7.89385412333227 5.290429544753158 0.0
5.806940001023414 8.583716119232427 0.0
5.88977793877374 8.96065112858812 0.0
9.177759062826041 8.25539130897928 0.0
9.626582559276994 2.05283181283147 0.0
9.747673294325121 2.064954301745188 0.0
8.775905508647185 6.951821187702613 0.0
2.3581644273991 6.029034686663493 0.0
9.777798009058461 9.548066962498762 0.0
9.737129197219856 9.662299853506903 0.0
9.615080366030512 9.683349544763068 0.0
3.315839678697904 6.042943273456425 0.0
8.915083018115329 7.937748428923896 0.0
9.489832173860055 4.712364754630572 0.0
8.118313727862493 8.013944064029838 0.0
8.902248750797776 7.67372145952523 0.0
8.954075939212636 3.463080912810881 0.0
9.45247551997678 2.133243108303608 0.0
8.311151553157742 8.899233004613622 0.0
3.28672004268868 6.826745674539142 0.0
9.86008383798735 3.468233656255824 0.0
8.389990589860254 1.947086063498656 0.0
7.144231739553659 5.329544660076687 0.0
9.654500729007207 7.743301971143119 0.0
9.761920842881946 7.740144345898896 0.0
9.692820773976567 0.2651585113981998 0.0
9.690951720399688 6.100517071814821 0.0
9.775704281989471 6.077882312279847 0.0
9.823117117198079 4.115168542267924 0.0
9.764391943581737 4.214465954230587 0.0
9.659455011849253 4.218716850797838 0.0
9.713462125022623 4.30742830316693 0.0
9.849638067150842 4.208845651573708 0.0
6.376241713254513 3.858766051594979 0.0
6.274931849158213 3.701528298009006 0.0
7.097780104117746 1.926449727602711 0.0
2.457742027508782 3.810157622192786 0.0
2.963634206580268 3.740748099915693 0.0
5.065585416063965 5.544355730437482 0.0
9.783560252464587 7.566507987677117 0.0
9.825819294611026 7.470942204664841 0.0
9.799976114123012 1.01659516618323 0.0
9.745559590633832 0.9150866860898854 0.0
8.20473400632469 9.495828670767946 0.0
8.784586030320169 2.054461500762216 0.0
8.758471587067168 1.888286802854785 0.0
0.9188935087347281 8.510730800272478 0.0
9.674192026048217 9.20389587377276 0.0
9.796314981283475 9.185916994648775 0.0
7.206882433199502 5.452024361489832 0.0
9.773927048949279 6.334665846819535 0.0
9.830288393591173 6.225300227041885 0.0
8.25177349297509 3.282767705830209 0.0
8.099233469407428 3.304040153764131 0.0
9.607860512870598 4.315652630490023 0.0
9.403674738018715 8.367349042046314 0.0
7.611756786273919 5.018691202305147 0.0
7.549513964643336 4.923310232561835 0.0
9.80986724662116 0.2915868356190958 0.0
0.7757562810577034 3.504187313079081 0.0
7.659562100664981 4.698467529240196 0.0
6.539424975891206 3.541729955691742 0.0
6.717348880400739 3.55221857686142 0.0
6.836337579501807 2.417476958454302 0.0
7.096480496160066 5.959124656438389 0.0
7.189742782777612 4.377051328076039 0.0
7.051723187622053 4.38470822973091 0.0
7.125489805519186 4.497018383456762 0.0
6.994915621927777 4.501504591168814 0.0
7.056755276274058 4.607929817497045 0.0
6.932937068803914 4.613249390039674 0.0
6.86629288290367 4.50541343988659 0.0
6.80427099775847 4.617607827251794 0.0
6.739195362053689 4.511124964201849 0.0
6.677260697693361 4.624288827143181 0.0
6.996760608675822 4.711715831373894 0.0
6.316045249462968 0.6456945497683586 0.0
7.321834163850416 5.816449323512759 0.0
7.833101485370825 4.390058096386987 0.0
4.996572652976738 4.498711166259074 0.0
5.112334577457371 4.663858846723513 0.0
5.271923064784868 4.629759173373871 0.0
4.93773508827367 4.668006487116195 0.0
5.348137647919096 4.485934621930562 0.0
5.413454827497575 4.62999925573761 0.0
5.356581113747675 4.770594395332836 0.0
5.013422223730484 4.793321773780133 0.0
8.58674425943957 0.9312335381466886 0.0
8.776450596582496 0.9362399987293505 0.0
4.783496233934828 9.486061758876032 0.0
4.544176394620909 9.034071856445296 0.0
4.082330493623582 9.015765881393772 0.0
9.820867469965414 7.285959215547852 0.0
9.852697883440127 7.166089674802766 0.0
9.260999083164238 2.971390964911171 0.0
9.197701900169713 3.073162109379564 0.0
9.31960210441945 2.867465579641856 0.0
6.660951583415121 3.383363199709994 0.0
5.210469976037585 4.761678854423166 0.0
6.740780285297665 4.733615686805694 0.0
6.611362405615225 4.731958642073806 0.0
6.549091884465382 4.629620704100811 0.0
6.491761716522486 4.733409494449344 0.0
6.425259228542098 4.640546096196947 0.0
9.715556659367534 2.986725573570596 0.0
3.710524324925069 9.463213827486557 0.0
4.768537031214573 4.727001037865238 0.0
5.039413681704655 5.378508462165627 0.0
5.188746429211535 5.440476671296013 0.0
5.172214816037712 5.298914527247826 0.0
4.469063601436893 3.667917323494335 0.0
3.799121596584382 4.741629285988305 0.0
3.661085664896249 4.442847704416992 0.0
3.316563386321876 4.380147387454913 0.0
3.802087298647255 5.26743535640985 0.0
9.738116341343215 8.047178982429934 0.0
9.85106076399546 8.021725551312715 0.0
9.837581050304836 2.844176011307251 0.0
9.664579962075123 4.402853107737106 0.0
9.76433159763034 4.39807801415352 0.0
9.718924973226878 4.487825491046641 0.0
9.826405563645343 4.494594135148365 0.0
4.931068003413168 6.359330991212394 0.0
5.130175746947236 6.201075257041828 0.0
5.143884286052002 6.445382329515047 0.0
4.953395875296406 6.628748468717369 0.0
7.833019185167153 5.400347121613631 0.0
7.766636138801143 5.313240048256084 0.0
9.767038723422333 4.578090619166644 0.0
7.315369355237483 3.441501197259575 0.0
9.556068971301514 0.2347811136726856 0.0
5.733871280791703 4.444861510772459 0.0
5.828809543126846 4.569791247698539 0.0
5.986701526182213 4.562881783985375 0.0
5.912543327921148 4.692966271273211 0.0
6.052130330528581 4.682477327897978 0.0
5.773525984744635 4.697697018456535 0.0
6.121646311546238 4.572302645403103 0.0
6.182349700936326 4.67713231096357 0.0
5.846371383601797 4.808939734754761 0.0
5.117807918383606 5.974361363083184 0.0
6.256132501905665 4.575863546153224 0.0
6.324770064521816 9.645040261272253 0.0
7.345522892050965 4.12581088034536 0.0
9.338523512844539 4.854480276600515 0.0
9.286984287289403 4.959628690044808 0.0
5.676298026114105 4.589279806918992 0.0
5.631257891894775 4.722749088404111 0.0
7.970415275563177 5.621040275419208 0.0
9.565118337557308 7.081391220827488 0.0
9.626201005045262 6.980441083020495 0.0
9.733729506193331 6.979928568877979 0.0
9.684556253529976 6.887102896543928 0.0
9.780785815410074 6.890287441101827 0.0
9.740054813822885 6.794211367612523 0.0
6.462628988057306 7.629921412015864 0.0
6.692564520952154 7.473594130811262 0.0
6.927983108788191 7.570982428592125 0.0
6.899878641134941 7.329306734748538 0.0
7.117542472438434 7.416951094809493 0.0
7.089537168123128 7.186691566729968 0.0
7.296585396514727 7.275888419524222 0.0
6.879678873774065 7.097443005287856 0.0
7.063454637059129 6.967740076426161 0.0
7.329105042924355 7.496317641003757 0.0
6.867084781778411 6.878842928865059 0.0
7.494278796275744 7.351949197351029 0.0
7.462564159480594 7.150140034494138 0.0
7.644835001206406 7.21506678718646 0.0
6.682478929414216 7.008358327294905 0.0
6.449199855715812 7.365660640952548 0.0
7.548139855358765 7.57299228324251 0.0
7.008502809092701 7.844601794812628 0.0
7.371739019901781 7.707688433423657 0.0
5.665345294602155 5.290628720253272 0.0
3.987583013016546 4.486920698115711 0.0
8.893480480320447 0.7785000884179994 0.0
9.715485963651112 0.5955299613117169 0.0
9.761785841543585 0.7048670948649375 0.0
9.670304314877074 4.578896619304786 0.0
8.058509626083154 5.744161686650483 0.0
6.181795443628869 5.462040811515966 0.0
6.256771804808641 5.338464817889848 0.0
6.124070400983443 5.352376180901929 0.0
6.399679261813415 5.349186390888865 0.0
6.477776305607503 5.46505688468465 0.0
6.541624525938461 5.346017118512589 0.0
6.673064575428321 5.339051516933525 0.0
6.599301548842115 5.241958624987057 0.0
9.573774011620444 0.815274945835158 0.0
5.86493292693426 5.877588788523632 0.0
5.552663040119136 6.957487930464628 0.0
5.535080960199246 6.663033131707637 0.0
3.708603689392072 0.5979254716153909 0.0
3.31896983256719 1.188583855309964 0.0
3.895664898001925 1.128137111173669 0.0
6.363360407965353 6.032416442205533 0.0
9.445959758065749 1.070139246426051 0.0
9.50632172780449 1.214052376665338 0.0
9.441030033980638 1.325047485624912 0.0
9.295799464644857 1.341410624832976 0.0
9.184164107767781 1.461677744200096 0.0
6.407191016756832 4.407273313799791 0.0
5.544591888593027 0.7652641669375747 0.0
7.883090151006535 2.497506182548758 0.0
8.073420508370992 2.120510489750234 0.0
5.494822040671399 4.732314720081375 0.0
0.8986976806403217 1.464611451578306 0.0
9.536325549598013 6.83286654168725 0.0
5.972289519322897 5.727532110854501 0.0
9.82203607053145 9.443411729566549 0.0
7.263199949874008 7.064207941227515 0.0
7.233659553805083 6.853135694774254 0.0
9.793310082768443 7.072747972018893 0.0
6.734168931095253 9.67499220075154 0.0
6.941134861034159 9.382328333169653 0.0
7.285822522704258 9.443989747444657 0.0
6.576263515512108 9.333035011158342 0.0
7.160560566479093 9.127732577621245 0.0
6.218711947378506 9.298064908857533 0.0
6.432383355119106 8.980985203293491 0.0
6.795390278360442 9.046043538032663 0.0
8.54677014121837 0.1957422484480979 0.0
8.528696320820908 9.804850950580938 0.0
8.42644965647489 9.604735484095604 0.0
8.010239224104339 9.715048083583248 0.0
8.644359648763341 9.628432815860457 0.0
5.344212921686536 5.526744195650314 0.0
9.760936589662048 7.38409687515441 0.0
9.128187788393989 0.1445485608215519 0.0
9.133307661752394 9.854833215426817 0.0
4.867351616228264 3.944459575003425 0.0
5.905323253270366 7.385600364255367 0.0
5.909045412185362 3.361969954191194 0.0
5.80580919758911 3.569999290452344 0.0
5.578230704221431 3.587842862412673 0.0
6.013352753603037 3.550699073477782 0.0
5.936624955014758 3.721630401607248 0.0
5.735413275357409 3.78528948606432 0.0
5.512538847486775 3.794760621907932 0.0
5.360571639388366 3.618649018042938 0.0
5.134141179590394 3.459385929220745 0.0
6.167399567008798 3.367365990358096 0.0
9.766756262206602 8.291756450136036 0.0
5.486063578307141 9.64505925252771 0.0
9.497624614180321 4.328873442170357 0.0
9.811387324954623 1.570516917365688 0.0
9.389210081887331 4.69150887571586 0.0
9.704395728912932 3.754226393630331 0.0
9.808172776193384 3.748784464356272 0.0
6.549660911932182 4.839747932361234 0.0
6.757415124099031 6.077939876843736 0.0
3.805578542126494 8.040840085419626 0.0
4.232580149691158 8.198659880701744 0.0
4.559765382564095 7.87091698350757 0.0
8.3829075948167 0.9495097054886067 0.0
9.8571301061408 1.456307792614791 0.0
2.005900212453279 4.535525273813588 0.0
1.85904408608185 3.956445706785572 0.0
1.979307922430775 5.474327285927505 0.0
4.387923194305381 4.427191306527721 0.0
9.429258370703248 8.873693567695483 0.0
8.99196583083892 4.664567567015693 0.0
3.050357122593155 5.368999067452741 0.0
2.861107385476722 5.785089447130829 0.0
5.005058958272409 3.711196438448062 0.0
9.8972295764837 2.755337284632969 0.0
9.581048890980513 8.853909321617065 0.0
9.668838904423916 1.762418716497425 0.0
9.716576458425756 1.852218615166234 0.0
9.799043132681442 1.780583141193779 0.0
7.661868217848455 2.880323287492419 0.0
6.780136552904057 5.443858690999834 0.0
6.489544866845868 5.913957888434588 0.0
6.880149522020364 4.134257616716107 0.0
6.970134365280068 4.264072319341612 0.0
2.225481516813409 9.348422240784 0.0
1.843418032490818 8.641605249943353 0.0
2.198000805242772 0.6459947140825729 0.0
8.740020306282506 0.1903932731609072 0.0
6.86957996016679 4.720776242956433 0.0
7.430920333506809 0.2702852342693345 0.0
7.302066064947383 0.6134316505458445 0.0
9.305398039877746 4.64854361125207 0.0
4.078151380865065 5.203425462519088 0.0
4.080704120371218 4.778853303303787 0.0
8.052525541571825 5.965483159581719 0.0
6.367194027835946 4.754896037842673 0.0
8.604191121620719 7.648182513679963 0.0
9.546446695207845 9.234701521982952 0.0
9.018652854946867 3.351011585453845 0.0
9.143853648154607 3.350173119015413 0.0
9.067079866763024 3.245174561579149 0.0
8.991492136849105 3.135578770028028 0.0
9.29603967712795 0.1426516429033488 0.0
9.392428271030795 0.2506306237151588 0.0
9.223973843394301 0.2912279164401488 0.0
8.39375191941536 3.018777714002827 0.0
8.4836475746111 2.88135207267795 0.0
8.741089053946197 9.821127577434911 0.0
9.803966507713174 5.448064463539533 0.0
9.748132240148552 5.359371181503531 0.0
9.850258990973547 5.355211921626304 0.0
9.7965346514158 5.266762244994661 0.0
9.84142096963129 5.171050273734619 0.0
9.738843612428232 5.167483913244169 0.0
9.64168976006725 5.359875132194057 0.0
3.335917453809221 5.671837672982919 0.0
6.962669142802881 1.683222554707996 0.0
7.365210844496719 1.887492842536114 0.0
7.517378971174123 1.677983072937792 0.0
8.00383870208024 6.089394601875145 0.0
1.725435941000569 2.759295503019395 0.0
7.907977929549089 5.102827208603365 0.0
8.052861051278896 0.2683271125209605 0.0
9.80169732768395 3.385443381464333 0.0
9.831597648680848 3.28491948963525 0.0
9.736335895866404 3.316207814499244 0.0
9.597256128490281 3.756160701977744 0.0
8.865819925321706 3.366235906378775 0.0
8.489614436807788 1.757152185195495 0.0
8.88089641144391 1.078983279100314 0.0
7.430923851187758 9.724389499796425 0.0
7.584252919312249 9.509430586267927 0.0
9.744026095940516 2.247117754488748 0.0
9.729961521243718 2.659836747108116 0.0
9.790866569780063 2.558993767350471 0.0
9.736606445116795 2.455104424879619 0.0
9.846806182714698 2.452157456754448 0.0
4.518102112052724 5.141350889745285 0.0
4.519880229178207 4.85678334497067 0.0
9.7302407894617 6.434012603549242 0.0
9.787537474544765 6.523591663056312 0.0
9.744262337067932 6.617499601377625 0.0
9.8406238811518 6.41591236129004 0.0
8.914967252734657 3.579360039684312 0.0
9.154797282599406 5.670753066089419 0.0
4.228839454580575 4.612979739018002 0.0
6.095037541675208 4.42126627187728 0.0
9.304166983880842 9.864854494751789 0.0
9.406445527105628 9.759007358529582 0.0
9.256225114941945 9.700832989525724 0.0
9.796206564635622 2.351215649506205 0.0
9.849373673349081 2.25090453834006 0.0
6.332048155295931 3.511675163099286 0.0
9.069679774213784 3.022879178706259 0.0
9.070599961450037 9.055284879641471 0.0
1.808685691036764 6.331557276533421 0.0
7.120156826652838 4.698481230214924 0.0
7.052894345811342 4.799848851879358 0.0
4.739957520484086 5.369107149361242 0.0
9.389197839958292 7.197139943834638 0.0
9.046688232613976 4.560364044038737 0.0
9.162685461967492 4.562194096410666 0.0
4.227377821420887 1.564128177298305 0.0
9.201090975245227 2.794301402811909 0.0
9.251941624303948 2.677556975242327 0.0
9.186758273070138 2.563916005021366 0.0
9.317609833868786 2.560335260954038 0.0
6.57599191748324 2.437689779955877 0.0
6.305556560534859 2.459112595979303 0.0
6.981058048792093 2.642476994448363 0.0
9.886113463139504 6.510498309609482 0.0
9.250462794607717 6.221362629571698 0.0
9.305373999084068 6.108271307139882 0.0
9.390477915810829 6.228015172491477 0.0
9.44452571968143 6.114582165110393 0.0
9.502105740270528 6.197677857389309 0.0
9.31559697209813 6.331647407124485 0.0
9.370938253597153 6.437386206819511 0.0
9.594764406124872 0.1099001288712305 0.0
9.602872681151728 9.894988341116305 0.0
9.622661196143387 8.076680696281343 0.0
9.769069277144705 5.9102532189237 0.0
2.615076109785583 8.807551523115547 0.0
9.658920005405456 5.730890135691177 0.0
9.76063135061807 5.720703211793342 0.0
8.63963723169499 7.177334225227945 0.0
7.841904391869763 6.41346852896409 0.0
7.764520718520185 6.297267738834625 0.0
9.546492996136271 3.465225175657335 0.0
9.25600964352143 2.219157062786616 0.0
7.625057159226293 7.012987957636062 0.0
9.529121062829038 7.730283486008674 0.0
8.329887090625894 3.845190321147069 0.0
8.265841850823831 3.95687001944245 0.0
8.402006523775544 3.947660780406651 0.0
8.128436391670505 3.968543393650448 0.0
8.46705122470662 3.835767362024195 0.0
8.218867047074696 4.063481375518748 0.0
8.089763413611255 4.08062363292928 0.0
7.939578083855268 4.111915744184436 0.0
3.74991304509639 6.615676756107112 0.0
2.627714335615619 1.170993030860914 0.0
7.046129971268607 6.759930788612616 0.0
8.534603732661887 7.486325780553722 0.0
1.569381386467569 2.042794535871475 0.0
6.228703743210918 1.986421863690014 0.0
6.467030855792859 2.67190498312861 0.0
9.272246093269825 1.975478263632296 0.0
8.05269609263041 3.854522845257449 0.0
8.008595521536957 3.177870309354594 0.0
7.929796740504207 3.350600835935766 0.0
8.048703574664067 3.449582532910417 0.0
9.72947480375618 4.973926800124758 0.0
9.784850360535604 5.072865219810449 0.0
9.896036387646596 5.069261557893528 0.0
9.633140953203334 5.168645132864771 0.0
9.558102991128836 7.602453108835212 0.0
7.278758746505716 3.994295887299482 0.0
8.306681733482405 6.936428510427854 0.0
9.487163072013963 3.757777670075558 0.0
9.532950522284125 5.359403698944497 0.0
9.816036650072329 3.927268437107025 0.0
6.173882586235392 8.734645960664665 0.0
7.972518459433741 5.003005338485466 0.0
8.398453459336153 1.601072016988848 0.0
8.97460527296194 4.040886705742754 0.0
9.037941657530773 4.143578781749325 0.0
8.849604200183613 3.828506169652706 0.0
9.545296177100065 4.042698359132156 0.0
8.595941796785514 5.806754902023664 0.0
8.65588412428292 5.694192853853139 0.0
8.723710665131787 5.801528918332044 0.0
6.861288985046249 6.673713222735126 0.0
8.87477249219366 4.664500928777609 0.0
8.72385765226959 3.608276264790996 0.0
7.145228858696953 5.573648565429618 0.0
7.282945121585866 5.558559688509987 0.0
9.224761401603633 1.602363370249125 0.0
9.609115686587552 2.986868833620756 0.0
9.633989947851914 6.628120633848649 0.0
6.046214325132457 5.45615093027661 0.0
9.017014346798927 5.271996636983457 0.0
9.070824864071271 5.168510834798647 0.0
9.189021391555556 5.166867900487267 0.0
9.123328759137758 5.064718588163964 0.0
9.240587446378079 5.06459430516883 0.0
9.250848280531756 5.267364371053135 0.0
5.773050603406019 5.7192906317521 0.0
8.576466432793914 4.3559007860436 0.0
8.634627802680399 4.253467736542067 0.0
8.461790117175607 5.591735227444779 0.0
8.907610717370224 3.713397213891439 0.0
9.80665594564509 5.628066492225966 0.0
8.985935132601089 4.455263493464225 0.0
9.00640209566022 5.067597672073404 0.0
9.833659276096986 6.976519563917422 0.0
8.0283368553477 4.687271895436317 0.0
8.326580191759327 9.127498457128247 0.0
8.650637373791266 5.07513089931925 0.0
8.701067313435203 2.700069743477523 0.0
4.825307249916392 4.884175191874744 0.0
9.418335984190309 6.858444798015129 0.0
3.91434687300816 8.542956908935874 0.0
5.569239724399552 2.064135034637056 0.0
5.234271567762738 2.128974435011933 0.0
5.757920427527626 2.312422707096966 0.0
5.43365689737979 2.427455772745759 0.0
5.673210219624612 2.602111218343444 0.0
7.214258468265766 6.652783071431555 0.0
9.823626269633962 4.30685540664529 0.0
7.96996639420014 4.794005510174826 0.0
7.616003332725032 0.502676560965646 0.0
3.050634530589821 4.659174799474146 0.0
2.870894249800723 4.246924313393336 0.0
5.285393339952368 6.079037173753393 0.0
9.439954241218905 4.23581687956071 0.0
9.67709722097145 4.710772408106511 0.0
7.40767785509217 4.259947873553335 0.0
8.396202587439676 5.486075637998701 0.0
8.323689688705493 5.372061002264632 0.0
8.191312386254125 5.384662546230823 0.0
5.304380054816289 5.369675374029755 0.0
9.093848379546637 4.047647920840374 0.0
7.916313220758624 3.045043876114836 0.0
8.435854831444637 4.144861908356168 0.0
9.060262453079693 0.7340576053322918 0.0
7.053195520344596 5.238809779682351 0.0
9.621762679347093 2.45205452967588 0.0
8.410730269104743 5.287995309529392 0.0
9.655094569234972 3.472720279371932 0.0
7.982140513923982 6.667914768024983 0.0
8.402690325256646 4.883576657130221 0.0
9.17488654147479 4.962006474835693 0.0
9.013188196102961 8.49700148123058 0.0
9.795977244531603 2.156818021002043 0.0
9.893813711206834 9.545820400859157 0.0
7.965349232662289 4.250048884270795 0.0
8.644264557989125 4.874751532150782 0.0
8.215430976121077 1.26077208565765 0.0
8.379717637669398 8.37324652769609 0.0
9.320026533461409 5.559861899725609 0.0
7.885778178744864 0.4977439426642278 0.0
7.547066983926719 5.125166613071239 0.0
7.657542898944819 5.122996245335209 0.0
7.423918840193691 9.000935553397358 0.0
9.854133000712425 5.541931969512857 0.0
9.328508174398952 2.101486405523264 0.0
9.300749600926641 9.530012105354274 0.0
8.130307182491519 5.277079344947874 0.0
8.346752967392757 4.987627363826086 0.0
9.118404185029991 6.007087846617186 0.0
9.048232213728614 5.89431792713258 0.0
9.088340967655858 5.576242562571367 0.0
8.094762487139027 4.789727191449318 0.0
9.915265904493378 5.749591413470928 0.0
9.92169805280126 6.154216704502091 0.0
9.918022441582268 4.549125436287157 0.0
9.919332362905616 4.849536560132457 0.0
9.914800786693318 6.750595509794719 0.0
9.811792900437824 6.703950687575952 0.0
9.900643083988882 3.749855087409844 0.0
9.912423171222734 3.043228996968949 0.0
9.91892875832665 5.949999999993851 0.0
9.913300070218703 3.960831593817277 0.0
7.709347001661226 4.444236534782706 0.0
7.479443107717332 8.071637285053104 0.0
8.839057072155848 6.807845119358974 0.0
8.972330068019902 6.78765448182788 0.0
8.542093772125282 3.941452413628317 0.0
8.279144752968262 5.930387616620717 0.0
9.393455876855919 4.973162505621418 0.0
9.507123333872533 2.855087674515822 0.0
8.77504684283825 2.317347145885344 0.0
8.394133129040345 4.464046960801843 0.0
5.725509852450801 8.210843960481027 0.0
5.62632390239664 3.967637659758752 0.0
7.910815814627989 4.900765971697654 0.0
8.595808444085467 5.590040244353608 0.0
9.705160502006024 0.8106158419444889 0.0
9.82021247904746 0.808810893177099 0.0
9.218352146075844 4.447736986422823 0.0
9.20781892622228 3.858281726888132 0.0
8.713609974387523 5.178241668554946 0.0
3.55755059259364 8.921522400238844 0.0
9.59122926011489 5.452844834281716 0.0
9.70565100407009 9.77887811062354 0.0
9.826938454219809 9.74303055702321 0.0
7.238962096855633 3.278078153406256 0.0
8.575609105166194 4.567807831727537 0.0
8.936449841121737 4.765835458965493 0.0
5.59323463391086 9.248527978398117 0.0
5.280809113285124 4.886132326418428 0.0
9.328132730893216 6.544753806716806 0.0
9.026944889277736 6.67247283515637 0.0
9.81946239021469 3.007926663525007 0.0
8.677633568960493 6.144049349297466 0.0
8.33427489656924 4.571212803519522 0.0
8.55734024448315 6.382535186588269 0.0
8.692399379422756 6.372347713955898 0.0
8.495817478252626 6.503308565233578 0.0
9.905494734661673 2.544078755559835 0.0
6.177101405266569 7.228490244483556 0.0
9.825373011845263 5.807482724503027 0.0
9.808678508609606 8.118683092442964 0.0
8.397717712407108 7.08010313863416 0.0
7.428555529689225 4.935946611338556 0.0
9.575504958128711 6.125633853639113 0.0
9.154066996197898 4.146562596982661 0.0
8.074381802159323 4.337569667261167 0.0
7.018337246891919 8.843475095716133 0.0
7.970627172560641 2.658650028065857 0.0
7.382546388883145 6.723381543491632 0.0
6.822972334933889 4.884555620881615 0.0
8.343732976791593 6.041576709398377 0.0
7.743680217306919 8.423336160305476 0.0
8.505717922983454 1.115022897794028 0.0
9.113973198216474 6.992972408167606 0.0
5.818882632841168 5.300437503812764 0.0
5.951991891717714 5.279516346785062 0.0
9.450183479138845 5.92934813870612 0.0
8.783346541536119 5.48419035750989 0.0
9.38074895894124 5.65076274999803 0.0
9.513658728876734 7.193620441323493 0.0
6.396040948797887 6.776064256962667 0.0
5.389661780244388 4.89715084345563 0.0
4.473247649068957 5.85935163892416 0.0
9.249586607512612 8.37680799459232 0.0
9.103796366487646 8.379197231055114 0.0
6.274057301184156 4.87985402946409 0.0
9.259628836118232 3.561431822636308 0.0
4.037922477011971 5.489409780163391 0.0
5.62712958624254 4.893925433488392 0.0
8.806426003347967 6.133410188141932 0.0
9.53304466499349 9.59279975429444 0.0
9.542890959420024 1.966631379116419 0.0
7.459736176874619 5.863847835420528 0.0
5.937613117200432 4.89232797168023 0.0
6.171611131472617 4.879541833448487 0.0
6.100695199816815 2.291172318314745 0.0
2.315194906726768 8.081958163666464 0.0
6.878489987598286 5.148099521847569 0.0
9.105264414399338 8.639184652727645 0.0
9.20047261316883 3.457820810661327 0.0
9.895329010385955 7.55944047105717 0.0
9.912742873006831 7.76210330502246 0.0
9.37761459375249 3.168397068877758 0.0
8.946121261512507 6.345629828835438 0.0
9.918632496443566 4.449809517365367 0.0
6.848211525651934 5.945010613369067 0.0
9.915721525903255 2.047407395915179 0.0
6.117255841708726 5.163321965161054 0.0
7.276595248786602 5.347247322210079 0.0
6.32682869954104 5.23674259421017 0.0
8.785886448438022 5.692775375342819 0.0
9.099994401883361 6.776698531382792 0.0
9.913397459621638 0.2499999999998165 0.0
9.910352525643928 0.4481571029410266 0.0
9.907850422008579 0.5479735220323012 0.0
9.911983631350465 9.24778487019403 0.0
9.917634740384067 0.7514684821956668 0.0
9.195214232985496 3.254172408378337 0.0
5.000896927376288 1.846006038077654 0.0
9.917172478547403 8.250155740683276 0.0
9.908120476950126 1.742986232208194 0.0
9.914524635720774 1.949567899316728 0.0
9.907358878377153 9.145625165175748 0.0
9.917695944922635 8.949999999998397 0.0
7.648387553139914 5.325741673607362 0.0
9.605343588986079 4.130627398479715 0.0
6.648113233057817 6.774798386229164 0.0
9.910347203087213 8.446729917003672 0.0
9.913623694530468 8.548470085896316 0.0
9.9201245863254 1.536225488581779 0.0
9.906538426683255 1.059019360781604 0.0
9.912867352010919 8.74999999999809 0.0
9.799662981388353 8.79550485462418 0.0
9.831828680383174 5.99966894118311 0.0
9.91414179906643 1.263025320602998 0.0
9.920690092699912 7.240982963665807 0.0
9.385889285950551 2.235126904097426 0.0
9.28133998925606 8.00415195851526 0.0
9.817074723108401 3.172398890123306 0.0
9.482030285089927 7.512954023388035 0.0
6.682432918504054 7.233889573028878 0.0
8.528699633246763 3.260502457553277 0.0
8.91699963742029 2.327016692708648 0.0
9.267676068834481 3.954520684561369 0.0
8.70811637467455 4.974101624783084 0.0
8.18184214270768 7.816666208279135 0.0
9.690393137288163 5.264344933127836 0.0
6.937111790104696 5.245184991960528 0.0
5.895846026722989 5.174232967273284 0.0
8.281683356622615 6.400073017261236 0.0
9.150883172924027 7.444273543454419 0.0
5.430406600793122 3.390815886517273 0.0
5.049583827974758 5.697634876048387 0.0
8.3966710383105 3.495813899905868 0.0
9.007538428392454 8.046563579784266 0.0
4.645155158868719 2.637132843684674 0.0
4.887444326771336 2.30020425915506 0.0
6.483736782775559 4.522536327482678 0.0
7.843169154548308 8.2116075844056 0.0
5.06295551628385 4.901632590583318 0.0
7.201400991012747 5.138239336380897 0.0
8.519791031104612 8.848807089071627 0.0
8.658623737989732 3.031313729049854 0.0
7.585566208322493 3.629882964874684 0.0
8.411818469596405 6.834326722716643 0.0
9.172363528634236 7.669230647622864 0.0
8.85455683341768 2.682483055215344 0.0
9.359398739738925 1.631421337140716 0.0
9.071793864444992 7.337030604117359 0.0
6.968394563521436 3.712808894519514 0.0
7.899236117684646 7.094583340182754 0.0
9.54362864504834 9.781852543872333 0.0
7.151298729743687 7.644795130415299 0.0
5.452218361466201 5.186873761308322 0.0
5.517642289161902 5.293540933999446 0.0
7.802500357665464 5.978295671754199 0.0
6.594850839687122 8.491429270558893 0.0
6.029132431949566 8.294997405201931 0.0
9.31286590869111 0.5672913838331921 0.0
9.25238720319541 0.4415953739444106 0.0
9.550589523211062 4.228044955453704 0.0
8.748611832783206 6.250900951984038 0.0
7.566980108995873 3.995148257893202 0.0
7.426142759241261 3.996743578498081 0.0
6.478912513785404 4.000296412419969 0.0
9.30435638148753 5.168210982711592 0.0
7.542154188520517 5.752525075248498 0.0
7.219033852073297 2.139582470800704 0.0
7.370913620388047 6.545121498197235 0.0
5.226731036024996 5.187572666585561 0.0
8.515591031124366 4.462223215179979 0.0
6.762864307079274 0.3078036604979366 0.0
8.587432696997471 4.977010533175154 0.0
8.703948448756302 8.815629076400704 0.0
8.081003990931544 7.370949680119862 0.0
7.424404567669909 6.949730915714445 0.0
8.578903262311433 8.377992954045473 0.0
7.301258690263783 6.106184350645308 0.0
5.991600556904204 3.99820087171043 0.0
8.203048538477193 1.601044215405025 0.0
7.289972483120081 4.572350254111052 0.0
7.714697186439165 5.420586967696794 0.0
8.918853780709807 1.841796898567452 0.0
9.919941345877513 4.749808449067644 0.0
7.245589454939737 5.94251251443003 0.0
9.258480524497795 3.358952871140391 0.0
3.705877615124628 5.574038727593425 0.0
8.287096858129765 7.962370605242409 0.0
6.799629860952143 3.705385600481528 0.0
4.146753450763018 6.544154457143895 0.0
7.413973555029582 5.545687501585183 0.0
8.466524978378082 4.980481756569235 0.0
7.336312153537934 2.337983522449311 0.0
7.695505222753409 3.747498713679684 0.0
4.898236813123799 4.795853653580084 0.0
4.59779105899602 1.896916774247134 0.0
8.560170375862322 7.072369101894893 0.0
8.386150468360862 2.449771437140704 0.0
8.41200018115259 5.084601315536367 0.0
5.102189912301071 7.621598618277815 0.0
8.336320418935243 6.71651223072348 0.0
5.081745734883095 3.977838926197614 0.0
7.63590698378166 0.9500570055008507 0.0
7.743369677149255 3.051233984704873 0.0
5.357527459690566 0.3809996753407537 0.0
5.967373112873382 0.7731113464301924 0.0
8.169449265206127 6.666271947462212 0.0
5.95122726745053 5.55758205410881 0.0
9.922289489207834 3.53923011719877 0.0
9.39154684476555 2.659037023454942 0.0
7.701415639167884 7.690060291860976 0.0
9.819179654793023 1.329863870021845 0.0
8.358229579054417 6.506108206863729 0.0
9.269720555169467 5.657096143475924 0.0
4.473187658045934 7.435037860084884 0.0
9.65807158077373 3.255496360750368 0.0
9.605155446454205 8.713645566904637 0.0
7.097383547728313 5.141197376985936 0.0
9.812212483832656 1.89920712759492 0.0
9.83875570675407 6.81603549325055 0.0
8.926246869879279 2.079976511571457 0.0
9.166785856141402 9.169070814302419 0.0
8.763479010228052 1.587152667342957 0.0
5.957377924852992 6.404530806530254 0.0
7.14506854375872 6.10342416684208 0.0
5.672595070581394 5.164323323112049 0.0
4.899782787268781 0.3801727265981219 0.0
4.447133848117348 4.673614099606824 0.0
7.044865074789195 3.253639989243549 0.0
9.818461337102992 7.819456450952447 0.0
9.925334577033155 7.954012377173311 0.0
6.352907898232792 1.173665225954276 0.0
7.351721385581032 5.660361289755705 0.0
9.337367583861807 2.76534436379692 0.0
8.693118347802024 4.360254099729149 0.0
9.476812970101324 0.3524826622168163 0.0
7.109868985890334 0.9024224571333925 0.0
7.899106846231403 5.511805431542581 0.0
8.352799544476607 5.187887629361129 0.0
6.957483547582747 0.6176251309213842 0.0
8.099559500483094 1.412323841044818 0.0
9.913030944540278 0.8542404645334569 0.0
9.143075088381442 8.022165366829135 0.0
8.819861450593166 6.356592599428041 0.0
9.319444417409162 1.49938505915629 0.0
6.490262520326714 7.118204362551877 0.0
6.490874470087819 6.582907761235813 0.0
9.82506653058937 0.6146757679104559 0.0
6.803129818897624 4.419048038171804 0.0
9.840901379354312 0.08198751964190581 0.0
9.839740374244226 9.918356239418472 0.0
8.551927134544655 9.449788917425456 0.0
9.92097857388158 3.249999999993177 0.0
5.797087413057367 7.077351493358238 0.0
9.255412859987286 6.433984412022419 0.0
8.668174522249984 1.740767926084485 0.0
9.920991430240607 6.25262219124529 0.0
7.57275248448898 1.94367954756322 0.0
8.052865444445507 8.19900054463639 0.0
8.748697149245206 4.25201068974208 0.0
9.158270227735827 0.5542256343091421 0.0
5.997487767477439 4.787924707603557 0.0
6.119759900601896 4.78043793682227 0.0
4.353034750397793 8.619182743639561 0.0
8.721093521611476 5.588932824583312 0.0
5.717101151444983 1.123034066822819 0.0
9.825602081347064 8.68753399402474 0.0
8.005502510832988 8.7824052910506 0.0
5.548184234622668 6.408009287230429 0.0
5.77830300433981 6.598697187164234 0.0
9.613093825495433 4.50282172481406 0.0
9.928981132641653 9.74928475696928 0.0
6.613628176297015 4.515513362596662 0.0
1.822126723816303 1.297795131355289 0.0
9.514164594137375 1.43081427463862 0.0
4.735494753432723 3.698541604583975 0.0
9.52844959749262 8.615213629960298 0.0
4.660704511759056 0.7947595073298008 0.0
6.82340845160293 5.239926830264399 0.0
7.885938077030673 7.380147032865134 0.0
7.884599891021201 6.09005968568029 0.0
8.846834820720167 9.653276456345532 0.0
8.457777199486827 0.3851010632068662 0.0
6.66485224572131 8.771510767670392 0.0
9.091499342133352 9.708315832477556 0.0
9.824286725109655 4.976315293637262 0.0
7.848197684391786 5.632217046637356 0.0
3.88430598115417 4.225391362015386 0.0
8.776890759183289 2.809688928468134 0.0
7.393884285023409 3.59397875231041 0.0
6.927568893329758 4.396788356869783 0.0
4.96854327720728 2.662368428358774 0.0
9.1480130720193 3.951479613991279 0.0
7.071049729490975 2.38092990636632 0.0
3.40193058782919 1.686321186206593 0.0
7.612042194200681 4.815904436723407 0.0
9.043395868401339 6.888481825015849 0.0
9.098933057562759 8.152197681006806 0.0
6.058682303253315 3.857501492181965 0.0
3.707092669281355 2.986685502034343 0.0
5.113272509841263 5.189455016444592 0.0
6.960565857079232 3.416349532571279 0.0
8.755151527375476 7.649255597361291 0.0
3.393680865444538 3.679982303262531 0.0
3.117424600120088 3.35605258976247 0.0
8.530814041264104 5.488376426140491 0.0
4.820719767306654 5.106646490188182 0.0
9.918899263509473 4.144927088739744 0.0
9.918194630017027 7.447268230913605 0.0
8.461970084137805 3.144844565847669 0.0
9.924415919486059 6.949999999995354 0.0
7.184050152099684 2.72771667662237 0.0
8.834356715215904 7.801565642745232 0.0
8.689015446783005 4.145232831954543 0.0
8.490778532265319 8.234414357968106 0.0
8.63666290918932 2.83060276219705 0.0
4.61028976098935 4.741894230894578 0.0
6.314735925012879 4.003132559161639 0.0
9.20786580425652 4.67001723737971 0.0
7.141401229301469 4.873205425098625 0.0
6.235177809922153 4.774126344778935 0.0
9.12491895896937 3.145675090615719 0.0
9.255747684068178 3.162525801823036 0.0
8.312852272796098 2.290855459722148 0.0
1.449266720542303 3.363629101350872 0.0
9.525687840398492 4.800807314407045 0.0
4.829905263804087 8.14474456977717 0.0
9.09338914689732 7.563794106183232 0.0
5.389401689694107 5.283808684471545 0.0
8.530979415204587 3.029374286908943 0.0
7.901489077080633 6.535344047486632 0.0
9.218572924671975 5.760893551533255 0.0
8.562382833959296 4.143913974026883 0.0
8.62959127904665 8.974877485888243 0.0
9.408442441596518 9.62276529745719 0.0
7.5034765601713 3.869833107932387 0.0
9.842813436634783 6.600620949014236 0.0
9.826116984327193 8.911617279149695 0.0
7.529907780698261 0.7369111006685982 0.0
7.832164962480427 2.905293639437395 0.0
8.39517908433056 3.267417602291069 0.0
9.823014010107707 9.085319632577246 0.0
9.022314123618541 3.944559746338292 0.0
4.243701230676532 5.332574856090426 0.0
9.816740542566388 1.127839952679595 0.0
8.166775715766304 5.693916696568397 0.0
8.865374421689054 8.068986769641638 0.0
8.761145809863661 6.470583506581853 0.0
8.998345275919851 9.209303502026401 0.0
9.698477487436316 6.706902829754045 0.0
6.439032098063426 0.3109134377713525 0.0
7.562681994382136 4.643158005207056 0.0
9.03999088074715 0.2799354672273258 0.0
5.180741540467516 3.805018725608906 0.0
6.243990330956698 2.718077286244967 0.0
9.79416634023361 0.1815240178579244 0.0
9.926540005061975 2.847049370876555 0.0
9.826476210374608 2.670192168078066 0.0
6.365816673179121 4.536333049275508 0.0
5.546353765219417 4.618331215552614 0.0
9.820703096450293 2.000649418331399 0.0
6.884388790679166 3.561583980715254 0.0
7.431303395649604 5.747824222777201 0.0
8.849816832721245 2.19318290395604 0.0
4.185147517585975 5.697469360586313 0.0
9.165905238119013 5.873664931582344 0.0
7.70479478158537 1.788324620089049 0.0
9.627376046933474 0.9196091445437269 0.0
6.657687963328663 5.144792385996769 0.0
9.83245016645186 0.3925568446109945 0.0
7.483092985762584 9.253837199159435 0.0
5.445348362202234 3.977855663863651 0.0
7.476680532833337 4.837183287808616 0.0
9.572749890969304 8.505160319814301 0.0
9.915853314998252 9.437014513917465 0.0
7.679469018350979 7.390484878021194 0.0
9.418139053434402 4.790576000488359 0.0
8.096967733471567 5.865447162201908 0.0
9.829153508938724 8.378494945652118 0.0
9.926595955569645 5.157718300415699 0.0
8.774484245600224 7.939747459426853 0.0
8.629764448155779 6.481031318922794 0.0
8.961169458302376 3.839036702328818 0.0
4.617199205561317 5.256318959792646 0.0
8.480815774219478 4.031210317621497 0.0
9.708341592512763 3.401018043990571 0.0
7.183974816647467 4.77882314543966 0.0
9.821437962294304 7.659391965474772 0.0
8.150320284869602 2.286501016204562 0.0
9.828114434347311 1.684891358832554 0.0
5.349187766238684 6.538177907133678 0.0
8.076053471314525 2.76180604769483 0.0
4.907713691134565 5.29818629967416 0.0
0.6874399366049438 4.328593906714074 0.0
0.6980011780697519 5.702671170050627 0.0
8.263861466707834 8.182284285231713 0.0
5.838783785156478 4.913981390426639 0.0
7.807619472656604 7.235706382002089 0.0
9.388504256318683 6.022122644748753 0.0
9.929839894767033 6.436189192303577 0.0
8.3205848711706 3.39107920408397 0.0
3.240770542267401 4.019899919523968 0.0
8.059047070496568 2.468855909103855 0.0
9.932479519490421 2.449625056415224 0.0
7.737639000139152 4.580708137963557 0.0
8.26141077223695 0.3940397126348397 0.0
9.69568953371801 1.959951226402445 0.0
6.469120930453264 4.892267070266994 0.0
9.167223997255698 0.8102256463122337 0.0
6.236889648241256 0.9291076084031108 0.0
8.306379082772498 5.268830342852036 0.0
6.716089118890225 5.239344620507032 0.0
9.82511981852641 9.282822358664017 0.0
6.68375719572285 4.404998642130821 0.0
8.913754712375674 6.908138360584365 0.0
6.173250048857013 5.251634416326969 0.0
4.235907497612446 1.924052997345291 0.0
5.151007663981651 2.438629730660893 0.0
8.924254300637541 9.3764975797567 0.0
4.438612423541503 5.287968640901957 0.0
8.571203234299599 1.897009944569934 0.0
6.878800676380218 5.821332862798138 0.0
5.710626178601224 4.792560699857408 0.0
7.149510071621283 5.216310009157644 0.0
2.099966541549645 2.334742113488256 0.0
9.93396330620579 5.350566393301629 0.0
7.143046479323961 8.646955109387985 0.0
7.965747313080266 5.193641450105844 0.0
6.3314394693073 5.135050228240639 0.0
7.665821333021348 6.222698255001823 0.0
6.305321657053551 4.659816230868476 0.0
7.833020917089713 5.208837056143474 0.0
9.41455902676429 2.869725681199307 0.0
8.567151507735133 6.598605357295113 0.0
7.405527786978573 4.377085529441429 0.0
6.552969697053132 5.137148974085434 0.0
9.93630620742063 8.042778076596578 0.0
7.166743296019233 4.593171678848165 0.0
6.595561806063966 5.839366735225723 0.0
6.066152182102007 5.262519562574559 0.0
9.834694151277489 0.9093455747994099 0.0
8.98259191950674 7.579732466796592 0.0
6.465071238839505 5.25485771955322 0.0
9.759759896588413 3.236659507608532 0.0
4.775529448101694 5.224235675150505 0.0
9.935991245222917 7.153416415978829 0.0
0.6530736820718381 9.352299998916202 0.0
0.6449439415299687 0.6468300344151556 0.0
7.804690364869245 4.495816547678174 0.0
9.84503784553893 5.70620404704573 0.0
9.83525329400959 3.826992990746767 0.0
9.922964894244684 4.265000406933376 0.0
8.333767638401964 1.121219971446645 0.0
8.876012546033895 7.019147158538482 0.0
8.172413577824324 3.413096916572049 0.0
7.232233017296214 4.478957103028363 0.0
6.214597295185415 3.852860083673202 0.0
9.85013791746415 4.400709747289421 0.0
3.941627380932058 6.342995010255737 0.0
3.097271569675528 8.77391871286929 0.0
9.292917152323044 6.010976049411984 0.0
8.104342196673183 5.184165973282902 0.0
8.994300084006271 3.652611812846807 0.0
9.937157897030163 5.549999999993244 0.0
8.721368888525245 7.274540720770752 0.0
8.920003648712827 0.9516585309368178 0.0
7.910527456030004 8.536826514867816 0.0
9.846441288756814 4.60515911863952 0.0
9.584942233925151 4.712073182517884 0.0
9.642357858573972 6.805672051759494 0.0
9.797024725252207 9.838837222258014 0.0
9.842451438022124 4.018973836958878 0.0
6.112723137676118 3.704473949316424 0.0
7.574641969193845 3.765362276156904 0.0
7.826594968121701 6.200366572362263 0.0
7.762805366733504 9.34009502796868 0.0
9.56854033867856 1.012566255816665 0.0
7.71256563655353 5.219373702836014 0.0
9.68039392238282 8.786964504862018 0.0
5.910362452777086 9.277662068919813 0.0
7.418090653922814 3.326443419100716 0.0
9.857704179097952 4.697553149694669 0.0
8.452469674653342 8.996585816905599 0.0
9.522351366699843 2.057525484575908 0.0
7.802315574700843 9.548878971475935 0.0
9.938875656926385 3.449999999992592 0.0
8.425189037911712 6.608575180629274 0.0
5.925965231566842 2.523669697740033 0.0
6.654918072256329 5.95749128982984 0.0
9.826748589235729 9.631118448471485 0.0
8.6684585637523 7.39633999085442 0.0
9.844673843931567 3.090088625379724 0.0
9.93613850661301 2.250382721159617 0.0
9.218291993658738 2.892108990205171 0.0
9.83502846611296 8.212781989607324 0.0
7.754136409732265 7.104288507262783 0.0
8.510570542791681 2.036933285735889 0.0
7.757745059307245 4.315798612475442 0.0
7.989231770559189 6.201656630465583 0.0
8.068934521422738 4.198631572122605 0.0
4.957478134450373 9.038766150325067 0.0
7.208661142641733 6.501402463831379 0.0
7.299506095906239 4.363561999234681 0.0
8.250303873550486 2.105322217421675 0.0
8.678637541413377 7.053471135702286 0.0
9.761528395137384 6.163503990672834 0.0
9.84494857233395 8.59999999999775 0.0
9.83825138794677 3.672838954969637 0.0
5.121008544047756 5.808127183024784 0.0
8.343911550360986 4.043535893276861 0.0
9.85324441775315 5.899999999993774 0.0
9.51114465213134 8.41035540646284 0.0
6.505812179224195 6.93390566262983 0.0
6.15572847138365 9.023097246950844 0.0
3.352081892333425 3.024853379890529 0.0
6.433163283162099 8.675072413910678 0.0
8.825744236698243 3.624446391299867 0.0
4.883007294861279 7.819620905924936 0.0
5.876659170760434 5.638247433601083 0.0
6.859400040348503 6.510797998354633 0.0
7.946400945409184 3.500317276373196 0.0
7.496830255505493 6.653194511698024 0.0
9.852183479755313 4.891525833556942 0.0
9.77998778436291 2.922486526124376 0.0
6.774672660492365 5.324728659740495 0.0
5.717254072187427 6.824125962512845 0.0
9.713440940838062 4.63793103997539 0.0
8.859858662536796 0.2721395536350836 0.0
8.37556017530946 9.436653414116012 0.0
7.395237381047616 7.885576562773319 0.0
5.4709157802033 4.511152089197594 0.0
9.489749416979361 9.691840729914848 0.0
4.599216022837964 3.46438688931078 0.0
5.572287492757569 4.807021644849729 0.0
9.926499336309957 9.92730688390086 0.0
9.926499336310107 0.07269311609890093 0.0
9.338127766332573 0.3585313952168247 0.0
6.810761948165162 3.414693294319008 0.0
8.166274345037138 5.943611545564389 0.0
5.2892644736731 6.301081312912763 0.0
9.731911074791544 7.649313380659622 0.0
8.90251102352767 9.50983415326544 0.0
8.997881406541017 1.033666784655452 0.0
5.835124768755703 2.738139962594905 0.0
9.665357480775825 6.185331297099201 0.0
7.656532192558493 8.217157287499347 0.0
9.170463887605525 2.975444721032631 0.0
4.208158615905443 0.8648302238584886 0.0
6.97015686031129 5.933674629077266 0.0
6.181941366523793 3.565885175921835 0.0
3.30313590337911 6.393402837735046 0.0
6.447482061767014 4.816169316820496 0.0
8.185341428749446 4.169172087371246 0.0
4.552595724340015 8.298301336212145 0.0
9.84850676569699 8.999999999998423 0.0
9.846941514449377 7.393642828194986 0.0
7.924592433490734 2.788309934035703 0.0
8.154308714226714 8.853640122009672 0.0
8.876629743004642 1.96110242719995 0.0
7.228849192966834 8.90811350348676 0.0
9.852301635085423 8.296637825215246 0.0
5.219795195341889 5.547413133147649 0.0
9.861497117995457 6.901363010201344 0.0
2.953911258021604 6.136007283255669 0.0
6.93158841067062 4.77708273647784 0.0
9.67540418457871 2.912802891506324 0.0
4.194055958522277 4.437353127730132 0.0
6.133959559341536 0.406856611599261 0.0
8.29952795189331 9.309744645643846 0.0
9.843692337952948 1.209647690818311 0.0
5.164986286280336 6.671544079402435 0.0
9.838533350075606 2.081705440779448 0.0
8.301244777513975 6.604088853319459 0.0
5.471494771710784 2.714598185146428 0.0
8.86534684892311 1.208599471795828 0.0
9.940610684232212 1.451558535868664 0.0
9.40896208432968 1.428353940655538 0.0
2.329177605337097 4.238803555614174 0.0
5.980761651517799 7.182207186682233 0.0
9.66541573964336 0.1719254072074424 0.0
7.220979380229172 7.806128737674462 0.0
1.251721227904697 6.151932667911503 0.0
8.104967286191181 6.057912607875576 0.0
6.650768762224724 4.817922869198292 0.0
6.634976350437587 3.213339182992986 0.0
7.034320437500567 4.898219100342838 0.0
9.502772020064167 6.283064492634301 0.0
8.13187938667684 3.518506862055515 0.0
9.855471943454193 2.599999999994991 0.0
9.056747742708522 8.263936599935574 0.0
4.352645795441222 5.724453640019 0.0
3.744263984699181 1.488951698361357 0.0
5.175860134287045 3.6375726667098 0.0
7.736434712114619 6.400417475661193 0.0
9.857658576695343 6.316607183405179 0.0
7.876525261950537 4.304285002335559 0.0
9.856114384785611 7.914602773442983 0.0
9.848334119947063 0.7059644476295188 0.0
9.59694321995579 6.895814046141667 0.0
5.906465212962551 3.869023950643881 0.0
9.840676994268005 9.364956386459765 0.0
5.355015287544095 3.83518170601625 0.0
6.374090407153147 5.855743754257685 0.0
8.227401290513832 5.297819733684674 0.0
5.451235131977493 4.825706629991923 0.0
6.022070213762754 5.355923882747634 0.0
9.845674433677614 6.108401449483281 0.0
9.835067400944396 7.739582406783081 0.0
8.602026805792988 2.941372356914139 0.0
5.059869081004962 5.269480960018243 0.0
5.284714507903736 5.26496663762182 0.0
9.627110479149561 7.660076105040499 0.0
6.820001127809743 4.792514421153957 0.0
5.120512795059439 4.806607659110254 0.0
9.56933817216883 2.911464407429096 0.0
9.74091654291531 9.267545397628387 0.0
9.93006767325302 6.576784040838644 0.0
9.642486276936268 4.650227701598451 0.0
5.185183328569137 9.410919109238325 0.0
9.37052946854105 4.605636695802024 0.0
1.677077220416309 5.871167715901136 0.0
7.345783833404538 3.184020711886284 0.0
5.419239942654976 5.982692039856376 0.0
6.133318300188262 2.551919945731369 0.0
6.187291396343277 4.499077117404439 0.0
1.231465237822878 3.921479198315213 0.0
8.969849937139944 9.699215363213542 0.0
9.218303154263054 6.037447959776716 0.0
CELLS 4886 19544
3 1113 1356 1450
3 1402 231 1659
3 272 269 1414
3 396 394 1777
3 1451 945 1452
3 194 81 1801
3 1847 1501 2104
3 2024 2121 2479
3 1115 1113 1450
3 1124 1413 1844
3 1061 1955 2409
3 307 305 1645
3 1592 1369 1593
3 238 1501 1847
3 1955 1883 2409
3 1808 243 1910
3 1885 978 2362
3 1440 793 2092
3 189 1488 1608
3 353 350 1864
3 2007 2231 2232
3 307 1645 2493
3 1096 1760 2496
3 2178 874 2179
3 621 625 1595
3 1493 1480 1938
3 1655 1268 2137
3 1341 1410 2212
3 243 1808 2360
3 1902 1446 2516
3 1760 1096 1763
3 856 790 2180
3 2008 2046 2105
3 789 1809 2067
3 694 1543 1575
3 1127 1762 1953
3 1748 807 2228
3 1543 1308 1575
3 820 1872 2170
3 1417 954 1998
3 1369 1592 2386
3 272 1414 1787
3 329 333 1998
3 1544 1095 1545
3 2231 1490 2232
3 1342 1683 1790
3 374 377 1797
3 807 1678 2228
3 1665 198 2128
3 141 142 1620
3 325 322 1952
3 231 1402 1654
3 198 1665 2010
3 1890 1307 2387
3 208 1438 1619
3 2016 1970 2156
3 1436 212 2020
3 954 1417 2333
3 1736 1894 2244
3 1491 1750 2143
3 1677 1064 2146
3 1474 1258 1475
3 1500 233 1930
3 1446 2415 2516
3 1700 973 1800
3 2128 2270 2316
3 1316 1315 1593
3 1307 2341 2387
3 2258 1324 2328
3 1083 1507 1508
3 693 1095 1544
3 621 1595 1596
3 667 1571 1872
3 1932 1766 2061
3 393 391 2240
3 1342 1790 2400
3 252 1707 2234
3 931 978 1885
3 1430 1116 1704
3 1411 1109 1714
3 1478 1227 2440
3 1990 195 2297
3 1792 1167 1985
3 1682 444 1975
3 394 397 1777
3 1711 2028 2162
3 1574 856 2180
3 2008 1851 2046
3 736 1493 1938
3 1069 1060 1662
3 1458 455 1754
3 862 691 1705
3 1161 1642 2286
3 1699 1700 1800
3 447 516 1637
3 955 1482 1483
3 2024 206 2121
3 391 1773 2240
3 1072 1412 1893
3 212 1436 2350
3 1566 1365 1568
3 259 1441 1672
3 872 870 1764
3 330 328 1889
3 1539 1161 2286
3 1897 1898 2275
3 1434 1990 2297
3 1109 1411 1730
3 319 307 2493
3 1762 1761 1953
3 1369 1316 1593
3 1540 834 1832
3 1505 652 2442
3 1732 1655 2137
3 921 1712 2295
3 1872 1388 2170
3 1712 921 2125
3 2028 244 2162
3 1506 1570 1680
3 1569 368 1964
3 1571 667 2375
3 1587 2178 2179
3 196 1723 1737
3 524 2016 2156
3 1528 1250 1733
3 1115 1450 1973
3 1938 1480 1971
3 1809 1396 2067
3 1641 249 2299
3 1223 1258 1474
3 1365 1566 2120
3 1981 962 2316
3 1538 353 1864
3 455 1458 1756
3 152 233 1500
3 1116 1430 1703
3 817 652 1505
3 1347 2003 2004
3 1607 1958 2085
3 194 1801 2195
3 1410 1341 2351
3 223 1415 1710
3 197 1511 2346
3 2198 787 2225
3 81 82 1801
3 1438 208 1620
3 1444 522 1823
3 1511 197 1950
3 726 718 1567
3 1637 516 1739
3 1708 2337 2341
3 1280 1649 2124
3 2337 1395 2341
3 1327 1709 2315
3 1225 1227 1478
3 691 624 1705
3 476 2224 2305
3 830 832 2204
3 1750 1491 2403
3 1366 1897 2275
3 2345 1583 2352
3 2054 405 2110
3 1984 2172 2230
3 1846 2198 2225
3 1177 2042 2418
3 2121 1367 2479
3 1527 1531 1541
3 916 1039 1834
3 1413 1124 2467
3 1622 1503 1868
3 249 1641 2019
3 1805 405 2054
3 1761 1007 1953
3 1415 223 2395
3 960 1756 2203
3 368 1569 2135
3 1402 1659 2473
3 941 1433 2471
3 1267 1477 1501
3 260 2002 2265
3 1704 558 2077
3 2224 1886 2305
3 2053 1386 2199
3 1452 945 1952
3 1717 1611 1718
3 1682 1975 2230
3 1760 1762 2496
3 1481 203 2104
3 1264 1266 1670
3 142 236 1620
3 2133 1182 2179
3 1791 1602 2183
3 350 346 1864
3 1412 1072 2393
3 1281 1575 2255
3 1565 1948 2155
3 849 1449 1513
3 1958 396 2085
3 1339 1069 1662
3 834 1540 1917
3 269 267 1414
3 1268 1267 1501
3 1440 2092 2468
3 1399 1981 2316
3 1635 1636 2041
3 1454 252 2234
3 1451 1305 1890
3 1375 1883 1955
3 362 366 1786
3 1484 2410 2528
3 1449 849 1640
3 1267 1474 1477
3 200 1611 1717
3 1054 1581 1582
3 1350 1977 2253
3 190 1390 2118
3 788 1956 2193
3 1709 1327 1888
3 2233 2298 2413
3 1488 189 2355
3 478 1685 1714
3 230 1525 1690
3 1687 478 1688
3 427 429 1756
3 1570 1065 2476
3 1880 1133 1988
3 1649 656 2124
3 1537 209 1614
3 1134 1769 1986
3 1220 1268 1655
3 396 1777 2085
3 1167 1755 1985
3 2229 1744 2296
3 1575 1281 2287
3 127 240 1882
3 377 647 1797
3 954 329 1998
3 220 1697 1698
3 1342 1341 2212
3 1441 264 1672
3 1512 188 2433
3 763 2345 2352
3 1685 1411 1714
3 1805 1188 1951
3 1347 2004 2157
3 1054 1582 1667
3 1333 1617 1674
3 2217 73 2361
3 1539 1036 1917
3 1039 1292 1834
3 208 141 1620
3 1965 1964 2038
3 693 1544 1969
3 1453 239 2279
3 203 1481 2049
3 945 1451 1889
3 680 1459 2134
3 354 2147 2196
3 1405 1932 2061
3 1723 1722 1737
3 1748 1175 1927
3 1532 1528 1733
3 2057 1824 2154
3 1406 1659 1702
3 1948 1186 2155
3 210 1598 2114
3 1685 478 1687
3 1324 1325 2328
3 1526 1250 1527
3 165 166 1509
3 1493 736 2523
3 1526 1527 1541
3 1390 190 2417
3 522 1444 1998
3 1680 1570 1732
3 1017 1442 2525
3 374 1797 2430
3 1507 1083 2197
3 1756 960 2221
3 2270 1400 2316
3 2205 1452 2282
3 1074 1187 1888
3 2158 1245 2200
3 1442 1017 1684
3 864 1116 1703
3 1750 1751 2143
3 1456 516 1492
3 1677 2146 2149
3 2022 1339 2388
3 1602 258 2183
3 678 1594 1595
3 1245 1670 2200
3 972 830 2204
3 2143 983 2342
3 1268 1501 2226
3 1266 1461 1670
3 1487 222 2465
3 1382 2022 2388
3 58 59 1661
3 2147 1543 2196
3 1484 1485 2410
3 628 2053 2199
3 1906 1549 2259
3 364 362 1786
3 1339 2022 2247
3 1636 525 2041
3 625 678 1595
3 678 1593 1594
3 2212 1410 2222
3 1837 1865 2215
3 1699 1800 1801
3 866 864 1703
3 893 1472 1982
3 1735 1736 2244
3 1633 1255 1922
3 126 127 1882
3 681 867 1656
3 1351 1401 2363
3 11 228 1588
3 1127 1953 2454
3 265 266 267
3 1722 1122 1737
3 1389 1691 2069
3 1613 1610 1616
3 1227 1256 2440
3 429 455 1756
3 1535 1177 2418
3 322 324 1952
3 973 1700 1802
3 1964 368 2038
3 1176 1865 1866
3 1096 872 1764
3 1176 1866 1875
3 193 1839 1892
3 156 157 1441
3 615 617 1596
3 686 1520 2480
3 1409 2097 2305
3 2410 1151 2528
3 1427 2217 2361
3 440 1911 2314
3 1744 1743 2296
3 516 1456 1739
3 1939 589 2164
3 690 931 2150
3 1062 1579 1580
3 1054 1580 1581
3 955 1483 1716
3 1064 1677 2248
3 1956 1616 2193
3 1776 1893 2026
3 1398 1115 1973
3 2002 1453 2265
3 1541 1531 1542
3 216 2191 2536
3 1736 1326 1894
3 1065 994 1066
3 1598 2115 2175
3 2314 1911 2358
3 1433 941 2042
3 2115 1209 2175
3 717 1550 1551
3 188 1941 2433
3 267 1132 1414
3 771 1569 2064
3 1157 1545 1546
3 1231 1250 1526
3 1933 240 2181
3 222 1487 2025
3 1525 230 1765
3 1430 1704 2077
3 757 1744 2495
3 264 263 265
3 883 773 1917
3 739 2205 2282
3 1667 1582 2434
3 1744 757 2474
3 239 1453 2002
3 1441 259 2356
3 2005 1443 2012
3 254 1766 1932
3 1509 166 1679
3 1477 1475 1481
3 793 1440 2165
3 1385 1523 2377
3 1481 1475 2523
3 156 1441 2356
3 1066 1220 1655
3 945 325 1952
3 2094 2087 2134
3 1747 1175 1748
3 253 262 263
3 1327 1074 1888
3 718 715 1567
3 2046 1043 2105
3 240 1933 2399
3 1305 1307 1890
3 224 58 1661
3 1195 1566 2285
3 1590 1393 1749
3 1255 1230 1922
3 353 1538 2073
3 358 1999 2325
3 882 1802 2036
3 1024 1020 1604
3 333 522 1998
3 1401 1351 2414
3 1475 1258 1476
3 2310 786 2364
3 328 945 1889
3 807 1748 1927
3 825 724 1912
3 1742 263 2491
3 267 266 1132
3 2077 2102 2203
3 1431 1432 1860
3 1212 1957 2312
3 2097 476 2305
3 1132 1402 2473
3 717 713 1550
3 1746 693 1969
3 1372 1124 1844
3 1256 1541 2269
3 1977 1350 2274
3 2332 1978 2443
3 874 2133 2179
3 1983 1534 2171
3 1157 1544 1545
3 1230 1228 1922
3 1580 1579 1581
3 1565 806 1948
3 1416 1363 2413
3 1287 1995 2398
3 265 263 266
3 1534 1529 2171
3 1604 1834 2428
3 1255 1633 2509
3 1344 1643 1644
3 1332 1388 1571
3 1423 217 2217
3 2191 1057 2451
3 458 447 1637
3 1250 1233 1733
3 472 2212 2222
3 1175 1747 1840
3 1652 256 1653
3 1073 1347 1572
3 200 145 1609
3 683 640 1585
3 1116 862 1705
3 1221 1223 1474
3 1778 801 1803
3 1503 1622 2471
3 1475 1493 2523
3 464 680 2134
3 14 210 2114
3 579 1880 1988
3 1434 1435 1990
3 1447 2310 2364
3 275 274 276
3 2294 1871 2419
3 814 1068 1684
3 1172 1439 2273
3 273 272 274
3 1363 1416 2406
3 1220 1219 1221
3 1060 1656 1662
3 1099 1792 1985
3 2048 1198 2168
3 1241 1245 2323
3 699 723 1753
3 1640 1862 2070
3 910 1018 1584
3 1586 1067 1587
3 1656 867 1662
3 1067 686 2480
3 654 2242 2294
3 1593 1315 1594
3 1880 553 1974
3 236 1717 1718
3 617 621 1596
3 1723 196 2313
3 402 1877 2116
3 273 274 275
3 2202 1869 2252
3 1510 1358 1767
3 193 1892 2373
3 1188 1805 2054
3 1220 1221 1267
3 1066 1218 1219
3 1517 1097 1518
3 1677 1676 1858
3 686 277 1520
3 268 267 269
3 697 857 1592
3 220 1698 1699
3 1802 1700 2036
3 1612 1537 1614
3 929 817 994
3 228 12 2136
3 2110 2116 2482
3 1659 1658 1702
3 1611 1613 2280
3 1344 991 1643
3 683 1585 1604
3 1638 1358 2404
3 1485 1034 2410
3 2214 833 2424
3 271 272 273
3 1482 955 1962
3 1066 1219 1220
3 931 1885 2150
3 1613 1891 2280
3 1189 1589 2204
3 1566 1195 2120
3 726 1567 2490
3 1122 1722 1874
3 1494 319 2493
3 1671 259 1672
3 1267 1221 1474
3 603 528 1591
3 1664 2128 2316
3 1817 1924 2174
3 1626 1660 2111
3 1474 1475 1477
3 1023 1062 1580
3 1957 1599 2312
3 1764 1939 2164
3 1358 1950 2404
3 200 1609 1610
3 1431 1082 1432
3 1778 1803 2521
3 1830 1832 2075
3 1930 233 2369
3 1329 1482 1650
3 757 1959 2522
3 1239 1247 1597
3 758 1978 2332
3 1569 1290 2064
3 216 1694 2191
3 1453 1420 2265
3 1549 1906 2129
3 24 215 1674
3 19 235 1676
3 1621 1057 2191
3 1691 1389 2262
3 1617 1333 2192
3 929 994 1065
3 1769 1672 1986
3 1893 1412 2026
3 1609 1537 1612
3 271 269 272
3 1373 1438 1620
3 217 1423 2381
3 517 330 1889
3 1322 1055 1667
3 1974 553 2499
3 228 2136 2187
3 1589 1189 1788
3 1999 1577 2325
3 2110 405 2116
3 189 1608 1842
3 1055 1050 1667
3 739 1455 2205
3 1865 1176 2215
3 319 1494 2522
3 2474 757 2522
3 1484 227 1485
3 10 11 1588
3 723 809 1753
3 27 230 1689
3 1550 806 1565
3 1179 1180 1217
3 207 1617 2192
3 1433 1217 1502
3 1562 1556 1606
3 1379 2017 2018
3 1245 2158 2323
3 675 1097 1517
3 884 501 1599
3 1020 683 1604
3 1603 1095 1848
3 1001 2057 2154
3 1604 1585 1834
3 1610 1612 1616
3 1764 870 1939
3 2242 1871 2294
3 1669 1264 1670
3 1658 213 1702
3 1995 1646 2398
3 631 539 1600
3 1491 2143 2342
3 1801 1800 2195
3 1200 1199 1693
3 1535 940 1861
3 1534 758 2332
3 914 2258 2328
3 1588 228 2457
3 216 138 1694
3 151 152 1500
3 1133 1880 1974
3 1677 1858 2248
3 1294 1622 1868
3 875 1010 1767
3 1379 2018 2416
3 1279 2202 2252
3 182 256 1652
3 1592 857 2386
3 672 681 1656
3 615 1596 1824
3 1093 1487 1623
3 1823 522 2100
3 1245 1242 1669
3 1582 1581 1583
3 758 1534 2306
3 1975 1984 2230
3 1358 1510 1950
3 1663 1336 1665
3 2102 960 2203
3 366 1087 1786
3 1740 1490 2231
3 21 207 1709
3 145 146 1609
3 2339 765 2384
3 603 1591 1668
3 2081 199 2149
3 1540 1832 1879
3 1721 1723 1947
3 1754 455 1793
3 1751 1753 2119
3 882 1701 1807
3 1540 1539 1917
3 242 1695 1697
3 1521 354 2091
3 1363 2233 2413
3 1584 1018 1925
3 703 1067 1586
3 1177 1178 1179
3 795 916 1834
3 277 276 607
3 1571 1388 1872
3 22 23 1617
3 1097 823 1177
3 25 26 1624
3 419 418 1790
3 1728 1906 2259
3 440 1455 2261
3 1877 1318 2116
3 1488 1156 1608
3 1439 2130 2273
3 1889 1451 1890
3 1614 209 2389
3 1472 893 2094
3 675 821 823
3 23 24 1674
3 1788 1190 2183
3 917 941 1622
3 1763 1096 1764
3 1068 1442 1684
3 1034 1485 2173
3 2172 1533 2230
3 138 139 1694
3 1065 1570 2197
3 607 674 675
3 1536 1248 2268
3 229 135 1734
3 1437 1925 1926
3 680 510 1646
3 147 209 1537
3 26 27 1689
3 1627 705 2163
3 206 1651 2121
3 2409 1785 2462
3 1492 682 2447
3 1223 1225 1258
3 889 1772 2374
3 253 263 264
3 275 276 277
3 1455 739 2261
3 2022 1382 2176
3 150 227 1484
3 639 1019 1591
3 1449 1640 2070
3 1082 833 2214
3 1503 1502 1504
3 144 200 1717
3 1643 991 1713
3 1190 1791 2183
3 1538 1804 2073
3 1256 2269 2440
3 18 19 1676
3 521 531 2000
3 790 849 2180
3 1075 1329 1650
3 1087 1782 1785
3 1066 994 1218
3 270 269 271
3 682 1492 2494
3 185 252 1454
3 253 158 262
3 1629 1632 1633
3 200 1610 1611
3 1477 1481 2104
3 1623 1487 2465
3 1518 1097 1535
3 1414 1132 2460
3 1179 1217 1433
3 177 1506 1680
3 1392 1017 2525
3 1832 834 2075
3 675 823 1097
3 1459 2094 2134
3 1782 1087 1795
3 1838 1730 2372
3 1639 149 2528
3 1617 23 1674
3 2265 1420 2489
3 180 232 1859
3 1527 1250 1528
3 20 21 1709
3 1083 1508 2311
3 903 866 1703
3 1455 440 2314
3 1187 1858 1888
3 1659 1406 2473
3 1446 1902 2166
3 421 1951 2106
3 1598 210 2115
3 154 259 1671
3 1288 1835 2080
3 1832 1831 1879
3 1258 1225 1478
3 1024 1604 2117
3 1263 1429 1739
3 706 705 1627
3 1583 1581 2352
3 407 1805 1951
3 856 1574 2527
3 1701 882 2036
3 1624 26 1689
3 717 1551 1552
3 1385 2377 2391
3 2302 1745 2354
3 1572 1347 2157
3 1036 883 1917
3 1689 1690 1691
3 1664 1665 2128
3 1476 1479 1480
3 1751 2119 2143
3 815 814 1684
3 1790 889 2400
3 1606 1607 2085
3 265 267 268
3 418 889 1790
3 1522 1521 2091
3 135 136 1734
3 1726 1445 1729
3 647 1796 1797
3 1346 1453 2279
3 1293 1827 2117
3 1242 1244 1669
3 1853 1852 1854
3 889 2374 2400
3 1039 1038 1290
3 1524 628 2199
3 1331 1332 1571
3 1291 1290 1569
3 1475 1476 1493
3 1850 1852 1853
3 1490 1740 2456
3 1689 230 1690
3 1256 1526 1541
3 1704 1705 2167
3 1465 1470 1675
3 956 1073 1572
3 1613 1616 1956
3 916 917 1038
3 2014 1522 2091
3 1221 1222 1223
3 1999 763 2352
3 234 10 1588
3 1697 220 2335
3 1527 1528 1529
3 2298 1600 2413
3 1436 2020 2254
3 1642 1161 1678
3 1523 1385 2436
3 1730 1838 2426
3 795 796 916
3 713 711 1550
3 1456 1263 1739
3 999 1336 1663
3 1785 1784 2462
3 409 415 1783
3 607 675 1517
3 1229 1231 1526
3 1958 1855 2078
3 1589 1588 1590
3 1933 261 2380
3 762 1965 2038
3 1756 1458 2203
3 1776 597 1893
3 1794 1072 1893
3 188 1512 2266
3 1774 2339 2384
3 188 1908 1941
3 1010 1510 1767
3 2189 2285 2307
3 773 834 1917
3 1245 1669 1670
3 1248 1597 2268
3 146 1537 1609
3 818 910 1584
3 1641 1313 1651
3 1217 1745 2302
3 1065 1066 1655
3 1597 1247 2047
3 1360 2177 2376
3 1612 1615 1616
3 2126 867 2186
3 1019 683 1020
3 1747 892 1840
3 1092 1093 1623
3 261 1933 2181
3 400 424 1666
3 1516 1903 2377
3 1100 1392 1605
3 247 1738 1881
3 268 1134 1986
3 1177 823 1178
3 884 1599 1957
3 263 262 2491
3 806 1627 1948
3 1227 1229 1256
3 191 1729 2504
3 1636 1635 2502
3 1480 1479 1601
3 1721 1947 2498
3 1924 1146 2174
3 229 1734 1735
3 175 204 1725
3 1179 1178 1180
3 354 1521 2147
3 665 697 1592
3 640 646 1585
3 627 545 1636
3 1882 240 2399
3 1556 1555 1606
3 1373 1620 2394
3 1871 1071 2419
3 548 1628 1629
3 455 436 1793
3 974 1831 1841
3 1844 1413 2392
3 1612 1614 1615
3 209 1639 1937
3 1329 1330 1331
3 1823 2100 2142
3 1097 1177 1535
3 1021 1020 1022
3 825 1912 2455
3 913 1122 1874
3 400 1666 2113
3 1256 1229 1526
3 1419 1418 2450
3 1552 1551 1553
3 1850 1099 1852
3 1629 1631 1632
3 801 685 2029
3 1618 1619 1621
3 265 268 1986
3 1715 2165 2330
3 1531 1529 1534
3 1022 1024 1576
3 658 693 1746
3 703 686 1067
3 1062 1576 1577
3 1023 1022 1062
3 236 1718 2394
3 1688 502 1740
3 1501 1477 2104
3 213 165 1509
3 646 795 1585
3 196 1737 1738
3 379 679 1795
3 639 640 683
3 924 875 1767
3 1752 699 1753
3 207 2192 2315
3 627 1636 1660
3 1217 1180 1745
3 730 728 1833
3 528 561 1591
3 1444 1417 1998
3 252 186 1602
3 1729 1445 2504
3 460 502 1688
3 1418 946 1778
3 1203 1200 1693
3 548 470 1628
3 849 668 1640
3 646 785 795
3 607 276 674
3 14 15 210
3 147 148 209
3 478 460 1688
3 1709 207 2315
3 1157 1546 1608
3 1155 1731 1899
3 1524 1934 2390
3 1775 921 1876
3 1433 1502 1503
3 470 458 1628
3 1223 1224 1225
3 1291 1569 1964
3 871 1056 1826
3 1781 1783 1915
3 1587 1067 2300
3 916 1038 1039
3 1388 1387 1389
3 1611 1610 1613
3 1075 1328 1329
3 1039 1290 1291
3 1538 1265 1804
3 1184 1185 2163
3 597 598 1794
3 1450 1356 2421
3 1835 576 2080
3 1629 1628 1631
3 1331 1330 1332
3 561 639 1591
3 1476 1480 1493
3 705 703 1586
3 639 683 1019
3 1951 1188 2106
3 436 446 1793
3 1472 1297 2142
3 1332 1387 1388
3 1345 984 1720
3 1329 1328 1330
3 1050 1048 1667
3 150 151 227
3 11 12 228
3 557 541 2256
3 1831 974 1879
3 134 229 1766
3 1357 1358 1638
3 1336 1641 2299
3 1650 1482 1962
3 1591 1019 2512
3 1506 1507 1570
3 1803 801 2029
3 1178 823 1972
3 1552 1553 1554
3 1290 1038 1294
3 1028 1313 1641
3 1237 1239 1597
3 993 1017 1100
3 893 2087 2094
3 149 1484 2528
3 1768 1142 1949
3 9 234 1673
3 1554 1553 1555
3 668 632 1640
3 711 806 1550
3 1628 458 1637
3 1098 1829 1830
3 1482 1331 1483
3 531 1818 2000
3 435 419 1790
3 1156 1157 1608
3 1182 1184 2179
3 510 512 1646
3 1231 1233 1250
3 946 841 1778
3 1483 1331 1571
3 1459 680 2458
3 1166 1040 1210
3 892 1657 1820
3 1042 1445 1726
3 1019 1020 1021
3 749 805 1810
3 234 1588 1589
3 1695 242 1892
3 556 1853 2483
3 1018 1572 1573
3 1529 1528 1530
3 1606 1558 1607
3 1761 1759 2308
3 1396 1032 1921
3 1018 956 1572
3 689 1150 1416
3 1827 1293 2515
3 149 150 1484
3 1647 656 1648
3 1543 694 2196
3 399 409 1783
3 545 525 1636
3 268 269 270
3 715 713 717
3 1100 1017 1392
3 1657 892 1747
3 207 22 1617
3 1666 884 2249
3 1671 1672 1769
3 1554 1555 1556
3 146 147 1537
3 1081 1444 1822
3 711 709 806
3 1443 2005 2322
3 660 658 1746
3 1166 1458 1754
3 916 796 917
3 1056 1728 1826
3 1068 1069 1275
3 184 185 1454
3 158 159 262
3 2007 1687 2231
3 805 1708 1810
3 1672 264 1986
3 1561 1562 1563
3 978 1075 1650
3 1590 1588 2457
3 215 25 1624
3 1551 1550 1565
3 1073 1346 1347
3 857 818 1584
3 1648 656 1649
3 675 674 821
3 561 594 639
3 1731 529 1899
3 2303 1454 2535
3 981 903 1040
3 1630 1629 1633
3 993 877 1017
3 724 718 726
3 512 603 1646
3 1676 235 1858
3 814 1060 1068
3 715 717 1567
3 1796 647 1870
3 1715 1171 2165
3 678 1592 1593
3 644 613 1824
3 1690 1525 2145
3 1297 1822 1823
3 271 656 1647
3 1704 1116 1705
3 1225 1226 1227
3 1275 1069 1338
3 910 956 1018
3 1824 1596 2154
3 1403 1100 1605
3 1221 1219 1222
3 1068 1060 1069
3 1901 245 1949
3 1081 1055 1321
3 1751 563 1752
3 1021 1022 1023
3 672 638 681
3 1095 657 1848
3 1235 1237 1248
3 1561 1556 1562
3 1265 1259 1804
3 524 1819 2016
3 978 1650 2362
3 1492 516 2494
3 229 1735 2061
3 185 186 252
3 157 158 253
3 152 153 233
3 9 10 234
3 1527 1529 1531
3 1808 1344 2360
3 1062 1577 1579
3 1509 1679 1977
3 424 454 1666
3 637 638 672
3 981 1040 1166
3 1555 1558 1606
3 751 749 1810
3 1166 1210 1458
3 1651 1313 2121
3 15 16 2260
3 1633 1632 2509
3 2167 1705 2276
3 551 602 2045
3 697 818 857
3 364 1786 1883
3 832 1189 2204
3 1476 1478 1479
3 678 665 1592
3 213 1509 2096
3 1015 888 1124
3 1062 1022 1576
3 679 1782 1795
3 680 1646 1995
3 1101 1100 1403
3 1109 433 1714
3 1248 1237 1597
3 733 730 1833
3 1702 213 2096
3 499 498 1828
3 1418 1778 2521
3 637 600 638
3 1048 1046 1054
3 1577 1576 1578
3 814 766 1060
3 1279 2252 2292
3 474 470 548
3 199 18 1676
3 157 253 1441
3 1048 1054 1667
3 471 472 2290
3 625 665 678
3 795 785 796
3 1264 1265 1266
3 1437 1926 2350
3 1362 2048 2168
3 1394 2337 2371
3 454 884 1666
3 1022 1020 1024
3 751 1810 1923
3 1046 1023 1580
3 1807 1701 1931
3 1618 208 1619
3 566 588 689
3 1828 498 1829
3 501 509 1599
3 1118 780 1775
3 878 817 929
3 1510 1511 1950
3 1618 1621 1694
3 1052 1081 1822
3 1416 1150 1715
3 1239 1241 1247
3 1396 1921 2067
3 1751 1752 1753
3 1264 1259 1265
3 539 566 1600
3 1762 1127 2496
3 1673 1788 2183
3 1555 1557 1558
3 1052 1050 1055
3 725 724 825
3 1142 1770 1771
3 681 853 867
3 454 501 884
3 1346 1420 1453
3 932 1147 1770
3 1546 1545 1547
3 533 582 1818
3 1266 1337 1460
3 1872 820 2318
3 1117 1119 1713
3 1081 1321 1417
3 1253 1259 1264
3 1569 771 2135
3 1052 1055 1081
3 1181 1178 1972
3 709 706 1627
3 1073 1076 1346
3 1098 1828 1829
3 1382 1380 2176
3 1442 1275 1443
3 919 999 1663
3 1789 828 1855
3 877 815 1684
3 509 539 631
3 992 877 993
3 1266 1265 1337
3 2268 1498 2340
3 1130 1032 1396
3 1095 1603 2508
3 886 826 887
3 531 533 1818
3 1131 1400 1881
3 447 437 516
3 2460 1132 2473
3 940 1535 2418
3 768 1873 2037
3 1813 1869 1954
3 1627 2163 2488
3 1497 1495 1645
3 1198 1409 2168
3 724 726 1912
3 1869 987 1954
3 763 1999 2338
3 1010 1170 1374
3 984 976 1720
3 1470 1743 1744
3 689 588 1150
3 1901 1949 2359
3 1640 632 1862
3 274 272 1787
3 563 564 1752
3 994 817 1505
3 737 1807 1931
3 1770 1147 1771
3 1233 1235 1733
3 2450 1418 2521
3 414 410 1821
3 908 1099 1850
3 1227 1228 1229
3 1692 1203 1693
3 1625 216 2194
3 512 528 603
3 1377 1357 1638
3 1465 1464 1470
3 1360 1359 2177
3 1686 2007 2095
3 1336 1028 1641
3 1857 751 1923
3 1758 572 1759
3 553 541 557
3 1171 1715 1811
3 956 1003 1073
3 1467 1465 1675
3 719 718 724
3 1509 1977 2096
3 1734 1625 1736
3 1503 1504 1868
3 592 597 1776
3 180 181 232
3 162 163 231
3 2308 1759 2370
3 1357 1114 1358
3 875 946 1010
3 509 631 1599
3 17 18 199
3 144 145 200
3 1099 906 1792
3 1469 1467 1494
3 605 589 1939
3 1208 1205 1211
3 354 344 2091
3 692 782 804
3 1010 946 1170
3 1463 1462 1464
3 716 715 718
3 714 713 715
3 271 273 656
3 139 1618 1694
3 549 277 686
3 673 672 766
3 1378 1377 1379
3 2007 868 2095
3 999 1028 1336
3 1208 1211 1447
3 601 545 627
3 1119 1643 1713
3 1332 1333 1387
3 910 912 956
3 520 521 2000
3 828 1789 1819
3 277 607 1520
3 1338 1339 2247
3 818 819 910
3 767 766 814
3 712 711 713
3 1494 1467 1675
3 639 594 640
3 2044 557 2256
3 235 20 1709
3 1620 236 2394
3 804 919 962
3 1862 702 2070
3 681 852 853
3 1559 1556 1561
3 1622 941 2471
3 2165 1440 2330
3 612 644 692
3 697 698 818
3 1903 1516 1994
3 371 379 1795
3 428 426 2138
3 1290 1294 2064
3 1384 1904 2432
3 566 689 1600
3 471 452 472
3 1092 1091 1093
3 1002 1131 1719
3 1090 1089 1091
3 875 841 946
3 1758 1760 1763
3 1562 1606 2085
3 1833 1830 2075
3 178 179 214
3 164 165 213
3 769 923 1815
3 692 644 782
3 804 782 919
3 182 183 256
3 160 161 257
3 1329 1331 1482
3 962 1663 1664
3 1177 1179 2042
3 403 405 1805
3 1461 1460 1462
3 140 208 1618
3 1859 232 1860
3 274 1787 2099
3 1381 2126 2186
3 1558 1560 1789
3 430 428 682
3 452 435 1683
3 1487 1156 1488
3 1470 1464 1743
3 597 1794 1893
3 1244 1253 1669
3 962 919 1663
3 258 8 1673
3 1087 1785 1786
3 970 1042 1726
3 199 1677 2149
3 1664 1663 1665
3 1229 1230 1231
3 991 827 1713
3 792 1603 1848
3 1822 1444 1823
3 665 666 697
3 19 20 235
3 142 143 236
3 728 1098 1833
3 532 530 1898
3 1015 1124 1372
3 1546 1547 1548
3 1851 1850 1853
3 1877 393 2240
3 923 1105 1815
3 1090 1091 1092
3 687 686 703
3 1683 435 1790
3 887 826 1961
3 684 663 1089
3 426 1934 2138
3 464 510 680
3 853 854 855
3 568 572 1758
3 1376 1357 1377
3 1205 1203 1692
3 1607 1789 1855
3 710 709 711
3 780 781 1775
3 1434 1103 1435
3 876 815 877
3 766 672 1656
3 1393 1590 2457
3 684 1089 1090
3 530 890 1898
3 926 1920 1943
3 696 414 1821
3 1563 1562 1777
3 1054 1046 1580
3 1398 1973 1974
3 137 216 1625
3 1210 1040 1430
3 1750 563 1751
3 2010 1665 2299
3 1510 1374 1511
3 1777 1562 2085
3 1707 252 1791
3 1932 1404 1933
3 459 438 1814
3 139 140 1618
3 1093 1156 1487
3 231 163 1658
3 699 722 723
3 1545 1095 2508
3 598 612 1794
3 579 554 1880
3 1941 1908 2401
3 1231 1232 1233
3 1831 1829 1841
3 1037 1383 1799
3 177 178 1506
3 636 600 637
3 1036 1539 2286
3 1356 1114 1357
3 1523 1516 2377
3 704 703 705
3 403 402 405
3 648 792 1848
3 723 756 808
3 1388 1389 2170
3 933 932 1770
3 223 1710 1711
3 1779 399 1783
3 1223 1222 1224
3 1028 1029 1313
3 257 161 1654
3 418 412 421
3 734 882 1807
3 693 657 1095
3 1368 1370 1436
3 136 137 1625
3 688 652 817
3 1075 1327 1328
3 540 479 1813
3 398 395 402
3 548 1629 1630
3 574 591 699
3 1469 1494 1495
3 1041 1598 2175
3 167 168 202
3 175 176 204
3 2045 2046 2201
3 186 187 1602
3 886 887 888
3 1253 1254 1259
3 8 9 1673
3 792 655 810
3 843 1145 1960
3 1180 1349 1745
3 1165 1345 1512
3 708 706 709
3 136 1625 1734
3 21 22 207
3 140 141 208
3 625 626 665
3 1093 1094 1156
3 1585 795 1834
3 1117 1713 1806
3 599 579 600
3 810 871 1826
3 1047 1046 1048
3 1292 1291 1293
3 161 162 1654
3 199 1676 1677
3 1260 1282 1804
3 1005 1142 1768
3 1233 1234 1235
3 792 810 922
3 1122 1719 1737
3 976 985 1720
3 1278 1279 2292
3 2390 1934 2531
3 1436 1437 2350
3 270 271 1647
3 1199 966 1846
3 1683 1342 2212
3 656 273 2124
3 699 591 722
3 1977 1139 2096
3 1738 1719 1881
3 1722 985 1874
3 1797 1448 1798
3 162 231 1654
3 632 604 1862
3 252 1602 1791
3 1051 1050 1052
3 1045 1023 1046
3 648 655 792
3 993 1100 1101
3 1321 1055 1322
3 806 709 1627
3 904 903 981
3 1220 1267 1268
3 648 605 655
3 1737 1719 1738
3 385 399 1779
3 506 499 1828
3 1132 266 1402
3 1170 1418 1419
3 1323 2302 2354
3 24 25 215
3 137 138 216
3 721 965 1919
3 1787 1414 2460
3 778 1117 1806
3 723 722 756
3 407 403 1805
3 564 574 1752
3 1049 1048 1050
3 842 841 875
3 1608 1546 1842
3 809 808 899
3 1517 1519 1520
3 1530 1532 1533
3 889 421 1772
3 913 1002 1122
3 1314 1316 1367
3 1017 877 1684
3 841 802 1778
3 1235 1236 1237
3 751 1857 1900
3 1114 924 1767
3 1344 1644 2360
3 1895 1394 2371
3 1518 1535 1861
3 1758 1759 1760
3 1122 1002 1719
3 546 563 1750
3 1056 1726 1727
3 663 660 1746
3 621 622 625
3 1720 985 1721
3 1857 1843 1900
3 808 756 913
3 1056 970 1726
3 27 28 230
3 134 135 229
3 908 906 1099
3 163 164 1658
3 1727 1726 1729
3 7 8 258
3 154 155 259
3 1101 1403 1404
3 808 913 1874
3 1260 1269 1282
3 1389 1387 2262
3 1297 1053 1822
3 1555 1553 1557
3 1463 1464 1465
3 230 28 1765
3 1237 1238 1239
3 554 553 1880
3 775 778 1806
3 985 899 1874
3 1270 1524 2199
3 489 1820 1936
3 692 1072 1794
3 1472 2142 2272
3 1845 496 1929
3 438 431 1814
3 613 615 1824
3 1241 1242 1245
3 1783 415 1915
3 1192 2081 2149
3 178 214 1506
3 1816 988 1817
3 1760 1759 1761
3 1103 1092 1623
3 1512 1345 1661
3 1876 921 2295
3 1165 984 1345
3 978 1074 1075
3 1239 1240 1241
3 542 541 553
3 813 988 1816
3 1148 984 1165
3 871 970 1056
3 472 452 1683
3 1207 1796 1870
3 1167 1166 1754
3 1296 1053 1297
3 966 964 1846
3 976 899 985
3 982 976 984
3 702 1815 2015
3 900 899 976
3 1143 995 1206
3 1576 1024 1827
3 1235 1248 1733
3 1558 1557 1560
3 943 995 1143
3 1920 1144 1943
3 1471 2115 2477
3 29 30 255
3 132 133 254
3 1630 1633 1634
3 1225 1224 1226
3 1925 1573 1926
3 1211 1205 1692
3 725 825 826
3 1113 924 1114
3 600 579 1988
3 717 1552 1567
3 1820 1657 1936
3 674 276 2099
3 395 393 1877
3 572 543 1897
3 1575 1308 2255
3 999 1000 1028
3 1118 1775 1876
3 1797 1798 2430
3 526 546 559
3 867 853 2186
3 1142 1771 1949
3 1068 1275 1442
3 679 385 1779
3 1607 1558 1789
3 580 568 1758
3 1244 1252 1253
3 1760 1761 1762
3 398 402 403
3 1476 1258 1478
3 418 421 889
3 1771 1147 1839
3 164 213 1658
3 1720 1721 2267
3 1668 1591 2512
3 1042 1128 1445
3 1098 1830 1833
3 1102 1092 1103
3 2249 884 2466
3 1104 1103 1434
3 410 416 1821
3 514 513 541
3 580 1758 1763
3 637 673 1741
3 1913 936 1914
3 1394 1395 2337
3 919 920 999
3 577 554 579
3 2111 1660 2263
3 231 1658 1659
3 612 613 644
3 568 543 572
3 770 775 1806
3 1445 1128 1446
3 1546 1548 1842
3 448 460 478
3 810 870 871
3 1789 1560 1819
3 1154 1082 1431
3 873 973 1802
3 379 385 679
3 837 850 921
3 1461 1462 1463
3 1346 1076 1420
3 1088 1344 1808
3 2125 1143 2353
3 931 977 978
3 882 772 1802
3 29 255 1765
3 849 1513 2180
3 1713 827 1806
3 1130 1396 1397
3 681 638 852
3 1417 1321 1873
3 1654 1402 2530
3 502 526 1740
3 1124 888 2177
3 1266 1460 1461
3 515 1175 1840
3 1253 1264 1669
3 479 466 1813
3 1727 1729 1757
3 379 380 385
3 1971 1480 2514
3 1637 1739 2459
3 1207 1205 1208
3 529 519 1899
3 1129 1845 1929
3 224 1661 2267
3 192 1856 2361
3 732 734 1807
3 1184 2163 2435
3 1119 1120 1353
3 415 414 431
3 719 724 725
3 559 546 1750
3 871 872 970
3 1038 917 1622
3 574 699 1752
3 166 167 1679
3 1117 1118 1119
3 1409 1196 2035
3 617 619 621
3 1172 1173 1439
3 1191 1005 1768
3 664 663 684
3 494 493 1841
3 890 529 1731
3 840 802 841
3 493 974 1841
3 385 386 399
3 679 1779 1780
3 371 376 379
3 416 433 1109
3 670 769 1815
3 902 866 903
3 1780 1779 1781
3 480 515 1840
3 970 971 1042
3 433 448 1714
3 28 29 1765
3 1005 949 1142
3 778 780 1117
3 959 1037 1799
3 1073 1003 1076
3 535 532 1898
3 1119 1118 1120
3 658 657 693
3 1378 1379 1380
3 1397 1396 1809
3 1610 1609 1612
3 1819 1560 2016
3 1837 952 1865
3 1719 1131 1881
3 1131 1399 1400
3 1352 1138 2058
3 399 406 409
3 548 1630 2041
3 1275 1338 2251
3 582 1816 1818
3 1835 1836 2144
3 993 1101 1980
3 1699 1698 1700
3 2407 364 2505
3 1189 1190 1788
3 1117 780 1118
3 1830 1829 1831
3 637 672 673
3 692 804 1072
3 1204 1203 1205
3 1374 1170 2139
3 612 692 1794
3 1642 1408 2286
3 723 808 809
3 450 459 1812
3 409 410 414
3 802 801 1778
3 1853 1854 2483
3 1042 1127 1128
3 1199 1846 2225
3 1147 990 1273
3 1383 1384 2432
3 432 431 438
3 1353 1120 1390
3 1093 1091 1094
3 2020 250 2254
3 148 149 1639
3 606 605 648
3 1970 2016 2422
3 2201 2046 2327
3 475 471 513
3 412 407 1951
3 1991 246 2139
3 727 695 728
3 1673 234 1788
3 1554 1556 1559
3 1089 663 1746
3 1846 964 2056
3 923 991 1088
3 409 406 410
3 729 728 730
3 1424 1427 1856
3 1473 1911 2407
3 1376 1377 1378
3 1010 1374 1510
3 853 852 854
3 366 369 1087
3 772 873 1802
3 1219 1218 1626
3 1766 229 2061
3 1088 991 1344
3 922 810 1826
3 518 506 695
3 405 402 2116
3 962 1664 2316
3 913 942 1002
3 932 990 1147
3 629 813 1816
3 876 877 992
3 399 386 406
3 932 845 990
3 1002 1123 1131
3 843 996 1145
3 781 837 1775
3 262 2304 2491
3 431 696 1814
3 1273 1695 1892
3 731 730 732
3 737 732 1807
3 439 438 450
3 1829 498 1841
3 800 685 801
3 767 814 815
3 1060 766 1656
3 673 766 767
3 1403 1605 1882
3 716 718 719
3 1338 1069 1339
3 847 752 1843
3 864 862 1116
3 2302 443 2519
3 923 827 991
3 526 559 1740
3 1911 1473 2358
3 1085 1310 1867
3 809 899 900
3 1227 1226 1228
3 729 730 731
3 1436 1370 1437
3 731 732 737
3 769 827 923
3 456 452 471
3 1433 1503 2471
3 1435 1103 1623
3 385 380 386
3 1141 1787 2460
3 1354 1088 1808
3 657 649 1848
3 415 431 432
3 484 892 1820
3 727 728 729
3 855 854 1450
3 1721 1722 1723
3 1643 1353 1644
3 1145 1916 1960
3 1421 1191 1422
3 466 1812 1813
3 943 944 995
3 1356 1357 1376
3 714 715 716
3 1156 1094 1157
3 598 611 612
3 631 1600 2298
3 590 589 605
3 965 969 1919
3 416 1109 1821
3 242 1697 2335
3 1548 1547 1549
3 550 573 584
3 584 604 632
3 409 414 415
3 712 713 714
3 642 670 702
3 818 698 819
3 1006 1005 1191
3 1624 1689 1691
3 169 170 237
3 173 174 238
3 956 912 1003
3 937 936 1913
3 1317 1025 1875
3 515 540 550
3 973 1799 1800
3 973 959 1799
3 518 695 727
3 910 819 912
3 584 573 604
3 1170 946 1418
3 173 238 1847
3 550 540 573
3 982 984 1148
3 900 976 982
3 441 435 452
3 448 478 1714
3 1849 1648 2173
3 1631 1628 1637
3 1830 1831 1832
3 1383 1216 1384
3 734 772 882
3 949 933 1770
3 1332 1330 1333
3 574 575 591
3 1105 1088 1354
3 702 670 1815
3 498 494 1841
3 827 770 1806
3 873 959 973
3 1390 1391 1415
3 450 438 459
3 950 949 1005
3 351 362 364
3 1313 1029 1314
3 432 438 439
3 837 838 850
3 1273 1274 1695
3 850 851 943
3 911 952 1837
3 1259 1260 1804
3 566 587 588
3 1037 1216 1383
3 1337 1265 1538
3 1087 369 1795
3 810 655 870
3 1559 1561 1566
3 1147 1273 1839
3 732 733 734
3 1662 867 2126
3 890 1731 2241
3 1854 1852 2397
3 515 479 540
3 451 450 466
3 697 666 698
3 1367 1316 1368
3 662 660 663
3 365 355 694
3 1358 1114 1767
3 379 376 380
3 1796 1448 1797
3 179 180 1859
3 790 668 849
3 569 568 580
3 690 860 931
3 466 450 1812
3 431 414 696
3 1973 1133 1974
3 651 649 657
3 467 466 479
3 1288 1289 1835
3 264 265 1986
3 1302 1303 1304
3 592 596 597
3 1873 1321 2037
3 544 543 568
3 275 277 549
3 209 1937 2389
3 539 565 566
3 1485 227 1486
3 2384 2190 2408
3 1781 1779 1783
3 480 479 515
3 689 1416 2413
3 1108 1161 1539
3 1867 1310 1895
3 1300 1301 1302
3 1695 1696 1697
3 633 632 668
3 1304 1451 1452
3 988 911 1837
3 168 169 1724
3 969 1012 1172
3 582 629 1816
3 1843 752 1900
3 629 812 813
3 710 711 712
3 1782 1780 1784
3 536 535 543
3 1089 1746 1969
3 1108 1107 1161
3 1514 1426 1856
3 486 484 1820
3 369 371 1795
3 1817 988 1924
3 493 609 974
3 1422 1191 2023
3 1426 1424 1856
3 842 875 924
3 922 1826 2259
3 989 1361 1886
3 928 1070 1288
3 669 668 790
3 1113 1114 1356
3 1027 847 1843
3 728 695 1098
3 734 735 772
3 975 1107 1108
3 955 859 1962
3 813 911 988
3 1208 1448 1796
3 1101 1405 1980
3 602 676 2045
3 586 581 589
3 546 547 563
3 493 491 609
3 628 1524 2390
3 348 344 354
3 1298 1299 1300
3 509 538 539
3 974 609 975
3 813 891 911
3 871 870 872
3 1355 1354 1423
3 489 486 1820
3 778 779 780
3 1025 1176 1875
3 772 773 873
3 803 1743 2347
3 167 202 1679
3 873 883 959
3 1483 1571 2375
3 427 1756 2221
3 540 1813 1954
3 1202 1200 1203
3 959 1035 1037
3 837 921 1775
3 1304 1305 1451
3 1799 1383 2195
3 604 642 1862
3 1470 1744 2474
3 1854 2397 2453
3 1282 1269 1386
3 1573 1572 2157
3 472 2222 2290
3 1307 1708 2341
3 769 770 827
3 1037 1215 1216
3 791 790 856
3 1053 1052 1822
3 1056 1727 1728
3 1341 1138 1352
3 1300 1299 1301
3 1814 696 1838
3 1198 1196 1409
3 492 491 493
3 439 450 451
3 1171 858 2132
3 1259 1254 1260
3 665 626 666
3 970 872 971
3 258 1602 2357
3 1296 1297 1472
3 490 489 491
3 516 437 2494
3 1298 1027 1299
3 846 845 932
3 501 508 509
3 460 461 502
3 448 449 460
3 482 480 1840
3 1229 1228 1230
3 604 641 642
3 1424 1423 1427
3 502 503 526
3 1028 1000 1029
3 935 933 949
3 1084 1085 1867
3 2028 1711 2353
3 1513 1426 1514
3 892 482 1840
3 852 638 1988
3 402 395 1877
3 738 737 845
3 413 412 418
3 1119 1353 1643
3 526 527 546
3 280 279 281
3 1731 1155 2123
3 1042 971 1127
3 1208 1447 1448
3 433 434 448
3 262 159 2304
3 184 1454 2303
3 1051 1052 1053
3 1816 1817 1818
3 1081 1417 1444
3 781 836 837
3 911 951 952
3 1090 1092 1102
3 202 168 1724
3 1085 1309 1310
3 408 407 412
3 1337 1538 1864
3 1515 1514 1516
3 530 529 890
3 1517 1518 1519
3 549 686 687
3 923 1088 1105
3 404 403 407
3 1835 1289 1836
3 1314 1367 2121
3 1380 1379 2416
3 670 671 769
3 899 808 1874
3 1040 903 1703
3 1596 1595 2154
3 1496 1495 1497
3 636 637 1741
3 1377 1638 2288
3 1288 1070 1289
3 1072 804 1981
3 1129 1334 1845
3 1865 1084 1866
3 792 922 1603
3 1253 1252 1254
3 981 1167 1792
3 1302 1301 1303
3 1641 1651 2019
3 952 953 1084
3 1813 1812 1869
3 732 730 733
3 975 1106 1107
3 1142 949 1770
3 981 1166 1167
3 840 841 842
3 451 466 467
3 1273 990 1274
3 1049 1050 1051
3 1473 2407 2505
3 968 966 1199
3 642 643 670
3 1310 1309 1311
3 422 419 435
3 1063 833 1082
3 919 782 920
3 911 891 951
3 1084 953 1085
3 1763 1764 2164
3 1498 1497 1682
3 515 550 1175
3 1079 937 1913
3 642 702 1862
3 845 737 1931
3 1394 1311 1395
3 1395 1521 1522
3 467 479 480
3 1755 1754 1793
3 1231 1230 1232
3 1557 1553 2030
3 1624 1691 2262
3 584 632 633
3 1094 1091 1969
3 708 709 710
3 1948 1627 2488
3 952 951 953
3 1102 1103 1104
3 1047 1048 1049
3 1310 1311 1394
3 1852 1099 1985
3 143 144 1717
3 813 812 891
3 1944 1044 1945
3 1105 1354 1355
3 1300 1302 1455
3 1914 936 1940
3 1415 1391 1710
3 1299 1027 1843
3 952 1084 1865
3 1695 1274 1696
3 776 774 1928
3 282 281 283
3 2003 1347 2279
3 1206 995 1499
3 1164 1685 1686
3 1551 1565 2030
3 969 1172 1919
3 633 668 669
3 734 733 735
3 1373 1372 1438
3 599 600 636
3 1431 1860 2487
3 1579 1577 1999
3 484 482 892
3 917 940 941
3 2144 1836 2169
3 1866 1084 1867
3 1110 1747 1748
3 998 1171 1811
3 1390 1120 1391
3 644 1824 2057
3 1362 1961 2048
3 944 1283 1825
3 1086 1027 1298
3 679 1780 1782
3 974 975 1879
3 507 506 518
3 1121 1079 1401
3 775 777 778
3 1965 762 2349
3 1045 1046 1047
3 1772 421 2106
3 16 17 2081
3 416 417 433
3 921 850 2125
3 1607 1855 1958
3 649 648 1848
3 1241 1240 1242
3 2012 1443 2251
3 926 928 1920
3 1487 1488 2025
3 1006 1191 1421
3 1355 1423 1424
3 1133 852 1988
3 591 592 1776
3 1299 1843 1857
3 1085 1308 1309
3 490 491 492
3 958 694 1575
3 1384 1216 1385
3 741 915 1878
3 1233 1232 1234
3 669 790 791
3 481 480 482
3 687 703 704
3 492 493 494
3 1634 1633 1922
3 1697 1696 1698
3 1721 985 1722
3 1839 1273 1892
3 772 735 773
3 488 486 489
3 950 1005 1006
3 1513 1514 1515
3 454 500 501
3 873 773 883
3 284 283 285
3 2185 1505 2442
3 959 883 1035
3 543 535 1897
3 1904 1384 2093
3 800 801 802
3 1037 1035 1215
3 1293 1964 1965
3 1239 1238 1240
3 943 1143 2125
3 1782 1784 1785
3 913 756 942
3 488 490 1884
3 1590 1749 2501
3 1235 1234 1236
3 791 856 1408
3 702 2015 2070
3 1108 1539 1540
3 1021 1023 1045
3 695 506 1828
3 1530 1528 1532
3 488 489 490
3 1621 1619 2161
3 704 705 706
3 1304 1303 1305
3 558 1704 2167
3 625 622 626
3 542 553 554
3 604 573 641
3 664 684 685
3 564 571 574
3 1108 1540 1879
3 1856 1427 2361
3 880 1025 1129
3 1395 1311 1521
3 1466 1465 1467
3 915 495 1884
3 1515 1516 1523
3 1237 1236 1238
3 606 648 649
3 999 920 1000
3 676 829 1043
3 2100 794 2142
3 227 151 1500
3 577 579 599
3 153 154 1671
3 1175 550 1927
3 1014 888 1015
3 286 285 287
3 1649 1280 2427
3 1725 204 2137
3 975 609 1106
3 1129 1317 1334
3 1109 1730 2426
3 1468 1467 1469
3 1131 1123 1399
3 1215 2235 2378
3 1976 1149 1989
3 397 395 398
3 746 743 1878
3 1041 1343 1598
3 975 1108 1879
3 741 495 915
3 1167 1754 1755
3 288 287 289
3 743 741 1878
3 1274 990 1931
3 1506 214 1507
3 857 1584 2277
3 2341 1522 2387
3 846 932 933
3 1107 1106 1110
3 584 633 1927
3 290 289 291
3 722 591 1776
3 1544 1094 1969
3 1135 270 1647
3 935 949 950
3 1920 1288 2080
3 754 1896 2108
3 1693 1199 2225
3 292 291 293
3 394 393 395
3 745 743 746
3 1002 942 1123
3 731 737 738
3 294 293 295
3 1018 1573 1925
3 296 295 297
3 298 297 299
3 321 322 325
3 317 320 321
3 314 315 317
3 312 313 314
3 310 311 312
3 308 309 310
3 1898 890 2275
3 306 307 308
3 304 305 306
3 1401 1079 1913
3 300 299 301
3 302 303 304
3 300 301 302
3 302 301 303
3 491 489 1936
3 298 299 300
3 304 303 305
3 306 305 307
3 308 307 309
3 310 309 311
3 312 311 313
3 314 313 315
3 317 315 320
3 321 320 322
3 1301 1299 1857
3 514 541 542
3 296 297 298
3 850 838 851
3 1310 1394 1895
3 294 295 296
3 590 605 606
3 292 293 294
3 651 657 658
3 290 291 292
3 1207 1208 1796
3 835 1976 1989
3 621 619 622
3 746 1878 1896
3 481 482 483
3 1026 847 1027
3 1335 1207 1870
3 1661 59 2266
3 727 729 1155
3 288 289 290
3 1058 776 1928
3 662 663 664
3 495 488 1884
3 1959 319 2522
3 943 851 944
3 1293 1291 1964
3 534 532 535
3 640 645 646
3 2280 1014 2385
3 286 287 288
3 591 575 592
3 521 519 529
3 13 14 2114
3 780 779 781
3 918 908 1850
3 837 836 838
3 209 148 1639
3 754 748 1896
3 745 746 747
3 769 671 770
3 929 1065 2197
3 1278 1058 1279
3 483 482 484
3 1564 1557 2030
3 633 807 1927
3 392 391 393
3 1057 1621 2161
3 569 580 581
3 284 285 286
3 876 992 1894
3 497 494 498
3 1630 1635 2041
3 982 1148 1918
3 612 611 613
3 700 634 1044
3 822 674 2099
3 880 1129 1929
3 432 439 654
3 1039 1291 1292
3 1164 1686 1989
3 1129 1025 1317
3 738 845 846
3 582 583 629
3 278 6 279
3 544 568 569
3 1701 1274 1931
3 747 749 751
3 1085 953 1308
3 928 930 1070
3 747 748 749
3 1421 1422 2415
3 902 903 904
3 1309 1308 1543
3 642 641 643
3 904 981 1792
3 646 784 785
3 536 543 544
3 1204 1205 1207
3 365 694 958
3 71 72 217
3 88 89 1901
3 87 88 193
3 101 102 189
3 85 86 242
3 99 100 241
3 74 75 192
3 91 92 219
3 94 95 191
3 83 84 220
3 97 98 221
3 77 78 218
3 80 81 194
3 89 90 245
3 62 63 244
3 60 61 188
3 64 65 223
3 67 68 190
3 90 91 1909
3 98 99 1905
3 61 62 1908
3 69 70 243
3 68 69 1907
3 70 71 1910
3 410 411 416
3 586 589 590
3 685 684 2029
3 390 389 391
3 1715 1150 1811
3 1924 1837 2215
3 282 283 284
3 496 497 1929
3 233 1671 1769
3 627 2185 2442
3 1567 1552 2062
3 629 630 812
3 424 453 454
3 583 562 1942
3 749 750 805
3 744 743 745
3 1897 535 1898
3 467 480 481
3 504 759 880
3 670 643 671
3 89 245 1901
3 193 88 1901
3 221 98 1905
3 245 90 1909
3 91 219 1909
3 62 244 1908
3 188 61 1908
3 99 241 1905
3 190 68 1907
3 71 217 1910
3 69 243 1907
3 243 70 1910
3 505 499 506
3 475 513 514
3 1945 1044 2071
3 1712 2125 2353
3 339 343 440
3 989 1360 1361
3 764 869 1152
3 778 777 779
3 1686 1685 1687
3 742 741 743
3 979 989 1886
3 729 731 1887
3 926 927 928
3 1305 1306 1307
3 1838 1278 2292
3 747 746 748
3 181 182 1652
3 1886 1361 2305
3 1595 1594 2486
3 597 596 598
3 928 1288 1920
3 1970 824 2156
3 1425 1424 1426
3 497 504 1929
3 748 746 1896
3 745 747 1900
3 998 858 1171
3 563 547 564
3 1155 729 1887
3 634 583 1942
3 1439 1173 1440
3 1026 1027 1086
3 79 80 1904
3 1533 1532 1536
3 1449 1426 1513
3 1106 609 1936
3 1318 1013 1319
3 1098 695 1828
3 492 494 496
3 750 748 754
3 731 738 1887
3 2415 1422 2516
3 533 562 582
3 988 1837 1924
3 1216 1215 1863
3 534 535 536
3 747 751 1900
3 1753 809 2119
3 1183 824 1970
3 740 495 741
3 80 194 1904
3 893 383 2087
3 655 605 1939
3 1884 2034 2082
3 1301 1857 1923
3 1307 1306 1708
3 752 745 1900
3 750 754 755
3 76 77 1903
3 2090 2347 2365
3 255 30 2159
3 132 254 2160
3 448 434 449
3 753 848 926
3 1075 1074 1327
3 487 488 495
3 377 381 647
3 483 484 485
3 755 754 2148
3 1584 1925 2277
3 1186 1183 1970
3 951 891 1281
3 485 484 486
3 546 527 547
3 133 134 1766
3 1786 1785 2409
3 280 281 282
3 460 449 461
3 744 745 752
3 77 218 1903
3 983 1918 2342
3 1708 1306 1810
3 1389 2069 2170
3 487 486 488
3 641 573 1954
3 507 518 519
3 502 461 503
3 519 518 1899
3 1202 1203 1204
3 821 897 1972
3 92 93 1902
3 521 529 530
3 749 748 750
3 2176 1380 2416
3 885 826 886
3 485 486 487
3 371 372 376
3 1289 1070 1871
3 1110 1657 1747
3 753 926 1943
3 700 1044 1944
3 880 881 1025
3 496 1845 2034
3 1072 1981 2393
3 462 464 2134
3 1949 1771 2359
3 1044 634 1942
3 550 584 1927
3 1390 1415 2118
3 526 503 527
3 990 845 1931
3 1009 1213 1214
3 740 742 1144
3 219 92 1902
3 727 1155 1899
3 369 370 371
3 623 690 2150
3 1279 1058 1928
3 1408 2235 2286
3 487 495 740
3 979 1886 2086
3 1305 1303 1306
3 421 412 1951
3 843 844 996
3 633 669 807
3 518 727 1899
3 826 825 1961
3 1657 1106 1936
3 1172 1012 1173
3 740 741 742
3 433 417 434
3 505 506 507
3 1333 1674 2437
3 742 743 744
3 469 458 470
3 1381 1380 1382
3 1293 1965 2515
3 1554 1559 2062
3 553 557 2499
3 1774 389 2339
3 497 498 499
3 483 485 576
3 740 1144 1935
3 773 735 834
3 366 367 369
3 1120 1118 1876
3 1515 1523 1574
3 1319 1013 2039
3 1303 1301 1923
3 457 447 458
3 561 593 594
3 1355 1424 1425
3 609 491 1936
3 204 1732 2137
3 791 1408 1642
3 995 944 1825
3 456 471 475
3 1692 1693 2239
3 580 1763 2164
3 1292 1293 2117
3 441 452 456
3 388 384 389
3 823 821 1972
3 504 880 1929
3 176 177 1680
3 1070 1071 1871
3 15 2260 2477
3 362 363 366
3 2178 2300 2449
3 1035 883 1036
3 2285 1563 2307
3 978 977 1074
3 1090 1102 2029
3 1810 1306 1923
3 496 494 497
3 1306 1303 1923
3 432 654 1915
3 934 933 935
3 356 355 365
3 398 403 404
3 635 701 843
3 1110 1106 1657
3 574 571 575
3 1025 881 1176
3 386 380 786
3 415 432 1915
3 343 347 1911
3 1070 930 1071
3 1688 1740 2231
3 1385 1216 1863
3 1696 1274 1701
3 1645 305 2317
3 880 759 881
3 926 848 927
3 1427 1423 2217
3 1339 1662 2388
3 770 774 775
3 1263 1257 1428
3 1337 1864 2412
3 349 348 355
3 2267 1721 2498
3 753 752 847
3 1375 1086 1473
3 900 982 983
3 332 335 739
3 429 428 430
3 744 752 753
3 1171 2132 2165
3 1425 1426 1449
3 987 641 1954
3 1883 1786 2409
3 427 426 428
3 928 927 930
3 1815 1105 2015
3 1206 1499 1941
3 410 406 411
3 573 540 1954
3 497 499 504
3 528 560 561
3 1933 1404 2399
3 1091 1089 1969
3 1804 1282 2073
3 504 505 759
3 963 924 1113
3 1711 1710 1712
3 881 759 1146
3 968 1199 1200
3 351 352 362
3 848 847 1026
3 521 530 531
3 1884 490 2034
3 1277 957 1966
3 1349 1350 2329
3 676 1043 2045
3 997 1159 1286
3 517 1889 1890
3 781 835 836
3 944 948 1283
3 722 1776 2026
3 507 519 520
3 2040 1352 2058
3 1276 957 1277
3 446 437 447
3 931 860 977
3 361 359 765
3 1248 1536 2534
3 512 523 528
3 408 412 413
3 1368 1369 1370
3 451 2169 2223
3 192 75 1994
3 942 756 2026
3 345 344 348
3 764 1152 1963
3 413 418 419
3 1286 1773 1774
3 770 671 774
3 275 549 2124
3 1497 1645 2461
3 1982 1472 2272
3 422 435 441
3 281 279 736
3 1134 270 1135
3 582 562 583
3 1421 2415 2454
3 485 487 1935
3 2300 1067 2480
3 1578 1576 1827
3 930 927 1061
3 1026 1086 1375
3 922 2259 2379
3 1391 1120 1876
3 1495 1494 2493
3 404 407 408
3 879 2178 2449
3 1700 1698 2036
3 607 1517 1520
3 753 847 848
3 416 411 417
3 1144 742 1943
3 775 776 777
3 754 2108 2148
3 1006 1421 1953
3 585 581 586
3 531 530 532
3 235 1709 1888
3 520 519 521
3 1180 1181 1349
3 1146 759 1967
3 708 710 1921
3 1350 2253 2329
3 436 430 437
3 504 499 505
3 643 641 987
3 336 330 517
3 811 1059 1149
3 1164 1411 1685
3 846 933 934
3 635 843 1960
3 983 982 1918
3 971 872 1096
3 1149 1163 1164
3 169 237 1724
3 1314 1315 1316
3 629 583 630
3 891 812 1916
3 462 463 464
3 487 740 1935
3 798 2084 2189
3 1814 1838 2292
3 1284 1489 1491
3 340 336 2014
3 1670 1461 2200
3 920 782 2057
3 890 2241 2275
3 510 511 512
3 278 279 280
3 839 802 840
3 1858 235 1888
3 1698 1696 2036
3 104 105 222
3 57 58 224
3 1185 1183 1186
3 588 587 623
3 638 600 1988
3 1282 1386 2245
3 811 776 1058
3 816 815 876
3 2034 1845 2082
3 761 636 1741
3 566 565 587
3 174 175 1725
3 347 350 351
3 1469 1495 1496
3 1059 1058 1278
3 811 1149 1976
3 576 485 1935
3 659 658 660
3 859 1153 1962
3 76 1903 1994
3 1821 1109 2426
3 1294 1038 1622
3 733 1833 2075
3 992 993 1980
3 1566 1561 2285
3 525 474 2041
3 464 465 510
3 343 346 347
3 360 893 1982
3 650 649 651
3 896 608 936
3 950 1006 1007
3 1508 1859 1860
3 539 538 565
3 440 343 1911
3 341 340 344
3 221 1905 1906
3 1297 1823 2142
3 759 505 1967
3 1295 1053 1296
3 473 470 474
3 1463 1465 1466
3 1143 1206 2028
3 799 685 800
3 1210 2077 2203
3 509 508 538
3 492 496 2034
3 1553 1551 2030
3 1260 1261 1269
3 1430 1040 1703
3 586 590 1940
3 838 836 868
3 1705 624 2276
3 1749 972 2501
3 742 744 1943
3 804 962 1981
3 1367 1368 2254
3 531 532 533
3 337 336 340
3 1157 1094 1544
3 536 544 1158
3 812 630 1960
3 781 779 835
3 56 57 1947
3 630 583 634
3 1405 1404 1932
3 1281 891 1916
3 339 342 343
3 1411 1163 1730
3 322 323 324
3 344 340 2091
3 1735 1734 1736
3 75 76 1994
3 430 682 2494
3 1907 243 2360
3 589 581 2164
3 694 355 2196
3 744 753 1943
3 775 774 776
3 1210 1430 2077
3 335 338 339
3 1102 1803 2029
3 1078 937 1079
3 870 655 1939
3 505 507 1967
3 357 360 1982
3 1896 1878 2101
3 326 325 328
3 934 935 957
3 585 608 895
3 333 330 336
3 1270 1272 1524
3 688 817 878
3 507 520 1967
3 1428 1257 2074
3 1818 1817 2000
3 896 937 1077
3 934 957 1111
3 329 328 330
3 1499 995 1825
3 944 851 948
3 387 445 462
3 1678 1161 2228
3 777 776 811
3 313 311 757
3 324 331 332
3 848 1026 1955
3 1312 998 1811
3 1321 1322 2037
3 1080 1079 1121
3 1105 1355 2015
3 1645 2317 2461
3 1559 1568 2062
3 332 334 335
3 501 500 508
3 321 325 326
3 394 395 397
3 322 320 323
3 1529 1530 2171
3 1137 797 1138
3 811 1058 1059
3 661 660 662
3 569 581 585
3 183 4 2303
3 5 160 2304
3 1340 1138 1341
3 1660 1626 2185
3 1743 1464 2347
3 1026 1375 1955
3 1149 1059 1163
3 1736 1625 2194
3 1322 1667 2434
3 311 309 1959
3 309 307 319
3 894 700 1944
3 533 534 562
3 1276 1277 1366
3 2190 1706 2408
3 533 532 534
3 1214 1213 1410
3 1164 1163 1411
3 843 701 844
3 1009 1214 2055
3 234 1589 1788
3 2000 1817 2174
3 317 321 2050
3 328 325 945
3 392 393 394
3 588 623 2089
3 1162 958 1681
3 1078 1080 1136
3 927 848 1955
3 1496 1497 1498
3 390 391 392
3 1061 927 1955
3 1283 948 1284
3 635 634 700
3 1244 1251 1252
3 218 78 2093
3 756 722 2026
3 1071 1784 2419
3 1218 1505 2185
3 1284 948 1285
3 1489 1285 1490
3 918 1850 1851
3 684 1090 2029
3 1759 572 2537
3 1691 1690 2446
3 1979 1158 2071
3 606 649 650
3 2045 1043 2046
3 103 104 2025
3 630 634 635
3 360 383 893
3 406 386 2043
3 1909 219 2023
3 1111 957 1276
3 1925 1437 2277
3 1536 2268 2340
3 854 852 1133
3 233 153 1671
3 651 658 659
3 2099 1787 2368
3 1033 1032 1130
3 1015 1372 1373
3 1412 942 2026
3 253 264 1441
3 1531 1534 2332
3 701 700 894
3 106 107 1990
3 2048 1961 2455
3 276 274 2099
3 738 846 1968
3 1325 925 1326
3 896 936 937
3 585 586 608
3 1450 854 1973
3 1361 1360 1362
3 1045 1668 2512
3 303 301 444
3 996 844 997
3 79 1904 2093
3 1989 1686 2095
3 1928 774 2033
3 1942 562 1979
3 287 285 316
3 935 950 1966
3 1466 1467 1468
3 1242 1243 1244
3 1887 738 1968
3 2115 210 2477
3 878 929 1083
3 1326 1736 2194
3 886 888 1014
3 895 608 896
3 289 287 1978
3 821 822 897
3 936 608 1940
3 613 614 615
3 51 52 1996
3 417 411 1160
3 1149 1164 1989
3 386 786 2043
3 285 283 1971
3 1309 1543 2147
3 375 373 2053
3 371 370 372
3 779 777 1976
3 1286 1159 1773
3 2177 887 2376
3 1560 1557 1564
3 1403 1882 2399
3 1727 1757 2246
3 279 6 2049
3 1619 1438 2438
3 291 289 758
3 1781 1915 2294
3 425 401 426
3 349 355 356
3 66 67 2118
3 474 548 2041
3 1686 1687 2007
3 1262 1456 1457
3 1123 942 1412
3 1916 812 1960
3 1355 1425 2015
3 735 733 2075
3 1861 879 2449
3 1284 1285 1489
3 490 492 2034
3 366 363 367
3 980 578 2051
3 906 904 1792
3 534 536 1979
3 842 924 963
3 2051 578 2083
3 1077 937 1078
3 1102 1104 1803
3 894 1944 1946
3 398 404 2060
3 1007 1006 1953
3 369 367 370
3 348 354 2196
3 1078 1079 1080
3 1378 1380 1381
3 1568 1365 2439
3 608 586 1940
3 598 610 611
3 760 636 761
3 869 1137 1351
3 671 643 2033
3 1661 1345 2267
3 938 914 1057
3 783 761 914
3 576 1835 2144
3 388 389 390
3 297 295 318
3 454 453 500
3 1906 1728 2246
3 1439 1440 2468
3 1159 1013 1318
3 764 797 869
3 236 143 1717
3 782 644 2057
3 592 595 596
3 1542 2332 2443
3 1521 1311 2147
3 345 348 349
3 1304 1452 2205
3 1644 1907 2360
3 2146 1125 2149
3 997 844 1013
3 628 375 2053
3 299 297 1984
3 957 935 1966
3 664 685 799
3 301 299 1975
3 362 352 363
3 777 811 1976
3 1942 1979 2071
3 1001 920 2057
3 312 314 768
3 1552 1554 2062
3 615 616 617
3 357 1982 2076
3 800 802 839
3 774 671 2033
3 1749 1169 2105
3 365 958 1162
3 617 618 619
3 283 281 1938
3 1351 1772 2414
3 1525 1765 2489
3 846 934 1968
3 635 700 701
3 555 554 577
3 536 1158 1979
3 1101 1404 1405
3 630 635 1960
3 1811 1150 2089
3 2113 1666 2249
3 172 173 1847
3 107 108 195
3 54 55 196
3 1191 1768 2023
3 1455 1302 2205
3 115 116 2017
3 1387 1333 2437
3 659 661 764
3 1080 1121 1188
3 50 51 2011
3 411 406 2043
3 295 293 1983
3 643 987 2033
3 707 706 708
3 129 130 261
3 32 33 260
3 2159 260 2265
3 449 434 567
3 1314 1029 1315
3 917 796 940
3 378 375 628
3 108 109 1991
3 2370 1759 2537
3 341 344 345
3 997 1013 1159
3 544 569 1993
3 950 1007 1966
3 477 474 525
3 351 350 352
3 1696 1701 2036
3 334 331 803
3 1137 1138 1340
3 562 534 1979
3 109 110 246
3 52 53 247
3 1368 1316 1369
3 659 660 661
3 33 34 2002
3 123 124 2005
3 835 779 1976
3 851 838 1992
3 1530 1533 2172
3 1668 1045 2348
3 1162 1681 1706
3 342 338 468
3 298 300 358
3 765 359 2065
3 725 826 885
3 35 36 2003
3 46 47 2019
3 38 39 2006
3 336 517 2014
3 934 1111 1968
3 116 117 2018
3 650 651 1963
3 223 1711 2162
3 640 594 645
3 1333 1330 2192
3 104 222 2025
3 1603 922 2379
3 963 1113 1115
3 2084 1193 2189
3 564 570 571
3 36 37 2004
3 57 224 1947
3 1542 1601 2269
3 122 123 2012
3 1000 920 1001
3 127 128 240
3 34 35 239
3 383 387 2087
3 1161 1107 2228
3 1781 2294 2419
3 1201 1200 1202
3 124 125 225
3 37 38 226
3 1340 1341 1342
3 869 797 1137
3 839 840 1008
3 1158 544 1993
3 1326 925 1894
3 352 350 353
3 326 329 954
3 1864 2344 2412
3 836 835 2095
3 1051 1053 1295
3 1031 720 1032
3 503 461 787
3 1407 1112 2044
3 661 662 2058
3 838 868 1992
3 112 113 197
3 49 50 198
3 1359 980 1413
3 121 122 211
3 40 41 212
3 48 49 2010
3 113 114 2009
3 1741 673 2131
3 41 42 2020
3 120 121 2013
3 1409 2035 2097
3 1511 1374 2506
3 114 115 248
3 47 48 249
3 42 43 250
3 119 120 251
3 171 6 201
3 6 172 203
3 585 895 1993
3 43 44 2024
3 118 119 2021
3 905 904 906
3 764 661 797
3 337 340 341
3 1413 980 2051
3 117 118 205
3 44 45 206
3 347 346 350
3 1420 1076 1525
3 324 323 331
3 434 417 2031
3 965 967 969
3 716 719 788
3 1260 1254 1261
3 2053 373 2103
3 2069 2068 2170
3 326 328 329
3 1706 996 2408
3 273 275 2124
3 969 1011 1012
3 590 606 2001
3 1718 1611 2280
3 1914 1940 2001
3 915 1884 2082
3 329 330 333
3 620 859 955
3 2168 1409 2305
3 296 298 1997
3 915 2082 2101
3 339 338 342
3 1218 994 1505
3 333 336 337
3 266 263 1742
3 1873 768 2127
3 244 63 2162
3 64 223 2162
3 343 342 346
3 914 761 2258
3 310 312 1987
3 799 800 2055
3 302 304 763
3 1559 1566 1568
3 1598 1343 2114
3 592 575 595
3 341 345 794
3 189 1842 2220
3 767 815 816
3 1003 912 1004
3 839 1008 1009
3 1263 1428 1429
3 564 547 570
3 1845 1334 2082
3 332 331 334
3 901 866 902
3 651 659 1963
3 1009 1112 1213
3 335 334 338
3 569 585 1993
3 1665 1336 2299
3 1945 2071 2153
3 863 862 864
3 907 906 908
3 1849 1486 1930
3 1935 1144 2080
3 967 966 968
3 809 900 2119
3 865 864 866
3 835 1989 2095
3 190 1907 2417
3 333 337 522
3 1110 1748 2228
3 1193 1194 1195
3 94 191 2166
3 473 1854 2453
3 1769 1134 2369
3 948 851 1992
3 237 170 2216
3 420 419 422
3 1448 1447 2364
3 483 576 2144
3 721 1919 2032
3 885 886 1891
3 613 611 614
3 886 1014 1891
3 1160 411 2043
3 1918 1283 2342
3 1651 206 2485
3 1242 1240 1243
3 598 596 610
3 1295 1296 1459
3 1185 1186 1948
3 1425 1449 2070
3 294 296 762
3 1285 948 1992
3 925 876 1894
3 712 714 789
3 603 1668 2398
3 1940 590 2001
3 721 570 964
3 834 735 2075
3 1144 1920 2080
3 2263 1635 2511
3 1204 1207 1335
3 2235 1408 2378
3 965 964 966
3 1990 1435 2218
3 397 398 2060
3 1138 797 2058
3 1787 1141 2368
3 2068 820 2170
3 360 359 361
3 387 462 2087
3 1524 1272 1934
3 819 698 820
3 1197 1196 1198
3 1662 2126 2388
3 78 79 2093
3 1150 588 2089
3 1269 1261 1270
3 1878 915 2101
3 451 467 2169
3 2262 1387 2437
3 1009 1008 1112
3 757 311 1959
3 897 898 1139
3 1854 473 2483
3 2015 1425 2070
3 2082 1334 2101
3 963 1115 1174
3 1047 1049 1287
3 1194 423 1196
3 321 326 2050
3 417 1160 2031
3 854 1133 1973
3 1201 1212 1348
3 705 1586 2163
3 309 319 1959
3 1353 1390 2417
3 427 428 429
3 357 356 359
3 606 650 2001
3 549 1280 2124
3 1213 1112 1407
3 256 2303 2535
3 356 365 2065
3 662 664 2040
3 701 894 2039
3 1325 1371 2451
3 666 626 667
3 1902 93 2166
3 1236 1234 1246
3 800 839 2055
3 1869 1812 2252
3 1197 1364 1365
3 576 1935 2080
3 404 408 798
3 1678 807 2529
3 1560 1564 2016
3 1319 2039 2122
3 425 426 427
3 349 356 357
3 308 310 327
3 1716 622 2484
3 1801 82 2289
3 1768 1949 2420
3 2006 1926 2507
3 351 364 2407
3 420 423 1193
3 659 764 1963
3 292 294 2038
3 840 842 2027
3 736 279 2049
3 372 373 374
3 461 449 2052
3 2189 1195 2285
3 1174 1115 1398
3 367 363 961
3 909 908 918
3 1738 247 2402
3 1007 1761 2308
3 288 290 2135
3 422 441 2035
3 623 624 690
3 537 525 545
3 1953 1421 2454
3 1887 1968 2123
3 861 691 862
3 654 439 2223
3 1136 1080 2054
3 1312 1811 2089
3 575 571 2032
3 383 361 384
3 968 1200 1201
3 797 661 2058
3 1423 1354 2381
3 1180 1178 1181
3 1513 1515 2180
3 72 73 2217
3 462 445 463
3 12 13 2136
3 457 458 469
3 542 554 555
3 599 636 760
3 254 133 1766
3 1130 1397 1937
3 404 798 2060
3 1044 1942 2071
3 690 691 860
3 357 359 360
3 1008 2027 2152
3 1232 1230 1255
3 372 370 373
3 850 943 2125
3 1457 1456 1492
3 1952 324 2282
3 155 2 2356
3 0 7 2357
3 2017 1379 2288
3 918 1851 2008
3 195 1991 2517
3 2090 803 2347
3 1244 1243 1251
3 290 292 368
3 1432 1082 2214
3 1008 840 2027
3 1743 803 2296
3 1013 844 2039
3 365 1162 2065
3 1594 1315 2184
3 387 384 388
3 1508 1860 2311
3 547 527 2056
3 2005 225 2322
3 314 317 2127
3 1853 556 2327
3 201 6 278
3 1907 1644 2417
3 1896 2101 2108
3 646 645 784
3 538 508 558
3 374 375 377
3 1630 1634 1635
3 1579 1999 2352
3 1647 1648 1849
3 1313 1314 2121
3 1179 1433 2042
3 844 701 2039
3 1252 1251 2098
3 816 876 925
3 1922 1228 2281
3 392 394 396
3 1915 654 2294
3 1652 1653 2487
3 429 430 436
3 456 475 476
3 1605 1392 2510
3 126 1882 2284
3 1784 1780 2419
3 500 453 960
3 377 378 381
3 2178 1587 2300
3 1222 1219 1626
3 413 419 420
3 381 382 400
3 2169 1836 2223
3 1906 1905 2129
3 616 614 793
3 1170 1419 2139
3 101 189 2220
3 241 100 2220
3 1968 1111 2123
3 567 434 2031
3 615 614 616
3 1032 720 1921
3 682 428 2138
3 469 470 473
3 339 440 2261
3 1501 238 2226
3 1154 1431 1653
3 446 447 457
3 1251 1243 1257
3 2229 315 2495
3 1201 1202 1212
3 785 784 879
3 464 463 465
3 66 2118 2395
3 324 332 2282
3 286 288 771
3 17 199 2081
3 571 570 721
3 611 610 2092
3 617 616 618
3 1542 1531 2332
3 400 401 424
3 1325 1326 1371
3 1140 1406 1702
3 1323 443 2302
3 1926 1573 2507
3 436 437 446
3 1262 1457 2098
3 67 190 2118
3 1518 1861 2449
3 989 1359 1360
3 1063 1082 1154
3 1757 96 2526
3 969 967 1011
3 868 836 2095
3 1215 1035 2235
3 96 1757 2309
3 261 2160 2380
3 1381 1382 2126
3 1468 1469 2182
3 1334 1317 2108
3 861 863 1064
3 1270 1261 1271
3 360 361 383
3 287 316 1978
3 1856 192 2367
3 1905 241 2129
3 1615 1809 2425
3 528 523 560
3 979 980 989
3 662 2040 2058
3 721 964 965
3 170 171 2216
3 664 799 2040
3 512 511 523
3 1201 1348 2107
3 620 618 858
3 758 289 1978
3 859 858 998
3 424 425 453
3 1616 1615 2193
3 444 301 1975
3 561 560 593
3 965 966 967
3 1798 376 2430
3 340 2014 2091
3 510 465 511
3 107 195 1990
3 1080 1188 2054
3 1153 998 1312
3 1226 1224 1249
3 1012 1011 1363
3 902 904 905
3 842 963 2027
3 268 270 1134
3 865 901 1125
3 2077 558 2102
3 282 284 442
3 1977 1679 2253
3 1496 1498 2047
3 284 286 2063
3 281 736 1938
3 2132 793 2165
3 1674 215 2437
3 2078 1855 2411
3 839 1009 2055
3 1182 824 1183
3 1168 947 1169
3 1289 1871 2242
3 316 285 1971
3 1270 1271 1272
3 1755 1793 2264
3 51 1996 2011
3 383 384 387
3 1146 1924 2215
3 1279 1928 2202
3 619 618 620
3 1194 1196 1197
3 555 578 979
3 1937 1639 2528
3 1262 1257 1263
3 389 384 2339
3 2251 1338 2464
3 1155 1887 2123
3 1151 1937 2528
3 465 463 828
3 1318 1319 2116
3 1687 1688 2231
3 326 954 2050
3 297 318 1984
3 1308 953 2255
3 1846 2056 2198
3 320 315 2229
3 1254 1252 2059
3 760 761 783
3 951 1281 2255
3 1459 1296 2094
3 2288 1638 2470
3 1975 299 1984
3 52 247 1996
3 468 338 2090
3 2140 1511 2506
3 1125 1126 1192
3 593 824 1182
3 720 708 1921
3 704 706 707
3 623 587 624
3 2044 1112 2152
3 1393 1169 1749
3 900 983 2119
3 783 914 938
3 255 2265 2489
3 2039 894 2122
3 317 2050 2127
3 1866 1867 2513
3 374 373 375
3 429 436 455
3 387 388 445
3 1193 423 1194
3 555 577 578
3 1074 977 1187
3 449 567 2052
3 1197 1198 1364
3 2154 1595 2486
3 1486 1849 2173
3 318 295 1983
3 939 1016 1844
3 131 132 2160
3 30 31 2159
3 881 1146 2215
3 1294 1868 2238
3 1300 1455 2314
3 1365 1364 1912
3 783 938 939
3 2061 1735 2441
3 551 545 601
3 2194 216 2536
3 1251 1257 1262
3 888 887 2177
3 1364 1198 2048
3 1498 1682 2340
3 1589 1590 2501
3 60 188 2266
3 1401 1913 2324
3 195 108 1991
3 420 422 423
3 1675 1470 2474
3 258 1673 2183
3 2161 1619 2438
3 1296 1472 2094
3 1808 1910 2381
3 334 803 2090
3 1490 1285 2232
3 523 511 524
3 1240 1238 2074
3 1184 1183 1185
3 39 40 2151
3 473 474 477
3 1461 1463 2200
3 2072 353 2073
3 861 862 863
3 1206 1941 2401
3 958 1575 2287
3 614 611 2092
3 110 111 2140
3 1136 2054 2110
3 645 594 2133
3 260 33 2002
3 673 767 2131
3 989 980 1359
3 1741 2131 2258
3 1317 1875 2148
3 894 1946 2122
3 863 864 865
3 787 461 2052
3 857 2277 2386
3 109 246 1991
3 2017 116 2018
3 1182 1183 1184
3 377 375 378
3 816 925 1324
3 865 866 901
3 1262 1263 1456
3 359 356 2065
3 2129 241 2472
3 283 1938 1971
3 1458 1210 2203
3 1076 1003 2145
3 196 1738 2402
3 1033 1130 1151
3 1188 1121 2106
3 1140 1702 2096
3 549 687 1280
3 1694 1621 2191
3 861 1064 2112
3 1548 1549 2129
3 1784 1071 2462
3 714 716 2066
3 1961 825 2455
3 1447 1211 2250
3 979 578 980
3 905 907 1209
3 381 378 382
3 457 469 552
3 595 575 2032
3 408 413 2084
3 481 483 2144
3 1745 1349 2293
3 1980 1405 2441
3 198 50 2011
3 248 115 2017
3 912 819 2068
3 620 858 859
3 707 708 720
3 821 674 822
3 514 542 2086
3 400 382 401
3 123 2005 2012
3 1772 1351 2374
3 34 239 2002
3 768 314 2127
3 2003 36 2004
3 280 282 2079
3 124 225 2005
3 596 595 2130
3 593 560 824
3 1504 1502 2519
3 239 35 2003
3 1311 1309 2147
3 1318 1877 2240
3 1860 1432 2311
3 1416 1715 2330
3 859 998 1153
3 352 353 2072
3 312 768 1987
3 2027 1174 2152
3 226 38 2006
3 1827 1024 2117
3 1710 1391 2295
3 690 624 691
3 37 226 2004
3 1153 1312 1885
3 853 855 2186
3 1892 242 2373
3 1967 520 2174
3 939 938 1016
3 47 249 2019
3 388 390 2078
3 1991 2139 2517
3 905 906 907
3 571 721 2032
3 1196 423 2035
3 1324 925 1325
3 1151 1130 1937
3 363 352 2072
3 345 349 2076
3 1031 1032 1033
3 214 179 1859
3 211 122 2012
3 602 601 652
3 117 205 2018
3 710 712 2067
3 1602 187 2357
3 520 2000 2174
3 85 242 2335
3 220 84 2335
3 381 400 2113
3 1586 1587 2435
3 424 401 425
3 963 1174 2027
3 860 691 861
3 610 596 2130
3 1958 2078 2431
3 570 547 2056
3 237 2216 2354
3 1211 1692 2219
3 298 358 1997
3 909 947 1041
3 441 456 2097
3 1135 1647 1849
3 1601 1542 2443
3 197 113 2009
3 49 198 2010
3 1911 347 2407
3 1729 191 2309
3 212 41 2020
3 121 211 2013
3 222 105 2218
3 1125 901 1126
3 114 248 2009
3 249 48 2010
3 42 250 2020
3 251 120 2013
3 233 1769 2369
3 1870 647 2113
3 794 345 2076
3 250 43 2024
3 119 251 2021
3 901 902 2141
3 964 570 2056
3 739 335 2261
3 2108 1317 2148
3 577 599 2083
3 205 118 2021
3 44 206 2024
3 1247 1241 2323
3 1894 992 2244
3 6 203 2049
3 1642 1678 2529
3 1417 1873 2333
3 1422 2023 2516
3 341 794 2100
3 73 74 2361
3 1234 1232 2088
3 1261 1254 2059
3 896 1077 2257
3 1921 710 2067
3 125 126 2284
3 220 1699 2289
3 159 5 2304
3 4 184 2303
3 2059 1252 2098
3 1003 1004 2145
3 2328 1325 2451
3 1486 227 1500
3 63 64 2162
3 2081 1192 2260
3 508 500 2102
3 667 1872 2318
3 338 334 2090
3 423 422 2035
3 1192 1126 1471
3 907 908 909
3 1330 1328 2192
3 1972 897 2500
3 2443 316 2514
3 242 86 2373
3 87 193 2373
3 420 1193 2084
3 1473 1086 2358
3 1987 768 2037
3 522 337 2100
3 627 1660 2185
3 1793 446 2264
3 1405 2061 2441
3 1502 1217 2302
3 171 201 2216
3 1158 1993 2153
3 1197 1365 2120
3 1712 1710 2295
3 1121 1401 2414
3 93 94 2166
3 653 652 688
3 622 1716 2452
3 1345 1720 2267
3 477 537 556
3 128 129 2181
3 2331 1295 2458
3 784 645 874
3 1269 1270 2199
3 189 102 2355
3 1041 1168 1343
3 246 110 2140
3 477 525 537
3 755 1895 2371
3 1947 1723 2313
3 1134 1135 2369
3 223 65 2395
3 968 1201 2107
3 1577 1578 2325
3 210 15 2477
3 961 363 2072
3 1581 1579 2352
3 349 357 2076
3 337 341 2100
3 305 303 2317
3 370 367 2103
3 762 296 1997
3 581 580 2164
3 1278 1838 2372
3 1548 2129 2472
3 594 593 2133
3 2021 251 2022
3 2047 1247 2182
3 967 968 2107
3 1169 947 2008
3 481 2144 2169
3 793 614 2092
3 1910 217 2381
3 1251 1262 2098
3 716 788 2066
3 2101 1334 2108
3 2006 39 2151
3 1603 2379 2508
3 1926 2006 2151
3 96 97 2526
3 750 755 2371
3 789 714 2066
3 909 918 947
3 1993 895 2153
3 106 1990 2218
3 1243 1240 2074
3 832 986 1189
3 1283 1284 2342
3 2297 195 2517
3 1043 829 2326
3 767 816 2131
3 602 653 676
3 1004 912 2068
3 2086 1886 2224
3 1124 2177 2467
3 426 401 2531
3 707 720 1030
3 1000 1001 2184
3 1315 1029 2184
3 467 481 2169
3 541 513 2256
3 647 381 2113
3 225 2284 2510
3 2 156 2356
3 187 0 2357
3 40 212 2151
3 2245 1386 2383
3 676 677 829
3 1004 2068 2069
3 1860 232 2487
3 1031 1033 1034
3 829 830 972
3 996 997 2408
3 1195 1194 2120
3 987 1869 2202
3 1410 1213 2222
3 819 820 2068
3 1485 1486 2173
3 1564 2030 2155
3 807 669 2529
3 129 261 2181
3 1525 1076 2145
3 578 577 2083
3 327 310 1987
3 1083 929 2197
3 2131 1324 2258
3 798 408 2084
3 1838 696 2426
3 1486 1500 1930
3 1946 1944 2291
3 2257 1077 2291
3 1512 1661 2266
3 445 388 2078
3 1192 1471 2260
3 2118 1415 2395
3 1466 1468 2158
3 830 677 831
3 211 2012 2251
3 652 601 2442
3 537 545 551
3 558 508 2102
3 198 2011 2128
3 1718 2280 2385
3 500 960 2102
3 1168 1169 1393
3 1127 971 2496
3 95 96 2309
3 2030 1565 2155
3 1919 1172 2273
3 977 860 2112
3 240 128 2181
3 294 762 2038
3 1800 1799 2195
3 712 789 2067
3 972 1749 2326
3 472 1683 2212
3 874 645 2133
3 551 2045 2201
3 2105 1043 2326
3 1957 1212 2301
3 1514 1856 2367
3 565 538 2167
3 373 370 2103
3 355 348 2196
3 1934 1272 2138
3 1934 426 2531
3 1881 1400 2481
3 2046 1851 2327
3 367 961 2103
3 1963 1152 2206
3 201 278 443
3 3 131 2444
3 31 1 2445
3 2035 441 2097
3 503 787 2198
3 1135 1849 1930
3 1534 1983 2306
3 2089 623 2150
3 687 704 2109
3 869 1351 2363
3 1302 1304 2205
3 955 1716 2484
3 1030 720 1031
3 1159 1318 2240
3 1228 1226 2281
3 947 918 2008
3 413 420 2084
3 785 879 2532
3 1041 947 1168
3 1468 2182 2323
3 1246 1234 2088
3 1730 1163 2372
3 542 555 2086
3 1599 631 2312
3 1146 1967 2174
3 1078 1136 2343
3 1515 1574 2180
3 2336 885 2469
3 1257 1243 2074
3 1347 1346 2279
3 2001 650 2206
3 1480 1601 2514
3 1029 1000 2184
3 1956 788 2336
3 1271 1261 2059
3 130 3 2444
3 1 32 2445
3 1570 1507 2197
3 1232 1255 2088
3 791 1642 2529
3 1601 1479 2269
3 1361 1362 2168
3 1634 1922 2281
3 765 2065 2190
3 2071 1158 2153
3 1699 1801 2289
3 832 831 833
3 1864 346 2344
3 456 476 2097
3 1855 828 2411
3 2065 1162 2190
3 1125 1192 2149
3 599 760 2083
3 361 765 2339
3 1731 2123 2241
3 1349 1181 1350
3 1443 1275 2251
3 1819 524 2429
3 1021 1045 2512
3 858 618 2132
3 1999 358 2338
3 368 292 2038
3 290 368 2135
3 803 331 2296
3 1112 1008 2152
3 56 1947 2313
3 555 979 2086
3 1469 1496 2182
3 1011 967 2107
3 248 2017 2288
3 1809 789 2425
3 960 453 2221
3 538 558 2167
3 1858 1187 2248
3 2246 1757 2526
3 902 905 2141
3 1851 1853 2327
3 1224 1222 2111
3 771 288 2135
3 1945 2153 2257
3 1420 1525 2489
3 1399 1123 2393
3 103 2025 2355
3 897 822 898
3 1861 940 2532
3 865 1125 2146
3 1675 2474 2522
3 1573 2157 2507
3 1632 1631 2382
3 551 601 602
3 527 503 2198
3 1708 805 2337
3 1059 1278 2372
3 2056 527 2198
3 860 861 2112
3 1668 2348 2398
3 255 2159 2265
3 1541 1542 2269
3 1428 2074 2227
3 1582 1583 2321
3 389 1774 2503
3 2004 226 2157
3 1777 397 2405
3 1368 1436 2254
3 1061 2409 2462
3 1071 930 2462
3 1126 901 2141
3 1194 1197 2120
3 1452 1952 2282
3 2116 1319 2482
3 105 106 2218
3 1981 1399 2393
3 2119 983 2143
3 444 1682 2461
3 2173 1648 2463
3 616 793 2132
3 1791 1190 2334
3 1826 1728 2259
3 602 652 653
3 1834 1292 2428
3 556 2201 2327
3 1014 1015 2385
3 1995 1287 2331
3 1193 1195 2189
3 816 1324 2131
3 879 1861 2532
3 593 1182 2133
3 1402 266 1742
3 2216 1323 2354
3 1660 1636 2502
3 620 955 2484
3 1162 1706 2190
3 1870 2113 2249
3 204 1680 1732
3 1909 2023 2420
3 217 72 2217
3 376 372 2430
3 905 1209 2141
3 1378 1381 2283
3 1236 1246 2227
3 286 771 2063
3 1635 2263 2502
3 100 101 2220
3 1139 898 1140
3 2114 1343 2136
3 442 284 2063
3 1772 2106 2414
3 1985 1755 2533
3 2192 1328 2315
3 1064 863 2146
3 1631 1637 2459
3 736 2049 2523
3 221 1906 2246
3 318 1983 2171
3 1496 2047 2182
3 1374 2139 2506
3 196 55 2313
3 2087 462 2134
3 676 653 677
3 2304 257 2491
3 1401 2324 2363
3 829 677 830
3 654 2223 2242
3 1187 977 2112
3 1463 1466 2200
3 2023 219 2516
3 1176 881 2215
3 513 471 2290
3 1812 459 2252
3 1386 1269 2199
3 291 758 2306
3 618 616 2132
3 278 280 2210
3 83 220 2289
3 82 83 2289
3 938 1057 2161
3 1189 986 1190
3 788 719 2336
3 1914 2001 2206
3 232 181 1652
3 1567 2062 2490
3 313 757 2495
3 622 619 2484
3 688 878 1320
3 1222 1626 2111
3 282 442 2079
3 1169 2008 2105
3 1966 1007 2308
3 2040 799 2237
3 1744 2229 2495
3 986 833 1063
3 2284 1605 2510
3 887 1961 2376
3 215 1624 2262
3 830 831 832
3 476 475 2224
3 439 451 2223
3 1932 1933 2380
3 2227 1246 2366
3 1212 1202 2301
3 1107 1110 2228
3 249 2010 2299
3 1983 293 2306
3 2055 1214 2237
3 1438 1372 2478
3 824 560 2156
3 2320 1866 2513
3 1351 1137 2374
3 868 2007 2232
3 2063 771 2064
3 1507 214 1508
3 1728 1727 2246
3 1045 1047 2348
3 1139 1140 2096
3 1648 1649 2463
3 1502 2302 2519
3 704 707 2109
3 2343 1136 2396
3 650 1963 2206
3 2153 895 2257
3 396 1958 2431
3 1379 1377 2288
3 2115 1471 2319
3 2033 987 2202
3 2239 1693 2518
3 2025 1488 2355
3 1209 2115 2319
3 523 524 2156
3 783 939 2243
3 376 1798 2497
3 2066 788 2193
3 1984 318 2172
3 425 427 2221
3 203 172 1847
3 446 457 2264
3 1312 2089 2150
3 2138 1272 2211
3 897 1139 2274
3 828 1819 2429
3 1249 1224 2111
3 666 667 2318
3 1371 1326 2194
3 2433 1499 2475
3 1272 1271 2211
3 1367 2254 2479
3 1386 2053 2383
3 2074 1238 2227
3 755 2148 2320
3 2117 1604 2428
3 475 514 2224
3 228 2187 2457
3 1868 1504 2520
3 1626 1218 2185
3 2123 1111 2241
3 1287 1049 2331
3 1280 687 2109
3 459 1814 2292
3 54 196 2402
3 863 865 2146
3 204 176 1680
3 514 2086 2224
3 1646 603 2398
3 112 197 2346
3 358 300 2338
3 1140 898 1141
3 1204 1335 2301
3 1016 2161 2438
3 909 1041 2175
3 1681 2448 2492
3 2252 459 2292
3 1992 868 2232
3 1035 1036 2235
3 1051 1295 2331
3 1836 1289 2242
3 1508 214 1859
3 247 53 2402
3 1016 938 2161
3 1408 856 2378
3 1466 2158 2200
3 725 885 2336
3 855 1450 2421
3 2023 1768 2420
3 1238 1236 2227
3 1679 202 2253
3 2107 1348 2233
3 1653 1431 2487
3 1946 2291 2343
3 2253 202 2329
3 1885 1312 2150
3 378 628 2390
3 2195 1383 2432
3 1520 1519 2480
3 1532 1733 2534
3 308 327 2278
3 953 951 2255
3 1213 1407 2222
3 1561 1563 2285
3 302 763 2338
3 1928 2033 2202
3 763 304 2345
3 832 833 986
3 1352 2040 2237
3 247 1881 2481
3 560 523 2156
3 335 339 2261
3 346 342 2344
3 201 443 1323
3 2301 1335 2466
3 323 320 2229
3 1136 2110 2396
3 1139 1977 2274
3 1809 1615 2423
3 1707 1791 2334
3 46 2019 2485
3 2064 1294 2238
3 1950 197 2404
3 2021 2022 2176
3 1949 245 2420
3 2044 2152 2207
3 1063 1154 1707
3 1012 1363 2406
3 280 2079 2210
3 2237 1214 2351
3 820 698 2318
3 1140 1141 1406
3 205 2021 2176
3 2043 786 2310
3 2145 1004 2446
3 707 1030 2109
3 1406 2460 2473
3 2137 1268 2226
3 16 2081 2260
3 567 2031 2219
3 2112 1064 2248
3 206 45 2485
3 2347 1462 2365
3 1650 1962 2362
3 453 425 2221
3 1209 907 2175
3 1111 1276 2241
3 2448 1145 2492
3 2051 2083 2243
3 59 60 2266
3 1402 1742 2530
3 831 677 2209
3 624 587 2276
3 238 174 1725
3 1011 2107 2233
3 468 2365 2412
3 2337 805 2371
3 254 1932 2380
3 1174 1398 2207
3 2140 111 2346
3 1381 2186 2283
3 1987 2037 2188
3 1740 559 2456
3 1773 391 2503
3 1335 1870 2249
3 1945 2257 2291
3 828 463 2411
3 1246 2088 2208
3 2060 798 2307
3 1773 1159 2240
3 1187 2112 2248
3 1352 2237 2351
3 2037 1322 2188
3 1941 1499 2433
3 2322 225 2510
3 1031 1034 2236
3 327 2188 2321
3 595 2032 2273
3 1464 1462 2347
3 1285 1992 2232
3 799 2055 2237
3 443 278 2210
3 784 874 2178
3 392 396 2431
3 191 95 2309
3 879 784 2178
3 524 511 2429
3 2128 2011 2270
3 895 896 2257
3 2206 1152 2324
3 318 2171 2172
3 2259 1549 2379
3 1214 1410 2351
3 306 308 2278
3 2022 251 2247
3 1757 1729 2309
3 1283 1918 2524
3 996 1706 2492
3 557 2044 2207
3 1798 1448 2364
3 1447 2250 2310
3 559 1750 2403
3 1363 1011 2233
3 1343 1168 2187
3 1407 2044 2256
3 1462 1460 2365
3 1995 2331 2458
3 327 1987 2188
3 2160 254 2380
3 1681 958 2287
3 2031 1160 2250
3 1600 689 2413
3 2219 1692 2239
3 1494 1675 2522
3 1281 1916 2448
3 907 909 2175
3 565 2167 2276
3 2241 1276 2275
3 1978 316 2443
3 2151 212 2350
3 203 1847 2104
3 2049 1481 2523
3 1961 1362 2376
3 2187 1393 2457
3 940 796 2532
3 2293 1349 2329
3 572 1897 2537
3 332 739 2282
3 2052 567 2239
3 1437 1370 2277
3 567 2219 2239
3 667 626 2452
3 1914 2206 2324
3 2243 939 2392
3 2136 1343 2187
3 257 1654 2530
3 1376 1378 2283
3 2076 1982 2272
3 2083 760 2243
3 1944 1945 2291
3 1771 1839 2359
3 1404 1403 2399
3 1875 1866 2320
3 1460 1337 2412
3 760 783 2243
3 1276 1366 2275
3 1428 2227 2366
3 1882 1605 2284
3 1739 1429 2459
3 2321 2188 2434
3 1328 1327 2315
3 798 2189 2307
3 2152 1174 2207
3 2182 1247 2323
3 1516 1514 2367
3 293 291 2306
3 556 537 2201
3 1298 1300 2314
3 1400 1399 2316
3 1649 2236 2463
3 833 831 2424
3 2127 2050 2333
3 1057 914 2328
3 1839 193 2359
3 761 1741 2258
3 1186 1970 2422
3 1429 2366 2382
3 2211 1271 2271
3 1733 1248 2534
3 13 2114 2136
3 2078 390 2431
3 1533 1536 2340
3 1690 2145 2446
3 1277 2308 2370
3 1168 1393 2187
3 1597 2047 2268
3 587 565 2276
3 1908 244 2401
3 225 125 2284
3 610 2130 2468
3 1749 2105 2326
3 1913 1914 2324
3 2366 2208 2382
3 1391 1876 2295
3 457 552 2264
3 653 688 2209
3 1601 2443 2514
3 682 2138 2211
3 992 1980 2244
3 55 56 2313
3 1645 1495 2493
3 473 477 2483
3 202 1724 2329
3 465 828 2429
3 1277 1966 2308
3 1416 2330 2406
3 1912 1364 2455
3 1716 1483 2375
3 2019 1651 2485
3 1725 2137 2226
3 201 1323 2216
3 878 1083 2213
3 2072 2073 2245
3 1563 1777 2405
3 244 2028 2401
3 2016 1564 2422
3 1682 1497 2461
3 1962 1153 2362
3 1298 2314 2358
3 1384 1385 2391
3 688 1320 2209
3 1587 2179 2435
3 786 380 2497
3 1395 1522 2341
3 2032 1919 2273
3 251 2013 2247
3 2219 2031 2250
3 2397 552 2453
3 1765 255 2489
3 2475 1825 2524
3 1202 1204 2301
3 445 2078 2411
3 323 2229 2296
3 1286 2384 2408
3 537 551 2201
3 1724 237 2293
3 84 85 2335
3 1471 1126 2319
3 1635 1634 2511
3 300 302 2338
3 698 666 2318
3 1030 1031 2236
3 2098 1457 2271
3 696 1821 2426
3 1457 1492 2447
3 1956 2336 2469
3 331 323 2296
3 1284 1491 2342
3 2011 1996 2270
3 256 183 2303
3 160 257 2304
3 2204 1589 2501
3 1891 1014 2280
3 719 725 2336
3 1354 1808 2381
3 437 430 2494
3 2377 218 2391
3 2211 2271 2447
3 1407 2256 2290
3 2365 1460 2412
3 2047 1498 2268
3 1825 1283 2524
3 1499 1825 2475
3 1226 1249 2281
3 2051 2243 2392
3 2250 1160 2310
3 111 112 2346
3 304 306 2345
3 1341 1352 2351
3 2166 191 2504
3 2223 1836 2242
3 1996 247 2481
3 1049 1051 2331
3 1086 1298 2358
3 2130 595 2273
3 1249 2111 2263
3 680 1995 2458
3 1511 2140 2346
3 102 103 2355
3 469 473 2453
3 961 2072 2245
3 2073 1282 2245
3 1442 1443 2525
3 74 192 2361
3 2163 1586 2435
3 1519 1518 2449
3 897 2274 2500
3 303 444 2317
3 1615 1614 2423
3 197 2009 2404
3 1634 2281 2511
3 1780 1781 2419
3 1435 1623 2465
3 1286 1774 2384
3 384 361 2339
3 193 1901 2359
3 1165 2433 2475
3 2277 1370 2386
3 677 653 2209
3 1994 1516 2367
3 1479 1478 2440
3 1165 1512 2433
3 1644 1353 2417
3 1711 1712 2353
3 2193 1615 2425
3 1613 1956 2469
3 1440 1173 2330
3 2269 1479 2440
3 222 2218 2465
3 391 389 2503
3 306 2278 2345
3 468 2090 2365
3 221 2246 2526
3 1445 1446 2504
3 939 1844 2392
3 86 87 2373
3 1429 1428 2366
3 2053 2103 2383
3 1348 1212 2312
3 805 750 2371
3 997 1286 2408
3 1152 869 2363
3 2063 2064 2238
3 192 1994 2367
3 1160 2043 2310
3 1926 2151 2350
3 2059 2098 2271
3 1897 1366 2537
3 215 2262 2437
3 1655 1732 2476
3 2415 1128 2454
3 1320 2213 2214
3 7 258 2357
3 259 155 2356
3 2171 1530 2172
3 347 351 2407
3 1077 1078 2343
3 239 2003 2279
3 1446 1128 2415
3 1034 1033 2410
3 601 627 2442
3 1154 1653 2234
3 397 2060 2405
3 2142 794 2272
3 442 2063 2238
3 1863 1215 2378
3 794 2076 2272
3 1883 1375 2505
3 1320 878 2213
3 342 468 2344
3 1903 218 2377
3 380 376 2497
3 1549 1547 2379
3 1148 1165 2475
3 2157 226 2507
3 829 972 2326
3 884 1957 2466
3 2291 1077 2343
3 65 66 2395
3 787 2052 2518
3 2298 1348 2312
3 1946 2343 2396
3 1653 256 2535
3 1842 1548 2472
3 1957 2301 2466
3 1366 1277 2370
3 2213 1432 2214
3 961 2245 2383
3 218 2093 2391
3 1376 2283 2421
3 1873 2127 2333
3 1019 1021 2512
3 1128 1127 2454
3 1104 1434 2450
3 2130 1439 2468
3 2396 2110 2482
3 2186 855 2283
3 1724 2293 2329
3 1163 1059 2372
3 1614 2389 2423
3 53 54 2402
3 1063 1707 2334
3 2283 855 2421
3 1385 1863 2436
3 364 1883 2505
3 517 1890 2387
3 1145 996 2492
3 1047 1287 2348
3 2148 1875 2320
3 205 2176 2416
3 1372 1844 2478
3 1211 2219 2250
3 1141 898 2368
3 245 1909 2420
3 2278 327 2321
3 2389 1397 2423
3 2256 513 2290
3 559 2403 2456
3 1137 1340 2374
3 2093 1384 2391
3 1918 1148 2524
3 1030 2236 2427
3 1867 1895 2513
3 2014 517 2387
3 2271 1457 2447
3 1143 2028 2353
3 1904 194 2432
3 1148 2475 2524
3 1574 1523 2436
3 2213 1083 2311
3 1997 358 2325
3 2139 246 2506
3 1370 1369 2386
3 1271 2059 2271
3 1034 2173 2463
3 1123 1412 2393
3 1578 1827 2515
3 2209 1320 2424
3 2079 1504 2210
3 1361 2168 2305
3 1491 1489 2403
3 238 1725 2226
3 1190 986 2334
3 1547 1545 2508
3 1891 1613 2469
3 1153 1885 2362
3 2208 1632 2382
3 2287 1281 2448
3 1356 1376 2421
3 1965 2349 2515
3 2155 1186 2422
3 1522 2014 2387
3 2158 1468 2323
3 2050 954 2333
3 1397 1809 2423
3 1362 1360 2376
3 1852 1985 2397
3 2069 1691 2446
3 789 2066 2425
3 1895 755 2513
3 1707 1154 2234
3 372 374 2430
3 2225 787 2518
3 2028 1206 2401
3 986 1063 2334
3 1912 726 2439
3 1340 1342 2400
3 1916 1145 2448
3 2236 1649 2427
3 2374 1340 2400
3 2222 1407 2290
3 2324 1152 2363
3 241 2220 2472
3 765 2190 2384
3 2375 667 2452
3 2330 1173 2406
3 1181 1972 2500
3 2126 1382 2388
3 1173 1012 2406
3 315 313 2495
3 1015 1373 2385
3 97 221 2526
3 1937 1397 2389
3 930 1061 2462
3 971 1096 2496
3 45 46 2485
3 669 791 2529
3 1104 2450 2521
3 382 378 2390
3 2191 1371 2536
3 2235 1036 2286
3 831 2209 2424
3 762 1997 2349
3 2379 1547 2508
3 2177 1359 2467
3 2403 1489 2456
3 796 785 2532
3 219 1902 2516
3 1519 2300 2480
3 1065 1655 2476
3 1375 1473 2505
3 1489 1490 2456
3 390 392 2431
3 2247 2013 2464
3 1135 1930 2369
3 2278 1583 2345
3 626 622 2452
3 631 2298 2312
3 2233 1348 2298
3 1398 1974 2499
3 1706 1681 2492
3 261 130 2444
3 32 260 2445
3 822 2099 2368
3 1365 1912 2439
3 941 940 2418
3 1446 2166 2504
3 2106 1121 2414
3 2300 1519 2449
3 1803 1104 2521
3 1732 1570 2476
3 1413 2051 2392
3 2122 1946 2396
3 2238 1868 2520
3 477 556 2483
3 2397 1985 2533
3 463 445 2411
3 2163 1185 2488
3 1126 2141 2319
3 1755 2264 2533
3 972 2204 2501
3 2230 1533 2340
3 1774 1773 2503
3 1997 2325 2349
3 1004 2069 2446
3 2159 31 2445
3 131 2160 2444
3 1371 2191 2451
3 1001 2154 2486
3 1682 2230 2340
3 2103 961 2383
3 1033 1151 2410
3 382 2390 2531
3 1504 2079 2520
3 1583 2278 2321
3 511 465 2429
3 250 2024 2479
3 2208 2088 2509
3 619 620 2484
3 1246 2208 2366
3 2141 1209 2319
3 1359 1413 2467
3 1295 1459 2458
3 2218 1435 2465
3 2281 1249 2511
3 2293 237 2354
3 2207 1398 2499
3 1564 2155 2422
3 552 469 2453
3 1947 224 2498
3 2062 1568 2490
3 2018 205 2416
3 260 2159 2445
3 2160 261 2444
3 2092 610 2468
3 194 2195 2432
3 1432 2213 2311
3 211 2251 2464
3 2378 856 2527
3 1536 1532 2534
3 2364 786 2497
3 2438 1438 2478
3 1185 1948 2488
3 2042 941 2418
3 1582 2321 2434
3 885 1891 2469
3 1364 2048 2455
3 1693 2225 2518
3 401 382 2531
3 1338 2247 2464
3 442 2238 2520
3 1292 2117 2428
3 2274 1350 2500
3 2066 2193 2425
3 2179 1184 2435
3 898 822 2368
3 2436 1863 2527
3 1844 1016 2478
3 2184 1001 2486
3 557 2207 2499
3 2013 211 2464
3 2254 250 2479
3 1350 1181 2500
3 2009 248 2470
3 246 2140 2506
3 1574 2436 2527
3 2139 1419 2517
3 316 1971 2514
3 1319 2122 2482
3 226 2006 2507
3 1400 2270 2481
3 1681 2287 2448
3 2325 1578 2349
3 232 1652 2487
3 1320 2214 2424
3 1632 2208 2509
3 248 2288 2470
3 1406 1141 2460
3 2188 1322 2434
3 2244 1980 2441
3 2088 1255 2509
3 1280 2109 2427
3 2060 2307 2405
3 2236 1034 2463
3 1745 2293 2354
3 2122 2396 2482
3 2109 1030 2427
3 2307 1563 2405
3 1429 2382 2459
3 224 2267 2498
3 682 2211 2447
3 2079 442 2520
3 2348 1287 2398
3 2220 1842 2472
3 1335 2249 2466
3 1249 2263 2511
3 443 2210 2519
3 2385 1373 2394
3 1594 2184 2486
3 2052 2239 2518
3 1568 2439 2490
3 2349 1578 2515
3 2344 468 2412
3 2270 1996 2481
3 1735 2244 2441
3 2260 1471 2477
3 2210 1504 2519
3 1434 2297 2450
3 2297 1419 2450
3 2263 1660 2502
3 2404 2009 2470
3 1718 2385 2394
3 1371 2194 2536
3 2317 444 2461
3 1443 2322 2525
3 1716 2375 2452
3 1863 2378 2527
3 2439 726 2490
3 1057 2328 2451
3 1638 2404 2470
3 1454 2234 2535
3 755 2320 2513
3 2234 1653 2535
3 2264 552 2533
3 1419 2297 2517
3 1392 2322 2510
3 552 2397 2533
3 1798 2364 2497
3 2322 1392 2525
3 2382 1631 2459
3 1016 2438 2478
3 1366 2370 2537
3 1742 2491 2530
3 2491 257 2530
CELL_TYPES 4886
5
5
5
5
5
5
5
5
5
5
5
5
5
5
5
5
5
5
5
5
5
5
5
5
5
5
5
5
5
5
5
5
5
5
5
5
5
5
5
5
5
5
5
5
5
5
5
5
5
5
5
5
5
5
5
5
5
5
5
5
5
5
5
5
5
5
5
5
5
5
5
5
5
5
5
5
5
5
5
5
5
5
5
5
5
5
5
5
5
5
5
5
5
5
5
5
5
5
5
5
5
5
5
5
5
5
5
5
5
5
5
5
5
5
5
5
5
5
5
5
5
5
5
5
5
5
5
5
5
5
5
5
5
5
5
5
5
5
5
5
5
5
5
5
5
5
5
5
5
5
5
5
5
5
5
5
5
5
5
5
5
5
5
5
5
5
5
5
5
5
5
5
5
5
5
5
5
5
5
5
5
5
5
5
5
5
5
5
5
5
5
5
5
5
5
5
5
5
5
5
5
5
5
5
5
5
5
5
5
5
5
5
5
5
5
5
5
5
5
5
5
5
5
5
5
5
5
5
5
5
5
5
5
5
5
5
5
5
5
5
5
5
5
5
5
5
5
5
5
5
5
5
5
5
5
5
5
5
5
5
5
5
5
5
5
5
5
5
5
5
5
5
5
5
5
5
5
5
5
5
5
5
5
5
5
5
5
5
5
5
5
5
5
5
5
5
5
5
5
5
5
5
5
5
5
5
5
5
5
5
5
5
5
5
5
5
5
5
5
5
5
5
5
5
5
5
5
5
5
5
5
5
5
5
5
5
5
5
5
5
5
5
5
5
5
5
5
5
5
5
5
5
5
5
5
5
5
5
5
5
5
5
5
5
5
5
5
5
5
5
5
5
5
5
5
5
5
5
5
5
5
5
5
5
5
5
5
5
5
5
5
5
5
5
5
5
5
5
5
5
5
5
5
5
5
5
5
5
5
5
5
5
5
5
5
5
5
5
5
5
5
5
5
5
5
5
5
5
5
5
5
5
5
5
5
5
5
5
5
5
5
5
5
5
5
5
5
5
5
5
5
5
5
5
5
5
5
5
5
5
5
5
5
5
5
5
5
5
5
5
5
5
5
5
5
5
5
5
5
5
5
5
5
5
5
5
5
5
5
5
5
5
5
5
5
5
5
5
5
5
5
5
5
5
5
5
5
5
5
5
5
5
5
5
5
5
5
5
5
5
5
5
5
5
5
5
5
5
5
5
5
5
5
5
5
5
5
5
5
5
5
5
5
5
5
5
5
5
5
5
5
5
5
5
5
5
5
5
5
5
5
5
5
5
5
5
5
5
5
5
5
5
5
5
5
5
5
5
5
5
5
5
5
5
5
5
5
5
5
5
5
5
5
5
5
5
5
5
5
5
5
5
5
5
5
5
5
5
5
5
5
5
5
5
5
5
5
5
5
5
5
5
5
5
5
5
5
5
5
5
5
5
5
5
5
5
5
5
5
5
5
5
5
5
5
5
5
5
5
5
5
5
5
5
5
5
5
5
5
5
5
5
5
5
5
5
5
5
5
5
5
5
5
5
5
5
5
5
5
5
5
5
5
5
5
5
5
5
5
5
5
5
5
5
5
5
5
5
5
5
5
5
5
5
5
5
5
5
5
5
5
5
5
5
5
5
5
5
5
5
5
5
5
5
5
5
5
5
5
5
5
5
5
5
5
5
5
5
5
5
5
5
5
5
5
5
5
5
5
5
5
5
5
5
5
5
5
5
5
5
5
5
5
5
5
5
5
5
5
5
5
5
5
5
5
5
5
5
5
5
5
5
5
5
5
5
5
5
5
5
5
5
5
5
5
5
5
5
5
5
5
5
5
5
5
5
5
5
5
5
5
5
5
5
5
5
5
5
5
5
5
5
5
5
5
5
5
5
5
5
5
5
5
5
5
5
5
5
5
5
5
5
5
5
5
5
5
5
5
5
5
5
5
5
5
5
5
5
5
5
5
5
5
5
5
5
5
5
5
5
5
5
5
5
5
5
5
5
5
5
5
5
5
5
5
5
5
5
5
5
5
5
5
5
5
5
5
5
5
5
5
5
5
5
5
5
5
5
5
5
5
5
5
5
5
5
5
5
5
5
5
5
5
5
5
5
5
5
5
5
5
5
5
5
5
5
5
5
5
5
5
5
5
5
5
5
5
5
5
5
5
5
5
5
5
5
5
5
5
5
5
5
5
5
5
5
5
5
5
5
5
5
5
5
5
5
5
5
5
5
5
5
5
5
5
5
5
5
5
5
5
5
5
5
5
5
5
5
5
5
5
5
5
5
5
5
5
5
5
5
5
5
5
5
5
5
5
5
5
5
5
5
5
5
5
5
5
5
5
5
5
5
5
5
5
5
5
5
5
5
5
5
5
5
5
5
5
5
5
5
5
5
5
5
5
5
5
5
5
5
5
5
5
5
5
5
5
5
5
5
5
5
5
5
5
5
5
5
5
5
5
5
5
5
5
5
5
5
5
5
5
5
5
5
5
5
5
5
5
5
5
5
5
5
5
5
5
5
5
5
5
5
5
5
5
5
5
5
5
5
5
5
5
5
5
5
5
5
5
5
5
5
5
5
5
5
5
5
5
5
5
5
5
5
5
5
5
5
5
5
5
5
5
5
5
5
5
5
5
5
5
5
5
5
5
5
5
5
5
5
5
5
5
5
5
5
5
5
5
5
5
5
5
5
5
5
5
5
5
5
5
5
5
5
5
5
5
5
5
5
5
5
5
5
5
5
5
5
5
5
5
5
5
5
5
5
5
5
5
5
5
5
5
5
5
5
5
5
5
5
5
5
5
5
5
5
5
5
5
5
5
5
5
5
5
5
5
5
5
5
5
5
5
5
5
5
5
5
5
5
5
5
5
5
5
5
5
5
5
5
5
5
5
5
5
5
5
5
5
5
5
5
5
5
5
5
5
5
5
5
5
5
5
5
5
5
5
5
5
5
5
5
5
5
5
5
5
5
5
5
5
5
5
5
5
5
5
5
5
5
5
5
5
5
5
5
5
5
5
5
5
5
5
5
5
5
5
5
5
5
5
5
5
5
5
5
5
5
5
5
5
5
5
5
5
5
5
5
5
5
5
5
5
5
5
5
5
5
5
5
5
5
5
5
5
5
5
5
5
5
5
5
5
5
5
5
5
5
5
5
5
5
5
5
5
5
5
5
5
5
5
5
5
5
5
5
5
5
5
5
5
5
5
5
5
5
5
5
5
5
5
5
5
5
5
5
5
5
5
5
5
5
5
5
5
5
5
5
5
5
5
5
5
5
5
5
5
5
5
5
5
5
5
5
5
5
5
5
5
5
5
5
5
5
5
5
5
5
5
5
5
5
5
5
5
5
5
5
5
5
5
5
5
5
5
5
5
5
5
5
5
5
5
5
5
5
5
5
5
5
5
5
5
5
5
5
5
5
5
5
5
5
5
5
5
5
5
5
5
5
5
5
5
5
5
5
5
5
5
5
5
5
5
5
5
5
5
5
5
5
5
5
5
5
5
5
5
5
5
5
5
5
5
5
5
5
5
5
5
5
5
5
5
5
5
5
5
5
5
5
5
5
5
5
5
5
5
5
5
5
5
5
5
5
5
5
5
5
5
5
5
5
5
5
5
5
5
5
5
5
5
5
5
5
5
5
5
5
5
5
5
5
5
5
5
5
5
5
5
5
5
5
5
5
5
5
5
5
5
5
5
5
5
5
5
5
5
5
5
5
5
5
5
5
5
5
5
5
5
5
5
5
5
5
5
5
5
5
5
5
5
5
5
5
5
5
5
5
5
5
5
5
5
5
5
5
5
5
5
5
5
5
5
5
5
5
5
5
5
5
5
5
5
5
5
5
5
5
5
5
5
5
5
5
5
5
5
5
5
5
5
5
5
5
5
5
5
5
5
5
5
5
5
5
5
5
5
5
5
5
5
5
5
5
5
5
5
5
5
5
5
5
5
5
5
5
5
5
5
5
5
5
5
5
5
5
5
5
5
5
5
5
5
5
5
5
5
5
5
5
5
5
5
5
5
5
5
5
5
5
5
5
5
5
5
5
5
5
5
5
5
5
5
5
5
5
5
5
5
5
5
5
5
5
5
5
5
5
5
5
5
5
5
5
5
5
5
5
5
5
5
5
5
5
5
5
5
5
5
5
5
5
5
5
5
5
5
5
5
5
5
5
5
5
5
5
5
5
5
5
5
5
5
5
5
5
5
5
5
5
5
5
5
5
5
5
5
5
5
5
5
5
5
5
5
5
5
5
5
5
5
5
5
5
5
5
5
5
5
5
5
5
5
5
5
5
5
5
5
5
5
5
5
5
5
5
5
5
5
5
5
5
5
5
5
5
5
5
5
5
5
5
5
5
5
5
5
5
5
5
5
5
5
5
5
5
5
5
5
5
5
5
5
5
5
5
5
5
5
5
5
5
5
5
5
5
5
5
5
5
5
5
5
5
5
5
5
5
5
5
5
5
5
5
5
5
5
5
5
5
5
5
5
5
5
5
5
5
5
5
5
5
5
5
5
5
5
5
5
5
5
5
5
5
5
5
5
5
5
5
5
5
5
5
5
5
5
5
5
5
5
5
5
5
5
5
5
5
5
5
5
5
5
5
5
5
5
5
5
5
5
5
5
5
5
5
5
5
5
5
5
5
5
5
5
5
5
5
5
5
5
5
5
5
5
5
5
5
5
5
5
5
5
5
5
5
5
5
5
5
5
5
5
5
5
5
5
5
5
5
5
5
5
5
5
5
5
5
5
5
5
5
5
5
5
5
5
5
5
5
5
5
5
5
5
5
5
5
5
5
5
5
5
5
5
5
5
5
5
5
5
5
5
5
5
5
5
5
5
5
5
5
5
5
5
5
5
5
5
5
5
5
5
5
5
5
5
5
5
5
5
5
5
5
5
5
5
5
5
5
5
5
5
5
5
5
5
5
5
5
5
5
5
5
5
5
5
5
5
5
5
5
5
5
5
5
5
5
5
5
5
5
5
5
5
5
5
5
5
5
5
5
5
5
5
5
5
5
5
5
5
5
5
5
5
5
5
5
5
5
5
5
5
5
5
5
5
5
5
5
5
5
5
5
5
5
5
5
5
5
5
5
5
5
5
5
5
5
5
5
5
5
5
5
5
5
5
5
5
5
5
5
5
5
5
5
5
5
5
5
5
5
5
5
5
5
5
5
5
5
5
5
5
5
5
5
5
5
5
5
5
5
5
5
5
5
5
5
5
5
5
5
5
5
5
5
5
5
5
5
5
5
5
5
5
5
5
5
5
5
5
5
5
5
5
5
5
5
5
5
5
5
5
5
5
5
5
5
5
5
5
5
5
5
5
5
5
5
5
5
5
5
5
5
5
5
5
5
5
5
5
5
5
5
5
5
5
5
5
5
5
5
5
5
5
5
5
5
5
5
5
5
5
5
5
5
5
5
5
5
5
5
5
5
5
5
5
5
5
5
5
5
5
5
5
5
5
5
5
5
5
5
5
5
5
5
5
5
5
5
5
5
5
5
5
5
5
5
5
5
5
5
5
5
5
5
5
5
5
5
5
5
5
5
5
5
5
5
5
5
5
5
5
5
5
5
5
5
5
5
5
5
5
5
5
5
5
5
5
5
5
5
5
5
5
5
5
5
5
5
5
5
5
5
5
5
5
5
5
5
5
5
5
5
5
5
5
5
5
5
5
5
5
5
5
5
5
5
5
5
5
5
5
5
5
5
5
5
5
5
5
5
5
5
5
5
5
5
5
5
5
5
5
5
5
5
5
5
5
5
5
5
5
5
5
5
5
5
5
5
5
5
5
5
5
5
5
5
5
5
5
5
5
5
5
5
5
5
5
5
5
5
5
5
5
5
5
5
5
5
5
5
5
5
5
5
5
5
5
5
5
5
5
5
5
5
5
5
5
5
5
5
5
5
5
5
5
5
5
5
5
5
5
5
5
5
5
5
5
5
5
5
5
5
5
5
5
5
5
5
5
5
5
5
5
5
5
5
5
5
5
5
5
5
5
5
5
5
5
5
5
5
5
5
5
5
5
5
5
5
5
5
5
5
5
5
5
5
5
5
5
5
5
5
5
5
5
5
5
5
5
5
5
5
5
5
5
5
5
5
5
5
5
5
5
5
5
5
5
5
5
5
5
5
5
5
5
5
5
5
5
5
5
5
5
5
5
5
5
5
5
5
5
5
5
5
5
5
5
5
5
5
5
5
5
5
5
5
5
5
5
5
5
5
5
5
5
5
5
5
5
5
5
5
5
5
5
5
5
5
5
5
5
5
5
5
5
5
5
5
5
5
5
5
5
5
5
5
5
5
5
5
5
5
5
5
5
5
5
5
5
5
5
5
5
5
5
5
5
5
5
5
5
5
5
5
5
5
5
5
5
5
5
5
5
5
5
5
5
5
5
5
5
5
5
5
5
5
5
5
5
5
5
5
5
5
5
5
5
5
5
5
5
5
5
5
5
5
5
5
5
5
5
5
5
5
5
5
5
5
5
5
5
5
5
5
5
5
5
5
5
5
5
5
5
5
5
5
5
5
5
5
5
5
5
5
5
5
5
5
5
5
5
5
5
5
5
5
5
5
5
5
5
5
5
5
5
5
5
5
5
5
5
5
5
5
5
5
5
5
5
5
5
5
5
5
5
5
5
5
5
5
5
5
5
5
5
5
5
5
5
5
5
5
5
5
5
5
5
5
5
5
5
5
5
5
5
5
5
5
5
5
5
5
5
5
5
5
5
5
5
5
5
5
5
5
5
5
5
5
5
5
5
5
5
5
5
5
5
5
5
5
5
5
5
5
5
5
5
5
5
5
5
5
5
5
5
5
5
5
5
5
5
5
5
5
5
5
5
5
5
5
5
5
5
5
5
5
5
5
5
5
5
5
5
5
5
5
5
5
5
5
5
5
5
5
5
5
5
5
5
5
5
5
5
5
5
5
5
5
5
5
5
5
5
5
5
5
5
5
5
5
5
5
5
5
5
5
5
5
5
5
5
5
5
5
5
5
5
5
5
5
5
5
5
5
5
5
5
5
5
5
5
5
5
5
5
5
5
5
5
5
5
5
5
5
5
5
5
5
5
5
5
5
5
5
5
5
5
5
5
5
5
5
5
5
5
5
5
5
5
5
5
5
5
5
5
5
5
5
5
5
5
5
5
5
5
5
5
5
5
5
5
5
5
5
5
5
5
5
5
5
5
5
5
5
5
5
5
5
5
5
5
5
5
5
5
5
5
5
5
5
5
5
5
5
5
5
5
5
5
5
5
5
5
5
5
5
5
5
5
5
5
5
5
5
5
5
5
5
5
5
5
5
5
5
5
5
5
5
5
5
5
5
5
5
5
5
5
5
5
5
5
5
5
5
5
5
5
5
5
5
5
5
5
5
5
5
5
5
5
5
5
5
5
5
5
5
5
5
5
5
5
5
5
5
5
5
5
5
5
5
5
5
5
5
5
5
5
5
5
5
5
5
5
5
5
5
5
5
5
5
5
5
5
5
5
5
5
5
5
5
5
5
5
5
5
5
5
5
5
5
5
5
5
5
5
5
5
5
5
5
5
5
5
5
5
5
5
5
5
5
5
5
5
5
5
5
5
5
5
5
5
5
5
5
5
5
5
5
5
5
5
5
5
5
5
5
5
5
5
5
5
5
5
5
5
5
5
5
5
5
5
5
5
5
5
5
5
5
5
5
5
5
5
5
5
5
5
5
5
5
5
5
5
5
5
5
5
5
5
5
5
5
5
5
5
5
5
5
5
5
5
5
5
5
5
5
5
5
5
5
5
5
5
5
5
5
5
5
5
5
5
5
5
5
5
5
5
5
5
5
5
5
5
5
5
5
5
5
5
5
5
5
5
5
5
5
5
5
5
5
5
5
5
5
5
5
5
5
5
5
5
5
5
5
5
5
5
5
5
5
5
5
5
5
5
5
5
5
5
5
5
5
5
5
5
5
5
5
5
5
5
5
5
5
5
5
5
5
5
5
5
5
5
5
5
5
5
5
5
5
5
5
5
5
5
5
5
5
5
5
5
5
5
5
5
5
5
5
5
5
5
5
5
5
5
5
5
5
5
5
5
5
5
5
5
5
5
5
5
5
5
5
5
5
5
5
5
5
5
5
5
5
5
5
5
5
5
5
5
5
5
5
5
5
5
5
5
5
5
5
5
5
5
5
5
5
5
5
5
5
5
5
5
5
5
5
5
5
5
5
5
5
5
5
5
5
5
5
5
5
5
5
5
5
5
5
5
5
5
5
5
5
5
5
5
5
5
5
5
5
5
5
5
5
5
5
5
5
5
5
5
5
5
5
5
5
5
5
5
5
5
5
5
5
5
5
5
5
5
5
5
5
5
5
5
5
5
5
5
5
5
5
5
5
5
5
5
5
5
5
5
5
5
5
5
5
5
5
5
5
5
5
5
5
5
5
5
5
5
5
5
5
5
5
5
5
5
5
5
5
5
5
5
5
5
5
5
5
5
5
5
5
5
5
5
5
5
5
5
5
5
5
5
5
5
5
5
5
5
5
5
5
5
5
5
5
5
5
5
5
5
5
5
5
5
5
5
5
5
5
5
5
5
5
5
5
5
5
5
5
5
5
5
5
5
5
5
5
5
5
5
5
5
5
5
5
5
5
5
5
5
5
5
5
5
5
5
5
5
5
5
5
5
5
5
5
5
5
5
5
5
5
5
5
5
5
5
5
5
5
5
5
5
5
5
5
5
5
5
5
5
5
5
5
5
5
5
5
5
5
5
5
5
5
5
5
5
5
5
5
5
5
5
5
5
5
5
5
5
5
5
5
5
5
5
5
5
5
5
5
5
5
5
5
5
5
5
5
5
5
5
5
5
5
5
5
5
5
5
5
5
5
5
5
5
5
5
5
5
5
5
5
5
5
5
5
5
5
5
5
5
5
5
5
5
5
5
5
5
5
5
5
5
5
5
5
5
5
5
5
5
5
5
5
5
5
5
5
5
5
5
5
5
5
5
5
5
5
5
5
5
5
5
5
5
5
5
5
5
5
5
5
5
5
5
5
5
5
5
5
5
5
5
5
5
5
5
5
5
5
5
5
5
5
5
5
5
5
5
5
5
5
5
5
5
5
5
5
5
5
5
5
5
5
5
5
5
5
5
5
5
5
5
5
5
5
5
5
5
5
5
5
5
5
5
5
5
5
5
5
5
5
5
5
5
5
5
5
5
5
5
5
5
5
5
5
5
5
5
5
5
5
5
5
5
5
5
5
5
5
5
5
5
5
5
5
5
5
5
5
5
5
5
5
5
5
5
5
5
5
5
5
5
5
5
5
5
5
5
5
5
5
5
5
5
5
5
5
5
5
5
5
5
5
5
5
5
5
5
5
5
5
5
5
5
5
5
5
5
5
5
5
5
5
5
5
5
5
5
5
5
5
5
5
5
5
5
5
5
5
5
5
5
5
5
5
5
5
5
5
5
5
5
5
5
5
5
5
5
5
5
5
5
5
5
5
5
5
5
5
5
5
5
5
5
5
5
5
5
5
5
5
5
5
5
5
5
5
5
5
5
5
5
5
5
5
5
5
5
5
5
5
5
5
5
5
5
5
5
5
5
5
5
5
5
5
5
5
5
5
5
5
5
5
5
5
5
5
5
5
5
5
5
5
5
5
5
5
5
5
5
5
5
5
5
5
5
5
5
5
5
5
5
5
5
5
5
5
5
5
5
5
5
5
5
5
5
5
5
5
5
5
5
5
5
5
5
5
5
5
5
5
5
5
5
5
5
5
5
5
5
5
5
5
5
5
5
5
5
5
5
5
5
5
5
5
5
5
5
5
5
5
5
5
5
5
5
5
5
5
5
5
5
5
5
5
5
5
5
5
5
5
5
5
5
5
5
5
5
5
5
5
5
5
5
5
5
5
5
5
5
5
5
5
5
5
5
5
5
5
5
5
5
5
5
5
5
5
5
5
5
5
5
5
5
5
5
5
5
5
5
5
5
5
5
5
5
5
5
5
5
5
5
5
5
5
5
5
5
5
5
5
5
5
5
5
5
5
5
5
5
5
5
5
5
5
5
5
5
5
5
5
5
5
5
5
5
5
5
5
5
5
5
5
5
5
5
5
5
5
5
5
5
5
5
5
5
5
5
5
5
5
5
5
5
5
5
5
5
5
5
5
5
5
5
5
5
5
5
5
5
5
5
5
5
5
5
5
5
5
5
5
5
5
5
5
5
5
5
5
5
5
5
5
5
5
5
5
5
5
5
5
5
5
5
5
5
5
5
5
5
5
5
5
5
5
5
5
5
5
5
5
5
5
5
5
5
5
5
5
5
5
5
5
5
5
5
5
5
5
5
5
5
5
5
5
5
5
5
5
5
5
5
5
5
5
5
5
5
5
5
5
5
5
5
5
5
5
5
5
5
5
5
5
5
5
5
5
5
5
5
5
5
5
5
5
5
5
5
5
5
5
5
5
5
5
5
5
5
5
5
5
5
5
5
5
5
5
5
5
5
5
5
5
5
5
5
5
5
5
5
5
5
5
5
5
5
5
5
5
5
5
5
5
5
5
5
5
5
5
5
5
5
5
5
5
5
5
5
5
5
5
5
5
5
5
5
5
5
5
5
5
5
5
5
5
5
5
5
5
5
5
5
5
5
5
5
5
5
5
5
5
5
5
5
5
5
5
5
5
5
5
5
5
5
5
5
5
5
5
5
5
5
5
5
5
5
5
5
5
5
5
5
5
5
5
5
5
5
5
5
5
5
5
5
5
5
5
5
5
5
5
5
5
5
5
5
5
5
5
5
5
5
5
5
5
5
5
5
5
5
5
5
5
5
5
5
5
5
5
5
5
5
5
5
5
5
5
5
5
5
5
5
5
5
5
5
5
5
5
5
5
5
5
5
5
5
5
5
5
5
5
5
5
5
5
5
5
5
5
5
5
5
5
5
5
5
5
5
5
5
5
5
5
5
5
5
5
5
5
5
5
5
5
5
5
5
5
5
5
5
5
5
5
5
5
5
5
5
5
5
5
5
5
5
5
5
5
5
5
5
5
5
5
POINT_DATA 2538
VECTORS disp float
1.7339224247191836e-11 4.3147834415439104e-11 0.0
3.5356730434083894e-11 -9.637906342729169e-11 0.0
0.003999999986940941 3.373485017295514e-11 0.0
0.003999999962972404 -1.0206386933651071e-10 0.0
0.0013028293738094098 0.000538762861395908 0.0
0.0028877174544354274 0.0003117673062242191 0.0
0.001967495560722301 0.00011607556978968173 0.0
4.462032226730681e-12 3.3362039569033934e-12 0.0
8.311719504875838e-12 9.85362523890205e-12 0.0
7.493355735635267e-12 5.910231371462703e-12 0.0
7.264614832272587e-12 5.454428790969993e-12 0.0
6.7078450508987676e-12 3.987339853797698e-12 0.0
6.22079409169626e-12 2.7830038743318355e-12 0.0
5.772504462218546e-12 1.553532242177311e-12 0.0
5.421567388181915e-12 2.5503686101853093e-13 0.0
4.72625758024876e-12 -1.1694028521031056e-12 0.0
4.990856820396161e-12 -2.447077533451088e-12 0.0
4.791490338130663e-12 -3.9387118658305544e-12 0.0
4.819794814771055e-12 -5.539763373977518e-12 0.0
4.995592135811872e-12 -7.1468678235381366e-12 0.0
4.973418585865019e-12 -8.656611711068447e-12 0.0
5.2978906891879264e-12 -1.0467079108903437e-11 0.0
5.323909710923406e-12 -1.1978513764804748e-11 0.0
5.649712801299625e-12 -1.3769246535471675e-11 0.0
5.791151356157353e-12 -1.5788183409539757e-11 0.0
6.0643960647758086e-12 -1.76961428363047e-11 0.0
6.379368005864918e-12 -1.9992770108493348e-11 0.0
6.7857900572036384e-12 -2.2573853474660315e-11 0.0
7.497011775767403e-12 -2.572463779534717e-11 0.0
7.572750164032472e-12 -2.908715150308942e-11 0.0
1.0327229613333168e-11 -3.68566399280104e-11 0.0
4.586288340429978e-12 -3.366788930725918e-11 0.0
4.9981767227509356e-5 -6.588217383384607e-5 0.0
8.653324124837553e-5 -0.0001134792526011555 0.0
0.00012197035013081082 -0.00015491000430239995 0.0
0.00015587819443438244 -0.00019252600976409352 0.0
0.0001887132161507998 -0.00022747785462912318 0.0
0.00022114302112316605 -0.00026065736864769025 0.0
0.00025369863046100546 -0.0002922000360474188 0.0
0.0002860716753703746 -0.00032236357662710125 0.0
0.00031854326940069865 -0.0003514222469505107 0.0
0.0003511930318673802 -0.00037937939456015923 0.0
0.00038403767530346527 -0.0004064744760554156 0.0
0.0004173237477119104 -0.0004327156427399572 0.0
0.0004507992719256113 -0.000458102918788974 0.0
0.00048463046172370934 -0.0004828285853128853 0.0
0.0005190182985246765 -0.0005068449669977225 0.0
0.0005535885890997562 -0.0005301250844317456 0.0
0.0005885824603798786 -0.0005528067824562242 0.0
0.0006239897425880154 -0.0005747795115894143 0.0
0.0006597820956214951 -0.0005961674084555478 0.0
0.0006959770870975168 -0.0006169648235772279 0.0
0.000732619498815775 -0.0006371739137333662 0.0
0.0007696188453700991 -0.0006567807073294396 0.0
0.0008071969353109998 -0.0006758758528804037 0.0
0.0008449955254532422 -0.0006943476835363341 0.0
0.0008834195334879372 -0.0007122926690093003 0.0
0.0009220330863246226 -0.0007296170012469176 0.0
0.000961126836768443 -0.0007464247892937627 0.0
0.0010005429349763445 -0.0007626027164007506 0.0
0.0010405067944843328 -0.0007782847795860699 0.0
0.001080632627436486 -0.0007933745868595926 0.0
0.0011213008055839364 -0.0008079461906494073 0.0
0.0011622652356975043 -0.0008218923319446279 0.0
0.0012036261908554113 -0.0008352984756794954 0.0
0.0012452394929277676 -0.0008481043767627148 0.0
0.0012873512752711 -0.000860374762737194 0.0
0.0013295934529413715 -0.0008720033411362796 0.0
0.0013722120511896559 -0.0008830624107446103 0.0
0.001415062939526911 -0.0008934589109479438 0.0
0.001458214547384134 -0.0009032204064815342 0.0
0.001501597335217577 -0.0009124337672569019 0.0
0.001545178077526495 -0.0009209388895231126 0.0
0.0015890461904940912 -0.0009288944474741215 0.0
0.001633129471562469 -0.0009361652328153215 0.0
0.0016773322428590357 -0.0009428719086578007 0.0
0.00172175146712164 -0.0009488369248194669 0.0
0.001766152684762267 -0.0009542163951191454 0.0
0.0018107558050097143 -0.000958967176963984 0.0
0.0018553733547296667 -0.0009630062948234202 0.0
0.0019000339477616445 -0.0009664726938756025 0.0
0.00194484306703633 -0.0009692241511062905 0.0
0.0019892603624217953 -0.0009711702042551595 0.0
0.0020340991455006533 -0.0009725742422849157 0.0
0.0020779772100602877 -0.0009731551996484816 0.0
0.0021223213259574567 -0.0009731235652516026 0.0
0.002164583779345963 -0.0009719238793209226 0.0
0.002208451586037377 -0.0009701529665373515 0.0
0.0022507115659687223 -0.0009675943094548769 0.0
0.0022927659270092736 -0.0009636978632243451 0.0
0.002334800207021354 -0.0009590499842274562 0.0
0.0023768190973696385 -0.0009528249918856426 0.0
0.002418738275263797 -0.0009457067840621557 0.0
0.0024608665988753863 -0.0009371800607151311 0.0
0.0025033634529819633 -0.0009277446470703674 0.0
0.002545957503860722 -0.0009169776366843668 0.0
0.0025889809084700074 -0.0009053227769828729 0.0
0.0026320855321472357 -0.0008929532561011245 0.0
0.002674945309245354 -0.0008797350216343242 0.0
0.0027178269018773254 -0.0008659456779192297 0.0
0.0027607144867532567 -0.0008514323545664422 0.0
0.0028034938736307734 -0.0008362128136005837 0.0
0.0028459030866090735 -0.0008204466921798578 0.0
0.002888366127546022 -0.000803958935307897 0.0
0.0029303475883475563 -0.000786866281269549 0.0
0.002972063570298852 -0.0007693032999631754 0.0
0.0030136782898023164 -0.0007510067137712246 0.0
0.0030547646004662433 -0.0007322250285042897 0.0
0.003095653085291527 -0.0007128521548512357 0.0
0.003136167768869386 -0.0006928934202418512 0.0
0.003176470614311736 -0.000672346658587245 0.0
0.003216442887649502 -0.000651130613121325 0.0
0.0032561140871771197 -0.0006292798070909741 0.0
0.0032952765208167614 -0.0006068680866353608 0.0
0.003334223179138088 -0.0005838418665963956 0.0
0.003372927053269718 -0.000560112970895414 0.0
0.003411220307109234 -0.0005357131015986414 0.0
0.003449293745994343 -0.000510672838922725 0.0
0.003487259773670153 -0.00048479597348960506 0.0
0.0035248454994147127 -0.0004581160862701261 0.0
0.003562141968600834 -0.00043068493187516435 0.0
0.00359947168862177 -0.00040233095135590134 0.0
0.003636808344272449 -0.00037290340714611387 0.0
0.0036739381593480012 -0.00034233956258993594 0.0
0.00371096127554438 -0.00031059500394995916 0.0
0.0037481902636407067 -0.00027739655317100397 0.0
0.003786077964744879 -0.000242360114331821 0.0
0.0038241241230456734 -0.00020524490455414452 0.0
0.0038627699646707476 -0.00016519473800259528 0.0
0.0039037777001857876 -0.00012084058163764521 0.0
0.003945865258948168 -6.992108168374567e-5 0.0
0.003999999994817822 -3.1949465357004785e-11 0.0
0.003999999988758274 -3.536462602294448e-11 0.0
0.0039999999920348845 -2.462872507432377e-11 0.0
0.003999999992042388 -2.1810010250531106e-11 0.0
0.003999999992580065 -1.8517438749385515e-11 0.0
0.003999999992950612 -1.6045303020542447e-11 0.0
0.003999999993101375 -1.4140887467043949e-11 0.0
0.00399999999336748 -1.2425696380072387e-11 0.0
0.0039999999934614726 -1.0838255333926733e-11 0.0
0.0039999999936332796 -9.296544910118649e-12 0.0
0.003999999993923171 -8.048687371410942e-12 0.0
0.0039999999939420395 -6.4260829614521925e-12 0.0
0.003999999994098303 -5.210483441806618e-12 0.0
0.00399999999421454 -3.7916318455924835e-12 0.0
0.003999999994261837 -2.4345306240914844e-12 0.0
0.0039999999942459405 -9.931920173195302e-13 0.0
0.003999999994273014 4.2805203410384545e-13 0.0
0.003999999993736566 2.035959556535589e-12 0.0
0.003999999994109804 3.337108268934026e-12 0.0
0.003999999993225935 4.999691361334836e-12 0.0
0.003999999993215878 6.098976583714423e-12 0.0
0.003999999992889965 7.307030181689225e-12 0.0
0.003999999993150875 7.641740831465546e-12 0.0
0.003999999993010464 1.0509480331756866e-11 0.0
0.003999999996332653 4.6776529628813735e-12 0.0
0.0037031276311135382 0.00020751195875022676 0.0
0.0034454404022825633 0.00030175468638605655 0.0
0.0032122629240644318 0.0003343020653931352 0.0
0.003014070425146092 0.0003289617537610398 0.0
0.0028810268992036842 0.0001884811264055626 0.0
0.002860218144183877 0.00012471409693918576 0.0
0.0028132555129566942 9.866653803192882e-5 0.0
0.0027577493935749472 9.201473037095927e-5 0.0
0.002693674409592299 9.593362466348049e-5 0.0
0.0026251573123262273 0.00010231924084561536 0.0
0.002553163734573075 0.0001090740049790267 0.0
0.002478773710948971 0.00011716931218082908 0.0
0.0024004608912895063 0.0001237298004834958 0.0
0.002317454737408226 0.00012797247312478752 0.0
0.002225612218903445 0.00012921637588398619 0.0
0.002116038576370126 0.0001287569476449988 0.0
0.001827842960895763 0.0001557391949996481 0.0
0.0017295645848971672 0.00016844007610442222 0.0
0.0016486617673246845 0.00017377339896313868 0.0
0.0015783515613430686 0.00017744945290150207 0.0
0.0015148361308051066 0.0001809847019348364 0.0
0.0014575614808308443 0.00018532719302491582 0.0
0.001406297195281772 0.0001918641955533367 0.0
0.0013627934474117751 0.00020234367773095142 0.0
0.0013289462742736165 0.00022188776565451541 0.0
0.0013059989511893528 0.0002550944319862349 0.0
0.001298623295912435 0.0003121290550103087 0.0
0.0012986555059763736 0.0004005110191170977 0.0
0.0011530933903636162 0.0005507452460486963 0.0
0.0009354514485328946 0.000518279407998694 0.0
0.0006520355961533597 0.0004253379421585194 0.0
0.0003455240941337403 0.00027750234238058954 0.0
0.0010485064860238594 -0.0007453844775114287 0.0
0.002837048335416298 -0.0007823411568363343 0.0
0.0013422641939686453 -0.0008421082152617487 0.0
0.0025319365053848943 -0.0008829233703659316 0.0
0.0016541308873716967 -0.0009063736459132351 0.0
0.002226296824577053 -0.0009285391427342223 0.0
0.001921382595533877 -0.0009324228746386596 0.0
0.0030903924944244696 -0.0006808762249789807 0.0
0.0008204711627612615 -0.0006534461310267138 0.0
0.003280825708335234 -0.0005806899209388402 0.0
0.0006351847329900337 -0.0005562649263809885 0.0
6.570478380767938e-5 -1.2249897310100478e-5 0.0
0.0039324381821773564 -1.1465735303224356e-5 0.0
0.002136762526349607 0.00014768916611608186 0.0
0.002449132921553614 0.00014106533903034384 0.0
0.0017979185349480886 0.00016125521118735456 0.0
0.0015268219736503687 0.0001948068771432488 0.0
0.0034775361731522077 -0.00046422393973935934 0.0
0.00046720721546612837 -0.000449878531289211 0.0
4.565372297986762e-5 -2.219947667322759e-5 0.0
0.0039525461523719045 -1.944206413973983e-5 0.0
0.003903656132904365 2.8066912399303457e-6 0.0
8.817313823707098e-5 3.2296690374346024e-6 0.0
0.003628370654449137 -0.00035428636579552407 0.0
0.00032858231763020865 -0.0003394224894904879 0.0
0.002665477120530841 0.00012628711560243772 0.0
0.001354089259790028 0.00021020056433007278 0.0
3.422617889246738e-5 -2.410591390734375e-5 0.0
0.0039622516926972684 -2.2084794227717577e-5 0.0
0.0015223792323662835 -0.0008825397660644827 0.0
0.0017862782540909775 -0.0009225631533179942 0.0
0.00240167906660179 -0.0009091686115376478 0.0
0.0020592559290065035 -0.0009339850396237366 0.0
0.002662560431455552 -0.0008449129510670625 0.0
0.0029562733976121252 -0.0007403128044803226 0.0
0.0012250541082242119 -0.0008084961710363998 0.0
0.0009348719814120914 -0.0007062656219969481 0.0
0.003735626432098291 -0.00026628168352042217 0.0
0.00022896038002608423 -0.00025159254279831083 0.0
0.0038770801189110258 2.4582413102440093e-5 0.0
0.00011066107092724302 1.9938427205938076e-5 0.0
0.003968483875397002 -2.4947328217506017e-5 0.0
3.17662895665719e-5 -2.9417885994039727e-5 0.0
0.0027970459492082773 0.00012113936555471632 0.0
0.001263876385642715 0.00024555363701072214 0.0
0.003827444402465033 4.5928841874495956e-5 0.0
0.00015493968111970316 3.980043585055476e-5 0.0
5.5179123939543126e-5 -1.8584381651832008e-5 0.0
0.003942400141631726 -1.679135137858113e-5 0.0
0.0022936425961453738 0.00014985578767504423 0.0
0.001659586743018111 0.0001882772103324529 0.0
0.00012679676174585537 -0.00014548857471544536 0.0
0.0038590372984923164 -0.00015056893951685227 0.0
0.0027461557647914746 -0.0008206432419188777 0.0
0.002143828291987734 -0.0009350390970745752 0.0
0.0014377290189520552 -0.0008642414663003765 0.0
0.0011347544936555578 -0.0007816753571627393 0.0
0.0023167835271966425 -0.000919931048568461 0.0
0.00316483795530671 -0.0006447508801381064 0.0
0.0007460108708661234 -0.0006154370775749888 0.0
0.0033627495070953847 -0.0005361717419325697 0.0
0.0005603988017807682 -0.0005095069082358256 0.0
0.00039394439340062205 -0.0003935089198400466 0.0
0.0035533442589501638 -0.0004104977641302466 0.0
0.0007780716755638156 0.0002900326739803379 0.0
0.003316970870014861 0.00021963552822016821 0.0
0.003969314950149863 -2.9524098533257383e-5 0.0
2.763875719147311e-5 -3.0020754008318e-5 0.0
0.0012198427911355356 0.0003392759866870757 0.0
0.0029062098359389707 0.00016523760316160323 0.0
0.0001772807574234251 6.352730536246743e-5 0.0
0.003822545908693477 6.033427854429158e-5 0.0
5.53467266677983e-5 -6.530459917738471e-5 0.0
0.003937222908624287 -6.893993660106432e-5 0.0
0.0031045680203829642 0.00023979517998163772 0.0
0.0031723774197326784 0.00019532925074211213 0.0
0.003421362179142571 0.00015803400812276362 0.0
0.003279483620920042 0.000166191560046945 0.0
0.00308748444205478 0.00017915276379680547 0.0
0.0031577207056881725 0.00017317667010531454 0.0
0.003341179168823876 0.0001511141851934892 0.0
0.0032269287586798247 0.0001621442659914748 0.0
0.0033998344002965676 0.00013508502391644953 0.0
0.0032945932920382687 0.0001445555459110231 0.0
0.00313247079728275 0.00016718440438125154 0.0
0.003194743997098539 0.0001482855850557034 0.0
0.003055199605438389 0.0001661383631263659 0.0
0.0031056655556803473 0.00014563592544121517 0.0
0.0029785795985266413 0.00016072275581495386 0.0
0.003024147806944331 0.00013649865224523624 0.0
0.0020866733408637012 9.95566169156104e-5 0.0
0.0019628237546493966 7.929495654483702e-5 0.0
0.0020596994414332826 6.946100786988159e-5 0.0
0.0019590317806834527 5.4880561670696427e-5 0.0
0.0020438534625893297 4.644047812811891e-5 0.0
0.001957080704163561 3.51949446928137e-5 0.0
0.002033606877842676 2.686603404072188e-5 0.0
0.0019550611778129533 1.7048806269901104e-5 0.0
0.0020261224784368106 9.103303973416277e-6 0.0
0.0019533007541611036 1.7500087271194835e-7 0.0
0.0020204252294701553 -7.344540789316367e-6 0.0
0.0019519042358617706 -1.568922364906955e-5 0.0
0.0020160009649410286 -2.3335876996829845e-5 0.0
0.001952504129797955 -3.113747707265135e-5 0.0
0.002012523060323134 -3.8734786552902134e-5 0.0
0.001951471032098821 -4.630431063006284e-5 0.0
0.0020093479483084395 -5.377637785220545e-5 0.0
0.0019485337355212664 -6.120232688459567e-5 0.0
0.002006211381636147 -6.864612890799437e-5 0.0
0.0019470629254013298 -7.58972970962851e-5 0.0
0.002003570172476519 -8.344602669992413e-5 0.0
0.0019458466967682692 -9.058155013409083e-5 0.0
0.001999333623586107 -9.815088825180394e-5 0.0
0.0019443043112513882 -0.00010534800065727334 0.0
0.0019967641745239663 -0.00011298292513192439 0.0
0.0019438057490949266 -0.00011986706232611932 0.0
0.001994538718644619 -0.00012791987988118424 0.0
0.001939794798005703 -0.00013392776195731925 0.0
0.001991757955619511 -0.0001429632270855129 0.0
0.0019256109038647416 -0.0001491824472073812 0.0
0.001992528070306729 -0.00015851391031975585 0.0
0.0019367347073867105 -0.00016573729193470357 0.0
0.0019900045361142486 -0.00017414170119290555 0.0
0.0019372445326838834 -0.0001817859584149589 0.0
0.001988358675837546 -0.00019023264763123863 0.0
0.0019392202160833755 -0.00019801416057193435 0.0
0.0019864980756525348 -0.00020660282032121418 0.0
0.001938673746091956 -0.0002148370488627307 0.0
0.0018865162944458203 9.747531444657141e-6 0.0
0.0019846049847277907 -0.0002234437069296956 0.0
0.001889169796583839 -6.753728415512207e-5 0.0
0.0018759955408834859 -0.00016138378639434504 0.0
0.0019342315549279955 -0.0002318523361337064 0.0
0.0019823389188087393 -0.000240732375322419 0.0
0.0019298657885994577 -0.0002499495164119302 0.0
0.0018825421924920666 -0.0002393950195848781 0.0
0.0018769157535560243 -0.00025838135649432404 0.0
0.001978115595464083 -0.00025954862897785587 0.0
0.002031234642986806 -0.0002496620941913999 0.0
0.0020407175352898906 -0.0001658918693456328 0.0
0.002027307214225285 -0.00026903202247115324 0.0
0.0020836394172690136 -0.0002572744219180125 0.0
0.002077858353752993 -0.00027844155507991426 0.0
0.0018300898474486761 -0.0002473162818897974 0.0
0.001826365317064024 -0.00026595149495106614 0.0
0.002135894607679048 -0.00026562931319514216 0.0
0.001776554887856728 -0.0002542670556864327 0.0
0.00177588621551186 -0.00027383536403615 0.0
0.0021310529185677137 -0.00028706229242046174 0.0
0.0021872238013112173 -0.00027522538004317156 0.0
0.001722650724856449 -0.0002613419718077282 0.0
0.0017207187573448 -0.0002815108701808504 0.0
0.002183579528508227 -0.00029654273637015534 0.0
0.0022412765985088253 -0.00028398009219215173 0.0
0.00166896576972857 -0.0002684051236022394 0.0
0.0016665355713728735 -0.00028979795283543344 0.0
0.0022374737509655894 -0.00030642272358551533 0.0
0.002296658203715902 -0.0002925985528651599 0.0
0.001615679129060104 -0.0002743521706436754 0.0
0.0016096884320725392 -0.0002964181788759785 0.0
0.002293566270088675 -0.00031563655739245364 0.0
0.0023530155800508914 -0.0003010095792195561 0.0
0.0015571035084997547 -0.0002802982488031014 0.0
0.0015524990290379241 -0.00030364678277071237 0.0
0.0014968900039001223 -0.00028764452436054857 0.0
0.0015012003185144404 -0.000262918214249875 0.0
0.002228845244472607 -0.0003285699521652593 0.0
0.0023496307177051498 -0.0003249744015699967 0.0
0.002410208530980373 -0.00030926554593218024 0.0
0.002414572791575763 -0.0002846772521175916 0.0
0.00205340609716405 -9.142637308107447e-5 0.0
0.0024740104869351255 -0.0002924749410250396 0.0
0.002478877417885914 -0.0002669711970638448 0.0
0.0025401545555723422 -0.00027394351334187776 0.0
0.0014969387583865798 -0.00031289302222703896 0.0
0.0014388653883964607 -0.0002941846233572842 0.0
0.0015514907756470062 -0.0003287474608733931 0.0
0.00240506424888301 -0.00033450788276620177 0.0
0.0014396051871130794 -0.000320114969436223 0.0
0.0013808805412981835 -0.00029997278567426834 0.0
0.002077042645884208 -2.9785233120977045e-5 0.0
0.001381402499655929 -0.00032538479947040184 0.0
0.0013227963695349209 -0.0003049086855215483 0.0
0.001323487669381592 -0.00033096115019381437 0.0
0.0012656836525317967 -0.0003085823199698236 0.0
0.00126371819723537 -0.00028317687977892116 0.0
0.0012032421319863003 -0.00028755530846195725 0.0
0.0012021524654266687 -0.00026072135786338655 0.0
0.0012594896278690351 -0.0003343594751730142 0.0
0.0011372625523301519 -0.0002654021234455965 0.0
0.0011356819455371132 -0.0002379223712693326 0.0
0.001324633292846304 -0.00035853657336786405 0.0
0.0012701951855480945 -0.00036408110025244343 0.0
0.0010723468676666586 -0.0002404572815133538 0.0
0.001068625127197708 -0.00021369883946943435 0.0
0.002546765563330583 -0.000248133400566034 0.0
0.00261043915000008 -0.0002547442980886273 0.0
0.0013256218405628894 -0.00038647403078011304 0.0
0.0012718378296301376 -0.00039185126366885387 0.0
0.0026177933670948556 -0.00022814736321042763 0.0
0.002684473532614338 -0.0002349603190209705 0.0
0.002674336702462753 -0.000264117014177098 0.0
0.002748775916487673 -0.00024271927888678565 0.0
0.0027398329260659967 -0.0002725695515404444 0.0
0.002814271580452241 -0.000248847235617271 0.0
0.0028090354582000097 -0.00027844573432371126 0.0
0.0028858652298514977 -0.00025164603014456356 0.0
0.0028741685158510232 -0.00028187066119263556 0.0
0.00289111298781785 -0.00022328079859397992 0.0
0.0029521091644489983 -0.0002555108487246988 0.0
0.002936363028067068 -0.00028558564680375166 0.0
0.0013272018740127804 -0.0004149433612287515 0.0
0.0010019563508162463 -0.0002155614069168327 0.0
0.000996983942159529 -0.00018842214538339493 0.0
0.002864889271996925 -0.00031283293472396184 0.0
0.002924679257980413 -0.0003160416765764209 0.0
0.00299497927967533 -0.0002883603875456489 0.0
0.002858272641871181 -0.0003444238037863991 0.0
0.0012746568385698378 -0.00042050077389902096 0.0
0.0029834435158488997 -0.00031830481649389235 0.0
0.0030521429939543406 -0.0002898824715549121 0.0
0.0013286199533569635 -0.00044422302251963854 0.0
0.001277044842325625 -0.0004499792038913206 0.0
0.001223927320088471 -0.00042530363136668623 0.0
0.0030400176945473956 -0.00031936216622640266 0.0
0.003107821843390836 -0.0002898745321915392 0.0
0.0013298501479142247 -0.000474402818891339 0.0
0.001380898793288528 -0.00046821135366010517 0.0
0.0012268819186067857 -0.00045502376951088116 0.0
0.0011742368569745312 -0.0004295301169357558 0.0
0.0030935650416014037 -0.000319413748605241 0.0
0.003162886406011423 -0.00028873213524009743 0.0
0.00317637452937751 -0.00026013762541719033 0.0
0.0030254828860634426 -0.000350211418299971 0.0
0.0032315491076617734 -0.00025796315930755765 0.0
0.003246883800806868 -0.00023008696273455528 0.0
0.0009263498416979073 -0.00019015032654564503 0.0
0.0009251458481089222 -0.00016218936257343645 0.0
0.0010098965603829253 -0.00016200991110682054 0.0
0.0009213759483080249 -0.00013473376339454747 0.0
0.0010027858662012739 -0.00013044196496853636 0.0
0.0009168088351046689 -0.00010600726572320417 0.0
0.0009960417465665749 -0.00010019297643944219 0.0
0.0013819854199102661 -0.0004986903156703066 0.0
0.0014318121985443248 -0.0004919034298279954 0.0
0.0011774946264260077 -0.00045948767182148957 0.0
0.0011253273491079298 -0.0004331025701738355 0.0
0.0032171246181718965 -0.00028652987020732644 0.0
0.0009207805644785864 -7.731788060416536e-5 0.0
0.0009958036035958395 -7.014252041152586e-5 0.0
0.0014329248667824142 -0.0005224200467820351 0.0
0.0014815989760076766 -0.0005154532177157049 0.0
0.0017281102601206895 -0.0003010487629960546 0.0
0.003285131708395223 -0.00025482739305036835 0.0
0.002112380124539039 4.0925335526839885e-5 0.0
0.0021980577825453287 0.00013488039343822602 0.0
0.0018892524340153765 -0.00011192068097322257 0.0
0.0026889359595591235 -0.00020772150209602273 0.0
0.0009138769303504617 -4.663262490962379e-5 0.0
0.001001512268165834 -3.879383699141643e-5 0.0
0.0011290261792622986 -0.0004632765705262247 0.0
0.001077596638608534 -0.0004362034131362994 0.0
0.0014834075062861774 -0.0005461221661724009 0.0
0.0015317034850448185 -0.0005388186999232143 0.0
0.0032693218841075306 -0.00028305231695624635 0.0
0.0008517695715368226 -0.0001639923601899205 0.0
0.0008552539490590324 -0.00019209877389563513 0.0
0.0008265352053528395 -8.111474210713574e-5 0.0
0.003336956478946581 -0.0002505507377590871 0.0
0.0009132870174113808 -1.7052053788438546e-5 0.0
0.0010016395094128304 -6.445417549826009e-6 0.0
0.001435427982356811 -0.0005538903264708742 0.0
0.0010819589525982002 -0.0004667833678326982 0.0
0.001030795639217675 -0.0004385642121973564 0.0
0.002622515044434444 -0.00020147404397370599 0.0
0.0026967814341233584 -0.00018022311703231347 0.0
0.002626407012967638 -0.00017410457006964601 0.0
0.0027048766723198722 -0.0001525872619094825 0.0
0.001532821229604966 -0.0005693749390448684 0.0
0.0015815800248604292 -0.0005609070703265699 0.0
0.001673623437562237 -0.00024925856036432984 0.0
0.0009124846320392247 1.2047992609762297e-5 0.0
0.0009988032548977357 2.5156979328628684e-5 0.0
0.0033215103701354234 -0.0002778674889038313 0.0
0.003260478504149117 -0.00030809154893513327 0.0
0.0008927728688262741 4.3120045735679194e-5 0.0
0.000992927834164476 5.783210778805669e-5 0.0
0.003386878403525198 -0.0002455298588079661 0.0
0.003395271561560498 -0.00022499224308893156 0.0
0.0009032365781615432 7.283214205188819e-5 0.0
0.0011316257469565461 -0.0004969029477402454 0.0
0.0015818685554986878 -0.0005923034484011467 0.0
0.0016302982576719795 -0.000582526466011401 0.0
0.0016307241555316816 -0.0005514112961891595 0.0
0.0016793957272924678 -0.0005722813746448375 0.0
0.0016803153237702902 -0.0005415408518978444 0.0
0.0017292395286980906 -0.000561569830735796 0.0
0.001730473439765394 -0.000530797218718467 0.0
0.0017801508960020944 -0.0005502561063887078 0.0
0.0017818327128685469 -0.000519638214800483 0.0
0.0018319236350223908 -0.0005382160993541772 0.0
0.0018301758650873772 -0.0005696279028650959 0.0
0.0018817229101647489 -0.0005567691003313785 0.0
0.0018796726872154028 -0.0005886738459132753 0.0
0.0019310009957948188 -0.0005749659741080481 0.0
0.0019283261601298863 -0.0006074157330179813 0.0
0.0019800837012921724 -0.0005927669741115172 0.0
0.0018342061136995952 -0.0005078508207233889 0.0
0.001982813864916777 -0.0005604479378642767 0.0
0.002032569093222035 -0.000577224062688317 0.0
0.0020290864009906567 -0.0006106279368622874 0.0
0.002082228462989874 -0.0005942305067407469 0.0
0.0007792253222428562 -0.00016477686322500116 0.0
0.0007823645475856449 -0.00019256996370415702 0.0
0.0010354855634389717 -0.00046923883503453265 0.0
0.0009853350875547388 -0.00044052412828790675 0.0
0.002086319175469377 -0.0005611148089713197 0.0
0.0021359641310041456 -0.0005768629808889389 0.0
0.0021311331323479897 -0.0006106571088617157 0.0
0.0021858211084579875 -0.0005921812625042739 0.0
0.0007083129786557923 -0.00016454858018946636 0.0
0.0007115274264229408 -0.0001915764913714831 0.0
0.002630759880876694 -0.0001456599222895002 0.0
0.0027143660096617204 -0.00012417372849619896 0.0
0.0026377393481524947 -0.00011715472998545848 0.0
0.003373031063207778 -0.00027088159146098967 0.0
0.003435829786186913 -0.00023900330897431624 0.0
0.00163034482183914 -0.0006148766136089826 0.0
0.0010906316328834352 -6.788462230030303e-5 0.0
0.0020757922401132994 -0.0002979962979746904 0.0
0.0021801787028882216 -0.000626565321455588 0.0
0.002235025092902031 -0.0006070657174983513 0.0
0.0022396501310031915 -0.0005726978068214313 0.0
0.0022898500741842915 -0.0005862477752010571 0.0
0.0021937019926938695 -0.00025266750989171483 0.0
0.002728441456980979 -9.488275932805274e-5 0.0
0.00279960934897864 -0.00010704495526568382 0.0
0.0009946769729543188 9.053727702005208e-5 0.0
0.0009898322542668263 -0.00047093850704581664 0.0
0.0009406417383542151 -0.00044161861447105554 0.0
0.0026469690921066547 -8.75600064349141e-5 0.0
0.00228388751934861 -0.000621536142874152 0.0
0.0023396221611365277 -0.0006002643043610538 0.0
0.002345521663424376 -0.0005650233959973348 0.0
0.0023964638579808966 -0.0005782750428043448 0.0
0.002403512285688966 -0.0005439866784973511 0.0
0.0024536599764629777 -0.0005554365330549142 0.0
0.0024454598891850143 -0.0005900739276715758 0.0
0.002502108580297547 -0.0005659145343536572 0.0
0.0009003625123135481 0.00010053254000603841 0.0
0.0006396376641288005 -0.00016312771034486165 0.0
0.0006425123254714199 -0.0001889039620210661 0.0
0.001583388404798409 -0.0006249618910569661 0.0
0.0034197291177876007 -0.0002653462472907244 0.0
0.0034826771695634943 -0.00023167667750634583 0.0
0.002492558948138693 -0.0006006979388259329 0.0
0.0025484284735884165 -0.0005753886546476531 0.0
0.0009971009561493482 0.0001215243854555421 0.0
0.0009457409617000101 -0.0004721249228610069 0.0
0.0008965152734383059 -0.0004416571865488687 0.0
0.0010870964904546145 3.826757284146038e-5 0.0
0.00314979996659663 0.00012146968454709056 0.0
0.0016304471656229285 -0.0006480664350055405 0.0
0.0008988245959322147 0.00012574459773584965 0.0
0.0008327791483129697 -6.135711047052152e-7 0.0
0.0034607742330794973 -0.0002644132500370458 0.0
0.0035279286773087005 -0.00022410037811050666 0.0
0.0035452057580065157 -0.00019846503890404897 0.0
0.000806694958749902 8.060087638093881e-5 0.0
0.003394604902020529 -0.0002966466222946211 0.0
0.0006323071380002436 -0.0001375254491611702 0.0
0.0009906863496702899 -0.0005000111947689145 0.0
0.002742150439835039 -6.464721662300749e-5 0.0
0.0026578514903227257 -5.691978150327538e-5 0.0
0.0024621023501990224 -0.0005217518121159614 0.0
0.0009021562946110214 -0.0004729087139910345 0.0
0.0008530237418583797 -0.0004415170296937429 0.0
0.0005730768324475553 -0.00016033656189434634 0.0
0.0005755087728768427 -0.00018445169345463172 0.0
0.00107363774735469 -0.00040733972256700514 0.0
0.0025374987284905027 -0.0006101838719420533 0.0
0.0025927774420124797 -0.0005834616779795333 0.0
0.0008472595331580579 -0.00041091973479409345 0.0
0.0008035804389790648 -0.00040986379697464633 0.0
0.0024853409743318716 -0.0006338971828627973 0.0
0.0015852359834773496 -0.000658473795406301 0.0
0.0008102463405165552 -0.00044097498458293825 0.0
0.0007609675570341342 -0.0004084212881846712 0.0
0.0016802843814772784 -0.0005121644432680622 0.0
0.003590750901835403 -0.0001893405091342606 0.0
0.0036078348594594575 -0.00016650690030009947 0.0
0.003574143291436452 -0.0002139555448978721 0.0
0.0025803223714484496 -0.0006178579951423666 0.0
0.0026353459293904013 -0.0005900560084648506 0.0
0.0024101862653249594 -0.0005105749787787185 0.0
0.0024700003232476044 -0.0004890288442511192 0.0
0.0016310533413990474 -0.0006819640554985683 0.0
0.0026482928392751984 -0.0005562232836774389 0.0
0.0026911235709632495 -0.0005623102770673212 0.0
0.0005076480375318254 -0.00015515754143905636 0.0
0.0005127709411541567 -0.00017850359971977172 0.0
0.0026774414232710354 -0.0005969039996091249 0.0
0.0027324112546161265 -0.0005682288554274543 0.0
0.0007690776775520606 -0.0004401068446925925 0.0
0.0007197162050615546 -0.00040657166986856903 0.0
0.002756226645194303 -3.341665183569552e-5 0.0
0.0026710176506495793 -2.521983724097175e-5 0.0
0.0007110959085503995 -0.00037633976146429245 0.0
0.0006696768007091056 -0.0003732074981195544 0.0
0.0006780479459303397 -0.00040391831153992793 0.0
0.0006282653112220175 -0.00036960563194959233 0.0
0.0036348137239258036 -0.0001792239828265447 0.0
0.0036177906057764725 -0.00020379492693761055 0.0
0.0009950802439078188 0.00014773398948700667 0.0
0.0008884558549142181 0.00014694928124281049 0.0
0.002560799262797913 -0.00010891045127500573 0.0
0.0015870305075808312 -0.0006926737053598119 0.0
0.0027184428713497347 -0.0006040613155060936 0.0
0.002772396998122528 -0.0005741517733923614 0.0
0.0028992220755761897 0.00015109552136826618 0.0
0.002704816122011084 -0.0005286357424844246 0.0
0.00187784736243139 -0.0006214870916996355 0.0
0.0006185168547985396 -0.0003403873365015905 0.0
0.0005783256553588408 -0.00033530466429075275 0.0
0.0005882878167483207 -0.00036566035588461986 0.0
0.0005382008399721772 -0.00033005874114874756 0.0
0.0005282545219601612 -0.0003014307214578346 0.0
0.00048690843755988024 -0.00029502912648260275 0.0
0.00047665217295640277 -0.0002670268836854765 0.0
0.0004347213310830289 -0.00025919667657941164 0.0
0.0004245260954209895 -0.00023297700238385395 0.0
0.00038496016165372204 -0.0002245536759519632 0.0
0.00037411883906922876 -0.00020039164582076193 0.0
0.0003943673285493566 -0.0002499790180126221 0.0
0.0003403438919931002 -0.0002098586991596099 0.0
0.0004468744023996409 -0.00014884610170662089 0.0
0.00044548640598472407 -0.00012807227843365291 0.0
0.00035454923027191846 -0.00023953820645687988 0.0
0.0003051741685374729 -0.00020253874419787215 0.0
0.0010932882066227926 0.00014087466656905457 0.0
0.001189857371742157 -0.00023141531813996943 0.0
0.0024171377262529594 -0.00047833087809503024 0.0
0.0024769920483559272 -0.00045734346738345483 0.0
0.0007104772062498783 -0.0002169460196293105 0.0
0.0016316118637390046 -0.000716731560714579 0.0
0.001675989039929835 -0.0007054214622018587 0.0
0.0025302339529074016 -0.00046691444556472576 0.0
0.0025376622282312546 -0.0004354024525708027 0.0
0.003677274203042397 -0.0001680553432046578 0.0
0.0036576302059409763 -0.00019372239357881108 0.0
0.003599452790220128 -0.000232322052110549 0.0
0.0025724481386675967 -4.8994756293787076e-5 0.0
0.0025846508465508155 -1.7345516800801278e-5 0.0
0.0015415775522464124 -0.0006684233908717526 0.0
0.0015436221270109115 -0.0007027225381248671 0.0
0.0014988557189106288 -0.0006780515126872548 0.0
0.0005502390307498452 -0.0003613359624890196 0.0
0.0026854961641093263 7.483679970239565e-6 0.0
0.002598551344136502 1.6206216764384735e-5 0.0
0.0010729104636109854 -0.00026914352679173047 0.0
0.002757462343417555 -0.0006111427902355749 0.0
0.0028115892977384643 -0.00058007210154304 0.0
0.00282710299218199 -0.0005445784757719621 0.0
0.0028660731032703604 -0.0005493146411437633 0.0
0.0010182867707306626 0.00017267736533427232 0.0
0.0008908407187767052 0.00016651326431374122 0.0
0.0014790272248319963 -0.00048607600044078743 0.0
0.00270483899455344 -0.0006419370927726567 0.0
0.003346480125662465 0.0001237377373257168 0.0
0.002849953485288428 -0.0005870626625501136 0.0
0.0029048331548136 -0.0005550110209640717 0.0
0.002920961052941478 -0.0005183154499745246 0.0
0.0029602443992131234 -0.0005228995365718289 0.0
0.0029772185827170606 -0.0004867494531782549 0.0
0.00301600610679716 -0.0004903919325578698 0.0
0.002998595204789057 -0.0005283000887705625 0.0
0.0030537407533152462 -0.0004947206173053608 0.0
0.0003164663594461415 -0.00022673539705704422 0.0
0.00026839356700135355 -0.00018928800720788625 0.0
0.00025117630047033664 -0.00016334975964014468 0.0
0.0016763940115186353 -0.0007406622706925688 0.0
0.0017189702641051995 -0.0007302500523867213 0.0
0.0015015057433681897 -0.0007125160789054083 0.0
0.0014569098692919608 -0.0006870863524780955 0.0
0.0036368549151261343 -0.000224088558533361 0.0
0.003694191544976997 -0.00018402991411198334 0.0
0.0028569414703922187 0.0001724643502121608 0.0
0.0027813002952897857 0.00016270262205683592 0.0
0.000773344772301283 0.00013965204214813707 0.0
0.0007732234403746658 0.00015644197635063622 0.0
0.0003665248541439269 -0.0002678098768592108 0.0
0.00138086884891299 -0.00038047426835797143 0.0
0.00254069520000149 -0.00016987387691733648 0.0
0.0035803462399027256 -0.0002648533516009265 0.0
0.001078294844640643 -0.00012030371726337916 0.0
0.0024870410497833694 -4.155214016384358e-5 0.0
0.003034883261672873 -0.0005345970006270627 0.0
0.003089846905368204 -0.0004998323393492288 0.0
0.0030499303908506263 0.00010903134891227251 0.0
0.003191312199141589 9.474842711820503e-5 0.0
0.0010040167427606194 0.0001904293953994668 0.0
0.0005773903158618632 -0.00020831293036694816 0.0
0.0003780233026644985 -0.00011988933550856246 0.0
0.00037788281971409175 -0.00010106754953155997 0.0
0.0005982593373973597 -0.00039769042404578755 0.0
0.0028914309136336513 -0.0005947650545584593 0.0
0.002342670440645976 -0.000349495192748382 0.0
0.0021270491434698556 -0.0006455216012294517 0.0
0.001333729281540732 -0.0005040792283097196 0.0
0.0002797356340710858 -0.000212977331611601 0.0
0.00023334549846428887 -0.00017492656253968982 0.0
0.0008182540703687715 -0.0004737376328022164 0.0
0.0025916514289846026 -0.00044392016714434664 0.0
0.002599559789234996 -0.00041276177112207026 0.0
0.0015440859702693906 -0.0007383969581615398 0.0
0.0031121250408350965 7.876338282343444e-5 0.0
0.003233103627142959 6.824223485355239e-5 0.0
0.0031590146803764326 4.980978151575959e-5 0.0
0.003276288952812155 4.150497402526455e-5 0.0
0.0033479932441848044 5.811119106063903e-5 0.0
0.0033902724003486225 3.3965576339447634e-5 0.0
0.0033176008927662537 1.5052658677142982e-5 0.0
0.003427860561445282 1.0434176258285106e-5 0.0
0.003355880559123252 -1.0042007790934735e-5 0.0
0.00346397030916816 -1.1388124961879931e-5 0.0
0.0033939004504551142 -3.3649639801091144e-5 0.0
0.003497450412745867 -3.124038922736189e-5 0.0
0.0034293607213080096 -5.536290481457386e-5 0.0
0.003529375985632565 -4.9146059521640336e-5 0.0
0.0033215569894463567 -6.0325061153977494e-5 0.0
0.003463071130556251 -7.434994942532832e-5 0.0
0.0035571103514900502 -6.543174953469056e-5 0.0
0.003463624176601917 4.742784517902443e-5 0.0
0.0007959955125718655 -0.0003797380133017686 0.0
0.0007781319849011117 -0.00047331101360154797 0.0
0.0008255053835279975 -0.0005073191226545532 0.0
0.003495182179458131 -9.102372623919684e-5 0.0
0.003584475086398435 -7.91820451849793e-5 0.0
0.0034059310113576033 -0.00010100840019679914 0.0
0.0021744387495629953 -0.0006618741340818261 0.0
0.002121972861230482 -0.0006809275254964648 0.0
0.002168354100149997 -0.0006977598962102475 0.0
0.002117454448722317 -0.0007171097164746348 0.0
0.002162391453505535 -0.0007344100557099605 0.0
0.002113599764525441 -0.0007540476815784706 0.0
0.0020687082771369994 -0.0007360218222834741 0.0
0.002065897251734106 -0.0007728934977042724 0.0
0.0020222243845135386 -0.0007540175015918971 0.0
0.0018537438667842938 7.193851651101247e-5 0.0
0.0021569746683877304 -0.0007720717700077832 0.0
0.0022052038205009 -0.0007513053610145796 0.0
0.0018196624192206535 -0.0002862907250693855 0.0
0.0017834069455913623 -0.0004900085189948657 0.0
0.001836488486582726 -0.0004784805956638402 0.0
0.0017850110913184697 -0.00046132212446491685 0.0
0.0018387444810664497 -0.00045010825913074844 0.0
0.0017866973794180986 -0.0004336243799498672 0.0
0.0018410127613078012 -0.0004227794950145057 0.0
0.0018932890325428224 -0.0004384230457240076 0.0
0.0018960387582682247 -0.00041148997490810744 0.0
0.0019485509421170086 -0.0004263232281172035 0.0
0.001951602842846145 -0.0003997681725697107 0.0
0.0020020267265291212 -0.0004137138818816594 0.0
0.0018989197587535298 -0.00038480302413611457 0.0
0.001788477625344597 -0.00040688516703998493 0.0
0.001734009374477853 -0.00041698323239370975 0.0
0.001998484568542452 -0.00044136010522622727 0.0
0.002054766388920883 -0.0004262840457947171 0.0
0.0007870188996914313 -0.0005074272517749986 0.0
0.0018865760344010782 -0.00018967780003893684 0.0
0.0018892454834804327 -2.4275838417247277e-5 0.0
0.002140857675574967 -0.0005443534849838462 0.0
0.0036941887567062508 -0.00014674059189496592 0.0
0.0037345936185356884 -0.000135169051958028 0.0
0.0020667252383894698 -6.037475935181285e-5 0.0
0.0020486827465727797 -0.00011843452216287004 0.0
0.0029368065763743785 -0.00048364569407580675 0.0
0.0025294112853670404 -0.0003003735456319814 0.0
0.0036744308694531564 -0.00021367682684861843 0.0
0.0037287909191618665 -0.00017378865027328934 0.0
0.002039003756853048 -0.00019885749472641447 0.0
0.001459968394778967 -0.0007219163504314614 0.0
0.0014155948030137445 -0.0006958237383603809 0.0
0.002093205527528521 2.4941988842786937e-6 0.0
0.002019535239583599 -0.0007909592226921013 0.0
0.0019757704472426352 -0.0007698073015539201 0.0
0.001412612230385401 -0.0006614104920777506 0.0
0.0013708871734312233 -0.0006695170069353355 0.0
0.0013677266664097985 -0.0006354584849768947 0.0
0.0013258064071972457 -0.0006428398863795533 0.0
0.0013297715927499318 -0.0006773622952915478 0.0
0.0012848708188196419 -0.0006499345606727521 0.0
0.0012892206412688722 -0.0006848773522946876 0.0
0.0012443696355430376 -0.0006567576425169989 0.0
0.0005625764355886666 -0.00039430860934034273 0.0
0.0037511912807496823 -0.00011654885845665119 0.0
0.002699565267565505 4.108995291558312e-5 0.0
0.0026103730503840334 4.920471413151525e-5 0.0
0.0012236848996834808 -0.0003697769191363332 0.0
0.0009857367553092627 -0.0004111670010820907 0.0
0.0036170264226641287 -4.474417459376959e-5 0.0
0.003568658360065073 -1.3289181113236133e-5 0.0
0.0017185165744324235 -0.0007652476761401726 0.0
0.0017621481107934975 -0.0007537134550548224 0.0
0.0027423481766963255 -0.0006502832569218777 0.0
0.0005216890087464677 -0.00027391487310058114 0.0
0.002300758855148717 -0.0002706474936362434 0.0
0.0025122366116482964 2.3707052485482295e-5 0.0
0.0025229720743798227 5.65364417446063e-5 0.0
0.002994729760658669 -0.0004526137416962509 0.0
0.0030630756994370835 -0.0002607880852164922 0.0
0.0031093651337405865 -0.0004615485582621492 0.0
0.003146150867562754 -0.0004646756518759524 0.0
0.0031244764323368444 -0.0005060371464535984 0.0
0.0031815429100265206 -0.00046916646262512004 0.0
0.0017859590138382803 -0.00023582952580312577 0.0
0.0006079986174680261 -0.00043079376763020897 0.0
0.002002109118706721 -0.0003867924668740407 0.0
0.0032451531015467413 -1.0071572888179206e-5 0.0
0.001728103083205485 -0.000696126863851476 0.0
0.0008321214944248235 -0.0005415050373538133 0.0
0.0008707812944818458 -0.0005411749100957393 0.0
0.002691337895043959 -0.0006815593489516566 0.0
0.0013218500838098083 -0.0006093953991939425 0.0
0.002423343448655449 -0.0004472345597019778 0.0
0.002363800203063295 -0.00046697919991805863 0.0
0.003708998522594428 -0.00020378171554213622 0.0
0.0037630639389660383 -0.00016195948890772714 0.0
0.003780777995029557 -0.00013748990664684958 0.0
0.001125756630530425 0.0001970512468448612 0.0
0.000244798083277211 -0.0001975422687947036 0.0
0.0001993394313552296 -0.0001581267495652896 0.0
0.00019273874932250652 -0.0001413659289631501 0.0
0.002741725622984703 0.00018125653086396113 0.0
0.0028116402338613103 0.0001853153945695853 0.0
0.002668548293313451 0.00017165376946961657 0.0
0.002842102983754219 -4.1815073587905076e-5 0.0
0.00352639132466744 -0.00010387504357314548 0.0
0.003613828702311023 -8.944391079699635e-5 0.0
0.0014191588641693132 -0.0007311261862258707 0.0
0.0027829305449741755 -0.00015846362470331622 0.0
0.0006535347928742801 0.0001277075099671839 0.0
0.0006465904268559209 0.00014056347439668525 0.0
0.0007741888959291744 0.00017079650656872598 0.0
0.0006357999010310265 0.00015057214187162756 0.0
0.000815413591087538 0.000192227302677928 0.0
0.001973956498035558 -0.0007323341565819392 0.0
0.001239073366428309 -0.0006223961029482566 0.0
0.001199626534222614 -0.0006285727926747215 0.0
0.0012047276350092282 -0.000663377045472035 0.0
0.0011604554693224218 -0.000634601317728553 0.0
0.0032017038016715705 -0.0004298515145426301 0.0
0.0032369701224727473 -0.00043330226869653745 0.0
0.003216816073199445 -0.00047444557845971425 0.0
0.003270938519808214 -0.0004374964439430759 0.0
0.002544058523705809 -0.00040449884249696823 0.0
0.002606797245108908 -0.00038259128408184577 0.0
0.002199254252958731 -0.0007893645488602573 0.0
0.00224643526234074 -0.00076750407195691 0.0
0.0017354995912493064 -0.0003905411827889719 0.0
0.0016807573745337334 -0.00039998985985137024 0.0
0.001671055646460053 -0.000777717026615985 0.0
0.0011656361339709162 -0.0006692386353184255 0.0
0.0011222098674316763 -0.0006402267035039769 0.0
0.003542475460915231 -0.0002720282292142706 0.0
0.0035228558189252966 -0.00030704476229283196 0.0
0.0034864547731296995 -0.0003124384973089731 0.0
0.003471837862924908 -0.00034588657257753937 0.0
0.001761255661488545 -0.0007915521018085609 0.0
0.0002871693715548773 -0.00023621657832017054 0.0
0.0004171389422099752 -0.0002094145870592265 0.0
0.0003608038082827765 -0.00017656811134533578 0.0
0.000307888479859382 -9.215818017690945e-5 0.0
0.0003040772181470886 -7.52700860915808e-5 0.0
0.000378543036254842 -8.219390772017183e-5 0.0
0.00030193170314514933 -5.882073492366228e-5 0.0
0.0003793523156965877 -6.29481947034983e-5 0.0
0.00030018526143057734 -4.250880248036047e-5 0.0
0.00038155639126094554 -4.35408869087951e-5 0.0
0.0035596591645344496 -0.00030083294747399906 0.0
0.0011535018223408297 -0.0006008555879981871 0.0
0.002952866399158416 -0.0004512802035045339 0.0
0.0026534836929845806 -0.0006710232931428274 0.0
0.002641192144297044 -0.000712566822227769 0.0
0.0026040849331193856 -0.0007014628875734909 0.0
0.001974268945562803 -0.0008076965997311473 0.0
0.002769252938368807 2.8707939878218813e-5 0.0
0.0032509607205744536 -0.0004802677175730112 0.0
0.003814969724589875 -0.000123620880665446 0.0
0.0037962943828563633 -0.000148714455752819 0.0
0.0011100100508500677 0.0002092508500984166 0.0
0.002690352872390474 7.123999951421715e-5 0.0
0.002090187004697732 -0.0005292890559765492 0.0
0.002144380573060319 -0.0005129817689657346 0.0
0.002064794957235961 -0.0008111169965661664 0.0
0.001930901709232731 -0.0007855944124064279 0.0
0.0008647440690466078 -0.00022413925381321818 0.0
0.003668240586775968 -6.708266595142365e-5 0.0
0.003695519802380016 -7.437186836120451e-5 0.0
0.0036402473446352866 -9.763473760033489e-5 0.0
0.003718694196949464 -8.077567998889851e-5 0.0
0.003077728198705844 -0.0003495598973730999 0.0
0.002327679102377952 -0.000637081966213374 0.0
0.002369301571373602 -0.0004366600124874755 0.0
0.0017300945199597159 -0.0005936595199253331 0.0
0.0024812160003991287 -0.00024159844887847913 0.0
0.002653939263301007 -0.00042039531121341805 0.0
0.0026607323456515394 -0.0005236182800997334 0.0
0.002718163514260286 -0.0004963470975517765 0.0
0.0026913063034940477 0.0001892904775252463 0.0
0.002776530772929507 0.00018793209515278523 0.0
0.0008766046073309693 -0.0005756390941069156 0.0
0.0009135823657544664 -0.0005741975113676067 0.0
0.0002990969623027415 -2.621867449868141e-5 0.0
0.00038094688603481237 -2.4140681743703038e-5 0.0
0.00046564195093468764 -4.227464464407339e-5 0.0
0.00046805818190754364 -1.942245185018072e-5 0.0
0.00038259477848879355 -5.27420890939241e-6 0.0
0.00047382634777297464 2.907612646187873e-6 0.0
0.0003860769110567605 1.278711475171375e-5 0.0
0.00048250087774360763 2.48062394439931e-5 0.0
0.00038974810779947495 2.9990752015398486e-5 0.0
0.00021131177654327602 -0.00018048820347656768 0.0
0.002309972328250469 -0.00045516872276583415 0.0
0.00016727121811722914 -0.000140466356425901 0.0
0.0007953877533176752 -0.0005421950272960041 0.0
0.003792205946248722 -0.00010352941057176627 0.0
0.0018874075900491365 -0.0004955090205618052 0.0
0.0024270745689144563 3.06029577709081e-5 0.0
0.0024419716216850353 6.573474518279183e-5 0.0
0.0004902479671545281 4.6105692384352976e-5 0.0
0.0005740912776999199 -0.00042828997744516923 0.0
0.000529401700795393 -0.0003909859146633896 0.0
0.0012102142049103945 -0.0007049439213744972 0.0
0.0027231072823851593 -0.0006935352327749464 0.0
0.0014627265338860455 -0.000757848248092197 0.0
0.0033043751108531253 -0.00044189557349185707 0.0
0.0038323173411983404 -0.00010318523258175161 0.0
0.0016795965164130152 -0.0004268753432669242 0.0
0.0016266279672976038 -0.0004089690832669259 0.0
0.0016256372329434689 -0.00043638412477749536 0.0
0.0012179047856042983 0.00021193065396276126 0.0
0.0015757436833484602 -0.00041767466959063585 0.0
0.000317748229272744 -0.00011105686340628426 0.0
0.00223956133704036 -0.0008063344973812908 0.0
0.0022865645642437624 -0.0007831421309682129 0.0
0.002294320084702226 -0.0007448795284907193 0.0
0.0023337442577484237 -0.0007592512020058414 0.0
0.0027631108019537426 -0.000500839376371031 0.0
0.002777341221868362 -0.00046830211319201016 0.0
0.0038069219686259767 -8.847445677344537e-5 0.0
0.0037644801335496333 -0.00010081551308677255 0.0
0.0025529259388201234 9.435078499639837e-5 0.0
0.0024597965051170244 0.0001039956102449234 0.0
0.0007512009358113977 -0.0005076859251139168 0.0
0.0011276183968560668 -0.0006750874881488469 0.0
0.001085014274961495 -0.0006456879356003715 0.0
0.0019715370757749902 -0.0002800139798698995 0.0
0.003198122094140751 -0.000518431896569224 0.0
0.00039477528352165883 4.63925265884681e-5 0.0
0.0010785140468754012 -0.0006107344338253959 0.0
0.002324877479791519 -0.0007983498688411369 0.0
0.0023712406963571566 -0.000773107786551068 0.0
0.002314248975568939 -0.0004263007888557787 0.0
0.002255967920817991 -0.00044297346319818726 0.0
0.0022598317505070024 -0.0004149934871828571 0.0
0.0020837720736353277 -0.00023949554992976798 0.0
0.0003124677229802691 -0.00016519649116126034 0.0
0.00017924969929641196 -0.00016202059775103443 0.0
0.002342960884890918 -0.0007215041436111244 0.0
0.002400669360653328 -0.00035998882652448036 0.0
0.0019302566961411952 -0.0008238492987754573 0.0
0.000781478604838287 -0.00013754033144090092 0.0
0.0013824394402485796 -0.0002765692216246938 0.0
0.0006177453276536029 -0.00046652653995460407 0.0
0.0033246830718929926 -0.0004012503752767831 0.0
0.0008433138839456616 -0.0003815397554386666 0.0
0.0007889920600297043 -0.0003502507928111661 0.0
0.0008404796298354469 -0.0003525124601994861 0.0
0.0007840471947272113 -0.00032159530507514547 0.0
0.0008369884266479066 -0.00032386521626132016 0.0
0.0007321014670957676 -0.0003186813041999519 0.0
0.002592408423585153 -0.0007433806078340452 0.0
0.00255862339458192 -0.0007311140817157347 0.0
0.0005218184152847674 0.0001086454187720347 0.0
0.001974389195045768 -0.000845866166374599 0.0
0.0019254309415466615 -0.0006407839577372709 0.0
0.001875778165333985 -0.0006550096729450654 0.0
0.0009200231315152827 -0.0006093255465653795 0.0
0.00024576478241027626 -8.197967583109621e-5 0.0
0.0002603269372002383 -0.00010223625877758862 0.0
0.003558659131197493 -0.0001762116330782692 0.0
0.003623142154976042 -0.000145841862167746 0.0
0.0005537297016150772 -3.812974118195749e-5 0.0
0.0009564032280323852 -0.0006065168258457829 0.0
0.000952421042235151 -0.0005742255388668648 0.0
0.0009627835261649917 -0.0006421717285906095 0.0
0.0008843917305713118 -0.0006115129945408383 0.0
0.0006496061474495134 0.00016780086126618555 0.0
0.0014961259094035493 -0.000644534438750803 0.0
0.0023047887190297926 -0.0004859912577716676 0.0
0.003569917258171481 -0.00015554032669657747 0.0
0.0021935256628057686 -0.0008287801805967085 0.0
0.0014219346482504008 -0.0007676316112065678 0.0
0.00384598210765159 -0.00010996311720251031 0.0
0.0038268977059785153 -0.00013571363821754298 0.0
0.0012404737668663048 0.00019993414236490106 0.0
0.0010916230337668213 -0.0006816056090130077 0.0
0.002549630027886907 -0.00037345553959715826 0.0
0.002617711399604434 -0.00035205763243126775 0.0
0.00041021166603397163 -0.0001866570589986506 0.0
0.0005412759053191843 -0.00042499766944958337 0.0
0.000498004894347326 -0.0003876674593522805 0.0
0.0004852735896445081 -0.00035493329364242124 0.0
0.0007600615301889593 -0.0005428144754718816 0.0
0.00013651263291209704 -0.00012131959759067266 0.0
0.00012713906582455535 -0.00010520257010272797 0.0
0.002361321980566115 -0.0008133361366119183 0.0
0.002406813564548766 -0.0007868681435573703 0.0
0.0024161559381946874 -0.0007456382709316249 0.0
0.0032574717034287077 -0.00039535617131360217 0.0
0.0032207313387893487 -0.00039382836446401017 0.0
0.003230815002574266 -0.0005261917456372272 0.0
0.0007264081560950189 -0.000290822783581935 0.0
0.0006756817261872523 -0.0002882448888178672 0.0
0.002673373923915922 -0.0003598323715796786 0.0
0.0037699960178051526 -5.9588734418746134e-5 0.0
0.0037903851817747015 -6.401662533068314e-5 0.0
0.003814734707937783 -7.734776382409838e-5 0.0
0.003767670013074158 -0.0001883198145530914 0.0
0.00022281096059116257 -0.00020515706109959853 0.0
0.002474716357206253 -6.902403955689028e-5 0.0
0.0023961030294241616 -6.300855367046938e-5 0.0
0.0023841866217875177 -8.71282114352641e-5 0.0
0.0023097130241643963 -8.209074265678609e-5 0.0
0.002302676104261621 -0.00010510062063159408 0.0
0.0023147072764177264 -5.9634074763315187e-5 0.0
0.002093766870176053 -0.0004985493669198403 0.0
0.001681874278013538 -0.00037407912949080266 0.0
0.0017372110586500607 -0.0003649877135523415 0.0
0.000509874783889931 -0.0004214259962694941 0.0
0.0004671813598642608 -0.00038293902317941813 0.0
0.0034173260443475734 6.90976265836842e-5 0.0
0.0035355913668173905 5.596100537588594e-5 0.0
0.0035820849644887212 3.5216221312301835e-5 0.0
0.003652288160275595 4.139400048216761e-5 0.0
0.003622675861348387 5.8721206420900124e-5 0.0
0.0018889261749602548 -0.0008020706457842285 0.0
0.0018888733910075325 -0.0007659760404658143 0.0
0.0018874720934000575 -0.0008395806827511872 0.0
0.0023418064035787317 3.594431165131608e-5 0.0
0.0023298539573912854 6.529413154338428e-6 0.0
0.000554342167360619 -6.35664263675184e-5 0.0
0.0002912425581984729 2.880611648855644e-5 0.0
0.002545232726874807 -0.0007738845859910835 0.0
0.0006547246785984473 0.00011276073929573949 0.0
0.0025826889210983786 -0.0004757191061468223 0.0
0.00238658400754899 -0.0001103731953831853 0.0
0.002296097646287357 -0.00012757921388403636 0.0
0.002364963988529782 -0.0001352120458806468 0.0
0.0022891937768881156 -0.00014966414622935475 0.0
0.0023542472012526862 -0.00015772969117264712 0.0
0.0022827331540219457 -0.0001718643743539818 0.0
0.0023458241821654024 -0.00018023011382420625 0.0
0.0022767577872103125 -0.00019437632533277522 0.0
0.0023408060509579093 -0.00020297430380676078 0.0
0.002220208770046483 -0.00014143831491821032 0.0
0.002213498065725704 -0.00018548231442065352 0.0
0.0026283192898827875 -0.000756000938052125 0.0
0.003856928496933855 -7.051962989896164e-5 0.0
0.001365097368745162 -0.0006025170908159428 0.0
0.0013173949379372354 -0.0005776291741043619 0.0
0.0036534705141665733 -0.00024831837707617213 0.0
0.0015791308377035517 -0.00039458815486014204 0.0
0.0022320376839381597 -9.814264846134149e-5 0.0
0.0008093750539709186 0.00021056259906145143 0.0
0.00023110483844514726 -5.2449469544931316e-5 0.0
0.0013326821603568708 0.0002125608858615436 0.0
0.001345127324391942 0.00019907932160397518 0.0
0.002987011794317359 8.3841631085413e-5 0.0
0.0036873281923109694 -0.0002393876892249188 0.0
0.003634193720099265 -0.0002857599063911888 0.0
0.001573291129278037 -0.00044525571690890673 0.0
0.00152834161356474 -0.0004221975431225032 0.0
0.0006525840016987284 -0.0004401079344733881 0.0
0.00014852717569669948 -0.00014181045607487136 0.0
0.00018467216454477045 -6.882854164553302e-5 0.0
0.0001907718830771077 -8.217201059717526e-5 0.0
0.00010677453288037037 -0.00010046690079398328 0.0
0.0027299273949772354 -0.00046442333001406994 0.0
0.0027904281259581044 -0.00043714470229595906 0.0
0.0028387154786388867 -0.00044028548902171576 0.0
0.002851259609319453 -0.00040901977679300356 0.0
0.0022092735545013627 -0.00020684086776071248 0.0
0.0009632666447043203 0.00022655098880259525 0.0
0.0012214180787900968 0.00022057590555496303 0.0
0.002202097261147455 -0.00043045104159871025 0.0
0.0022064997290043398 -0.00040268720566798437 0.0
0.001684261498204528 -0.00035001586401518195 0.0
0.0014387989255065837 -0.0003467758935745834 0.0
0.001465554204814352 -0.0007948575138813997 0.0
0.002982000347892992 -0.0005689735365255996 0.0
0.0030166013628751607 -0.0005774083233601701 0.0
0.002966083519758644 -0.0006123363281928508 0.0
0.002999684122288988 -0.0006229604612098421 0.0
0.00295084963899891 -0.000658072614943383 0.0
0.002917048415549385 -0.0006471910680366896 0.0
0.0028312529063516867 -0.000634190463647601 0.0
0.002565691795786006 -0.00069020773640063 0.0
0.0027060096026793054 0.00014745121698312507 0.0
0.002075177717576134 -0.0006638149840805714 0.0
0.0005729585068719487 1.4382597330592413e-5 0.0
0.003804607577856085 -0.00016861310751102205 0.0
0.0038547175044739037 -0.00012235699803298745 0.0
0.0030496038115937637 -0.0005869715408920023 0.0
0.0030333159111060534 -0.0006332043587071761 0.0
0.003081414778799714 -0.0005973296248496463 0.0
0.0015049910623431474 -0.0007847087298995829 0.0
0.0018287613213654698 -0.0006350368407576914 0.0
0.0018283139513279537 -0.0006680214584463352 0.0
0.0018739739802987139 -0.0006891829139530141 0.0
0.0012350675830616305 -0.0004905590862421491 0.0
0.0017814837224706234 -0.0006472480268362731 0.0
0.002302644566686068 -0.0007085360766222661 0.0
0.0032790281276118 -0.0003597095233681608 0.0
0.0033573548152705454 -0.00040395526255540174 0.0
0.003336470505989931 -0.00044690717661971226 0.0
0.003385277364456558 -0.0003604610177452918 0.0
0.00046510533809212754 -8.700837714351201e-5 0.0
0.0013339797383690839 -0.0007128976364196315 0.0
0.0012944281903125771 -0.0007210104170238 0.0
0.001337850871533946 -0.0007492389460897745 0.0
0.001300090162852485 -0.0007578697923670368 0.0
0.002899430063666044 -0.0004109109462180039 0.0
0.0008044120208350224 -0.0005782241371638578 0.0
0.0007184703750653603 -0.0005084578471626492 0.0
0.0037386408251937927 -8.735395635013103e-5 0.0
0.0002216046178841207 -2.5809437934915765e-5 0.0
0.00022088721444604712 -1.3553957982162843e-5 0.0
0.0025098726037573148 -0.0007556121654080578 0.0
0.0025032284257126293 -0.0008022281924244238 0.0
0.0020387933091298516 -0.0005139452777673312 0.0
0.0036979774941810766 2.352100364268944e-5 0.0
0.0007266691666067383 -0.0005432380308006203 0.0
0.0030024814913472615 0.00017751679894601632 0.0
0.0035015431720128187 -0.00027943694112125264 0.0
0.00352501035626825 0.00011646935592192659 0.0
0.0035639718521188737 0.00010209154447852033 0.0
0.0028028275210146888 -0.00040664819896556897 0.0
0.0030127033605338084 -0.0004207590793659093 0.0
0.0030549616054582423 -0.0004212975575783277 0.0
0.0026781428626169654 0.00018094082592349148 0.0
0.002757605453022258 0.00017733370858687123 0.0
0.002859680912112272 0.00018501513057609244 0.0
0.0023152636894790014 -0.0008392660195380176 0.0
0.0011311285650955573 -0.0007104706360396971 0.0
0.0017321449044798468 -0.0004723849479021958 0.0
0.002487150724911438 -0.0003962787421014212 0.0
0.002193369376917965 -0.0005262177251157305 0.0
0.002232494808425997 -0.0008467540943606824 0.0
0.0009975384937391063 -0.0006382951949152772 0.0
0.0012747863670528028 -0.000583063910071047 0.0
0.0005192854429249516 -0.000203159485456612 0.0
0.003748350636490938 2.738441019736159e-5 0.0
0.0028958896561012675 -0.00048201927487112714 0.0
0.00035179302112642606 -0.00015580706774545084 0.0
0.000959618197611203 0.0002505957986224094 0.0
0.002220206661166305 -0.0006778991530524153 0.0
0.0029021680030347718 -0.0006935081326495647 0.0
0.00286661333375869 -0.0006821411904163575 0.0
0.0025591799659271633 -0.0005413081873890653 0.0
0.0026806964332069493 -0.0003305646368244784 0.0
0.00117163273840106 -0.00040149309252629777 0.0
0.0018272360593066213 -0.0007077067923634957 0.0
0.0024610006739932055 -0.00034350952594762126 0.0
0.0012699231374626934 -0.0005516430057381031 0.0
0.0012266596591383727 -0.0005561603501417188 0.0
0.001003823591514826 -0.0006745572743371534 0.0
0.000641240835635139 -6.031703715992047e-5 0.0
0.0006447998009113563 -3.324702790115057e-5 0.0
0.0002965234336515973 4.105916930563613e-5 0.0
0.000406546308089565 6.28349455714565e-5 0.0
0.0031800272399734562 -0.0005643338359180871 0.0
0.0004663105184254877 -0.00021870326567288855 0.0
0.0006819259805355256 -0.0003161219920911456 0.0
0.0006256347002419979 -0.00028457451135327976 0.0
0.003347425326228949 -0.0003625296331988784 0.0
0.0016803439841081016 -0.0006375653213121667 0.0
0.002147527279377094 -0.00048136630454025917 0.0
0.0025873453983025273 0.00015225511978543785 0.0
0.0025644394803451247 0.0001765521804720747 0.0
0.002487921673254541 0.00016155936101073533 0.0
0.00246494719793 0.0001787443499309929 0.0
0.0025343391226947893 0.00018507073812842187 0.0
0.0028617297869854503 -7.762553348837747e-6 0.0
0.002943877793877533 -1.971813906459419e-5 0.0
0.00296919973851259 1.3257780060027198e-5 0.0
0.0030445592628542467 -3.719320880504851e-8 0.0
0.0030205725539761744 -3.2914248438464933e-5 0.0
0.00017686258828529208 -5.586270916177491e-5 0.0
0.0029139063087516358 -0.00038102062899920383 0.0
0.00047538410241685546 0.00012034229511742551 0.0
0.0004980716120439892 0.00013900571063231288 0.0
0.002396393794329106 -0.0008283992880776831 0.0
0.00014297048250409256 -1.228547791082598e-5 0.0
0.0031867404944800897 -0.00023239268815202678 0.0
0.003260304587877373 -0.0002029867490541674 0.0
0.0032053676697014685 -0.00020077726035186357 0.0
0.0033217731826715455 -0.0002000931882539021 0.0
0.00333569378386724 -0.00017378972874315814 0.0
0.0033983176056735062 -0.0001711902010436508 0.0
0.0008946241036131152 -0.00035360961686903893 0.0
0.0008935700803090266 -0.00032563908229526415 0.0
0.0008329689570896517 -0.0002956055675150399 0.0
0.0008915309562476145 -0.00029810390379630725 0.0
0.0009525510821681571 -0.00032703876898515575 0.0
0.0009512610615144033 -0.0002994215872102273 0.0
0.0010115798320479963 -0.000327196592246142 0.0
0.001098275660591049 -0.0007163708073468188 0.0
0.0010107153199173738 -0.00029892540385599114 0.0
0.001070910787660531 -0.00032656170920768494 0.0
0.0002955997767581683 3.1535494654681506e-6 0.0
0.0006394633819988431 -8.723223722651455e-5 0.0
0.0010692921297539416 -0.00035382547853102155 0.0
0.0008356928768290075 -0.0002708825273509904 0.0
0.0032400913791211013 -0.0003603384474105742 0.0
0.0031832572892692727 -0.000393474678223352 0.0
0.0018476038628354116 -0.0008186206900721165 0.0
0.0018458277435025531 -0.0008550693554888882 0.0
0.0023934597694215223 0.00016392298841092683 0.0
0.0012647654938609967 0.00018084896652618873 0.0
0.0013627282943207994 0.00017653305609335163 0.0
0.001438472356157851 0.0001942474498382959 0.0
0.0014558244963214012 0.00016663289422986095 0.0
0.0013810059920014671 0.00014612264045136406 0.0
0.0014729063751490524 0.00012864079550156356 0.0
0.0013993694072587804 0.00011058482293027499 0.0
0.0014920487569297705 8.790906025530877e-5 0.0
0.0014171280821819244 7.467862349518278e-5 0.0
0.0015246259584587817 4.888855781657478e-5 0.0
0.0014327951220222087 4.092375938023993e-5 0.0
0.0015234327356887852 1.6836898490136712e-5 0.0
0.0014434926884359226 1.0265808038363563e-5 0.0
0.0015314866032391215 -1.2303166076593994e-5 0.0
0.00145795448118344 -1.9315269833335896e-5 0.0
0.0015416206693968624 -3.9978053503972455e-5 0.0
0.0014682688096365872 -4.618852274948017e-5 0.0
0.001546945159048012 -6.505181333467545e-5 0.0
0.0014767816347081666 -7.105758758370697e-5 0.0
0.0015523874798094612 -8.855779748161086e-5 0.0
0.001483646015158195 -9.492276907414081e-5 0.0
0.0015564665994709666 -0.00011164984818788215 0.0
0.0014876957614151907 -0.0001180767268385949 0.0
0.0015595627817669034 -0.00013366056620055166 0.0
0.0014913805709455958 -0.00014148392988186148 0.0
0.0014191859495107397 -0.00012407355630814274 0.0
0.0014234644717654248 -0.0001485072395457373 0.0
0.0015676625732589718 -0.00015808333638849003 0.0
0.0014005730639295771 -5.214411035573718e-5 0.0
0.0016263151146596654 -0.00012525630359406628 0.0
0.001627490073842657 -8.317764531871048e-5 0.0
0.0013293169940101783 9.451615304752875e-5 0.0
0.0016148199192832263 -3.2920142052189574e-5 0.0
0.0013500098813653914 -0.000130049674794774 0.0
0.001355705382863712 -0.0001549434972588211 0.0
0.001427754565294538 -0.00017328667566317643 0.0
0.001361160556828086 -0.00018004750811671393 0.0
0.0013709605481910777 2.754152293627462e-6 0.0
0.001611673514712608 1.8682698956532618e-5 0.0
0.001345390998071476 -0.000105038772350864 0.0
0.0015691700238184788 0.00010320162545535677 0.0
0.0014321586426707404 -0.00019804408302327362 0.0
0.0013659975662218347 -0.0002052423381969823 0.0
0.001295131849767192 -0.0001863747557360493 0.0
0.001273859095034601 -0.00011105943133990826 0.0
0.0012659286696342395 -8.394526609473323e-5 0.0
0.0014987006485158464 -0.00019022296307464828 0.0
0.0015008680048101627 -0.00021453927260539458 0.0
0.00156561147511642 -0.00020651926337556916 0.0
0.0015330748966717205 0.0001827418186287117 0.0
0.001521814875890494 0.00020101467595011813 0.0
0.0013024500813852804 -0.00021238708527777133 0.0
0.0012301028130569818 -0.0001926702431598832 0.0
0.0012243302843960345 -0.00016725743681794485 0.0
0.0011555224840615738 -0.0001722607169735686 0.0
0.002188189515167263 -0.0008689973710474462 0.0
0.0021494346743387628 -0.0008501285396075969 0.0
0.003666934162102574 -0.0002774153318514064 0.0
0.0023517977476531456 -0.000685184153733273 0.0
0.0023923533294463104 -0.0006976995782352136 0.0
0.0013551796553403514 -0.0005697310591000516 0.0
0.0014033109504720323 -0.0005936400753910882 0.0
0.003267271284010498 0.00010498998965029134 0.0
0.0023736984768440686 -0.0004071209585011301 0.0
0.0013722555752011744 -0.00023006608928649241 0.0
0.0010369388103939731 -0.0006144123073145073 0.0
0.001034486415814463 -0.0005812340039360213 0.0
0.0010724537897852553 -0.000577487748565203 0.0
0.002623103166113891 -0.0003231424566897946 0.0
0.0024222311671688638 -0.0001448962302297254 0.0
0.0016260339824317894 -0.00046464200315439106 0.0
0.0015748392924690006 -0.00047409026633732956 0.0
0.002244549132063213 1.1618237759525795e-5 0.0
0.0022384606075019197 -1.295098030083854e-5 0.0
0.002310960308953115 -1.827442220749624e-5 0.0
0.002225853111521269 -3.8523170158482204e-5 0.0
0.002255878639946296 3.7878608823901455e-5 0.0
0.002408378935352655 -0.0001891437186533492 0.0
0.0024044818544202997 -0.00021181531824859828 0.0
0.002330365119040472 -0.0002256913400160394 0.0
0.0017396707310618966 -0.0003409406427748652 0.0
0.0017931462025864732 -0.0003555181627596517 0.0
0.0017962518489103804 -0.00033239816619509254 0.0
0.0018488597688114652 -0.0003456235238806746 0.0
0.0018519118215299312 -0.0003229742907668637 0.0
0.001904399387072787 -0.000335498271530147 0.0
0.0019077429822704755 -0.00031340419902544156 0.0
0.0019623971911432235 -0.0003250476576800558 0.0
0.001957659295882761 -0.00034826434597056024 0.0
0.0020168162134654305 -0.0003339613806659772 0.0
0.0022667689016222137 -0.00038887149634555043 0.0
0.0022106493716179455 -0.00037666878152152217 0.0
0.0021527092138350517 -0.00039056259985006486 0.0
0.00215606840132164 -0.00036524773659223786 0.0
0.00040330884935357083 -0.00016509779792607933 0.0
0.0004803781502640395 -0.0004172660356184515 0.0
0.0004384687631352438 -0.00037764304103714074 0.0
0.00042581438869750474 -0.000343641215802018 0.0
0.00039588641454841943 -0.0003366628923989758 0.0
0.0020418807525883456 -0.00048394814200896367 0.0
0.002737603546117418 -0.00033604283799075946 0.0
0.0027248028634352076 -0.0003670614795214918 0.0
0.0009953819555374975 0.00020299823512030191 0.0
0.002149478813670931 -0.0001980805016519914 0.0
0.0021513188182218485 -0.0001791707666118303 0.0
0.0022367583253256667 0.000157445461667597 0.0
0.0038025720369658064 -0.00011347978606772102 0.0
0.003850480906246667 -8.493339326256205e-5 0.0
0.003883589784363382 -7.080061136383607e-5 0.0
0.000131302660390666 -5.439342612811095e-5 0.0
0.00013429569968079186 -6.386340112018738e-5 0.0
0.0001914255915011397 -9.356915238991033e-5 0.0
0.00014132612664693984 -7.544895194211854e-5 0.0
0.00019480667589056238 -0.00010665455098071612 0.0
0.00014615324265461366 -8.676776432237604e-5 0.0
8.921766490272283e-5 -5.237158547996785e-5 0.0
0.001987258234098502 -0.0004984464502610586 0.0
0.0009529343061945135 -0.0002728573313928377 0.0
0.0005544058087904014 -0.0004600477925366738 0.0
0.0015653520461492774 -0.00022888943135777784 0.0
0.0036238242038258103 -0.0003186454482163683 0.0
0.0035888018723998524 -0.00033286954006458107 0.0
0.0030725477846090033 -0.0003894204588967708 0.0
0.003128332276235374 -0.00038350191868568857 0.0
0.0031397799347060323 -0.0003516488107136037 0.0
0.00019056917050074218 2.253200603835773e-5 0.0
0.0014270981749600513 -0.0008048995039141093 0.0
0.000970554758851363 -0.0006793706098369624 0.0
0.00011923565763881009 -0.00012033790525172098 0.0
0.0001639640039928599 -0.00016993319360679343 0.0
0.0007752421648510208 -0.0002681760754584374 0.0
0.0024460492201136535 0.0001781875211787111 0.0
0.0025248162802477664 0.0001782272833696338 0.0
0.002964720824682823 -0.000421395601444269 0.0
0.0030941063437557614 -0.00042283050541779444 0.0
0.0013428745629125377 -0.0007852339163350711 0.0
0.0015062710356043973 -0.0008203684048006609 0.0
0.0015460185147504982 -0.0008110270828345745 0.0
0.003387993526628406 -0.0004081841798323961 0.0
0.0033670645810730654 -0.00045238732504570227 0.0
0.0033146672118413907 -0.000498819193903622 0.0
0.0036365993689174425 -0.00012690455534894001 0.0
0.0035827707457946442 -0.00013556010729765013 0.0
0.0035146354371165863 -0.00016319015866424162 0.0
0.003522386247583041 -0.00014310310972893118 0.0
0.0006603885241096756 -0.00026254714735658675 0.0
0.0034096683804389137 -0.0001469047560834959 0.0
0.003336674322330125 -0.0001488187021007224 0.0
0.002403334405082586 -0.00066342585843759 0.0
0.00040612264705600456 -0.0003670618610990826 0.0
0.00036880408970851734 -0.00033230180808257336 0.0
0.0003553825743690989 -0.00030080192557168647 0.0
0.00032904391142291544 -0.00029422636589926816 0.0
0.0038942196815487775 -5.966008404583174e-5 0.0
0.0038104669545837504 -6.615271236664904e-5 0.0
0.0038582943758362093 -4.607892685523546e-5 0.0
0.0032104596328600475 -0.0005713766125953029 0.0
0.0016278643123966456 -0.00035736525034431196 0.0
0.003416225531146991 -0.00041368433675803746 0.0
0.0033978935497202597 -0.00045600351932860206 0.0
0.0034435900733354183 -0.0004184843018610521 0.0
0.003429505042331776 -0.00046222001285311636 0.0
0.0034761220962283832 -0.0004175835008157966 0.0
0.0034907396428157035 -0.00037911596355561785 0.0
0.0035184496287064848 -0.00038122549506911695 0.0
0.0018895887563825855 -0.0008759136595531065 0.0
0.0018504073539736493 -0.0008947020568101684 0.0
0.001799281981519438 -0.0008696858441344634 0.0
0.0013103511084508871 -0.0002389318898125184 0.0
0.00010312161217616042 -6.696789357273153e-5 0.0
0.0001503974169123296 -9.866591997613926e-5 0.0
0.0001080383281091124 -7.662083159253409e-5 0.0
0.0013108120452434103 -0.0008005763677916407 0.0
0.0012661979089045655 -0.0007677026138002374 0.0
0.003760318868258378 -0.0002135858014239372 0.0
0.00030885854364971424 5.42940232262046e-5 0.0
0.0021001879627552318 -0.00038133407349498185 0.0
0.00210563143671717 -0.00035516458377687877 0.0
0.0036227137093212043 1.6373389025839094e-5 0.0
0.0037354757407437565 8.47411241538713e-6 0.0
0.003402800898953245 -0.00032732254211606716 0.0
0.0006885976469679352 -0.0005079877012328302 0.0
0.0007015190175452093 -0.0005465180458984517 0.0
0.0028916243334836693 -0.00044082804645388505 0.0
0.0029122179746094955 0.00016085273027622652 0.0
0.0038330388919831835 -0.00015372612688709344 0.0
0.0038817738617934945 -0.00010685811773630345 0.0
0.0039001832118072534 -8.249872094164501e-5 0.0
0.002831343471247268 0.0001734954060066258 0.0
0.0032995262714370015 -0.00032800078949923113 0.0
0.0018068817869029304 -0.0007697133995046334 0.0
0.003383038824676595 -0.00019676053779176547 0.0
0.003191904788541874 -0.00036675700015684735 0.0
0.0012252485375033443 -0.0005231876189731544 0.0
0.0007074424490471134 -0.0004739576314063546 0.0
0.0036953536963823972 -0.0001134780942235514 0.0
0.003072783224617555 0.00017703397270461948 0.0
0.001266490605217981 -0.0008024816560566254 0.0
0.0005861798661015007 -0.00023641787781641753 0.0
0.0021371689307929684 -0.00022099191870286888 0.0
0.0031472707875671913 -0.0005619452742837241 0.0
0.00313521960516951 -0.0006036734881984533 0.0
8.009545832826283e-5 -8.025014990099621e-5 0.0
0.0024386790240026727 -0.0008060096422999915 0.0
0.002422701856106868 -0.0008426638830193614 0.0
0.0015448335073369461 -0.0008523876214581499 0.0
0.001586788830240064 -0.0008381656672712673 0.0
0.0015852558512749104 -0.0008006285496474521 0.0
0.0016267268938122059 -0.0008260111622054949 0.0
0.001587278149560559 -0.0008696879917495322 0.0
0.0013409375390905653 -7.993704847042283e-5 0.0
0.0012607413237441902 -5.885323535027419e-5 0.0
0.0005504856918514603 -8.777021591091084e-5 0.0
0.001086283080518559 0.00024798936515219467 0.0
0.001092220744881594 0.00022929715445557257 0.0
0.0024128713698257824 0.0001325633804613712 0.0
0.003061681429272546 -0.0006441375320478573 0.0
0.0030179297977144586 -0.0006787566098197798 0.0
0.00033847173307886385 -0.000325162284404883 0.0
0.0003000936661261026 -0.0002842171190613915 0.0
0.0038769208163490303 -4.6012967214222314e-5 0.0
0.0006417906998843308 -0.00031390525216948805 0.0
0.000578601246849164 -0.0002855848291125821 0.0
0.0036059077791211563 0.0001412254082656036 0.0
0.0037144750986970294 -0.00023334862966128777 0.0
0.003693459511162544 -0.00027395409817692164 0.0
0.0022025400038332187 -0.00022893603932164474 0.0
0.0025340791942984027 -0.0008166824657368702 0.0
0.0024824529144485954 -0.000852441142519715 0.0
0.0011239604340954183 -0.0003509186667946303 0.0
0.001129286055681763 -0.0003237700721635681 0.0
0.001627350523720121 -0.0007892761954658189 0.0
0.0034240021390153468 -0.00036038632925910043 0.0
0.001965352667534112 -0.0003026978705207337 0.0
0.0019152717596302106 -0.00029121050644129973 0.0
9.817579265549846e-5 -0.00010489905513839271 0.0
0.0010280172958045924 0.0003813174151838451 0.0
0.0017971312524947141 -0.00030874986626419805 0.0
0.0011963354590504367 -9.125801156088682e-5 0.0
0.001207272443682459 -0.00011751617294201533 0.0
0.0007284276037185392 -8.37750524399001e-5 0.0
0.0024772553907892003 -0.0001958592286753705 0.0
0.0016270319202644783 -0.0002212137402660795 0.0
0.001628985795960694 -0.00019968656801419866 0.0
0.0016888138915894036 -0.00021410976713724103 0.0
0.0016894984002043213 -0.0001939106008821838 0.0
0.0017467917315987086 -0.00020570868714797744 0.0
0.0017483464294464459 -0.0001868301311449006 0.0
0.0016896405518660523 -0.00017453011224659721 0.0
0.0017490624712267274 -0.00016773001355429605 0.0
0.0016904527130479803 -0.00015586023877340552 0.0
0.0017507806296674876 -0.0001493860283335511 0.0
0.001801987101820917 -0.00019814545279969495 0.0
0.00015382817791407914 -4.902792870633728e-6 0.0
0.002395053629022574 -0.0002379678107159375 0.0
0.0016398751029946107 -0.00033401236037495174 0.0
0.001548788524753622 0.0001464816753951892 0.0
0.0016614919518863056 0.00011189415305255482 0.0
0.001668508596075261 7.236521779379995e-5 0.0
0.0016302208372075712 0.00016120473747641262 0.0
0.0015928118269285289 6.477044344887153e-5 0.0
0.0016887728297752772 4.1325775420406136e-5 0.0
0.001777969594016479 4.2347426223748725e-5 0.0
0.0017266638359973506 0.00013650596566644593 0.0
0.0002459074777883438 -0.00012487970860614338 0.0
0.00025254112487686846 -0.00014186537844628052 0.0
0.0038730765095213427 2.0054594836058863e-5 0.0
0.003749511143941027 4.4965526977046405e-5 0.0
0.003742193134675117 5.465150697218161e-5 0.0
0.0029407560836541744 -0.0007080171040075459 0.0
0.0028870835360653526 -0.000741380773339057 0.0
0.0010284224419030961 -0.0005487237814461839 0.0
0.001067785928369968 -0.000544239557377534 0.0
0.0009884836799467066 -0.000551219373825675 0.0
0.0011280718455847195 -0.00010223596909201766 0.0
0.001749630177493805 7.560361304077816e-5 0.0
0.0018116192909920586 -0.00016042687811480222 0.0
0.0018091940046377538 -0.00014187876953511753 0.0
0.0017513910811310638 -0.00013123027095974087 0.0
0.0018083321071895879 -0.00012511044286817467 0.0
0.0017547795032401242 -0.00011405054116331289 0.0
0.0010584704649095878 -0.0006888184611593816 0.0
0.00386281939924444 3.266700511034032e-5 0.0
0.0016248345948825437 0.00019105888749976676 0.0
0.002315904982305525 0.00013315622268937003 0.0
0.002323894309725253 9.738851709097522e-5 0.0
0.0022286702502223566 8.930783331562644e-5 0.0
0.0011541080648068845 0.00018111442945169224 0.0
0.001406835021703488 0.0002033719540345204 0.0
0.0013301440477265856 0.00021555034670878016 0.0
0.001277741547830159 0.0002231012493022864 0.0
0.0025945446246821748 0.00013225273858262897 0.0
0.0032619273494916327 -0.0005340054842204691 0.0
0.003240191085759367 -0.0005835273260658364 0.0
0.001008075498214992 -0.0007100747002061342 0.0
0.001668325362271171 -0.0008145855153267808 0.0
0.0016689604167875157 -0.0008504788520893414 0.0
0.001708207569584682 -0.0008390077181216247 0.0
0.001714113275470206 -0.0008793791693173455 0.0
0.002817968010325172 0.000137489016654234 0.0
0.0027363352210684204 0.00011892498833801079 0.0
0.0028433850521771237 0.00011226745725030213 0.0
0.0029289904886254624 0.000126827514565059 0.0
0.0021643096010735448 -0.0003415183234369327 0.0
0.0021194206594563475 -0.00032992597263706356 0.0
0.0017502420280394897 -0.000861517556306594 0.0
0.0011724841510874957 -0.0002012346072236479 0.0
6.439313414155751e-5 -6.0443150675891174e-5 0.0
0.0016097316855290967 -5.254488846896715e-6 0.0
0.0016897308576184673 -2.6425364133256874e-5 0.0
0.0016947935786862244 -4.978348244183831e-5 0.0
0.001768501546372633 -4.369273457828115e-5 0.0
0.0017680027087740222 -6.303335342454742e-5 0.0
0.0017643458175455539 -2.351141402313075e-5 0.0
0.0017064972870190491 -6.953619825459798e-5 0.0
0.0017692238215008904 -8.101883279959952e-5 0.0
0.001837580388004892 -3.7738428361122015e-5 0.0
0.0026314992497658523 0.00012403640031921417 0.0
0.0017134828322914058 -8.86554383646733e-5 0.0
0.003918490701448801 -3.041236335964907e-6 0.0
0.0015014124674174057 -0.00023825086318767614 0.0
0.0018725211471010712 -0.0007244554955225899 0.0
0.0019226076780423866 -0.000710232902833621 0.0
0.001690273242718933 -3.258554894792787e-6 0.0
0.001770980250031208 -2.84829094392361e-6 0.0
0.0022773266583360242 -0.00036396218090105874 0.0
0.0028775871222980784 -0.0006379630870083379 0.0
0.0028281253009028455 -0.0006752681225289605 0.0
0.002818086052207444 -0.0007182639914951596 0.0
0.0027824872342561958 -0.0007113258312005657 0.0
0.002775245854852627 -0.0007510282773063389 0.0
0.002737205340725016 -0.00074676999265825 0.0
0.003285683932921539 -3.6436462764344864e-5 0.0
0.0032169354207852896 -6.647212661001414e-5 0.0
0.0032496532409700654 -8.995063715024534e-5 0.0
0.0031494545534949325 -9.805165713924527e-5 0.0
0.0031792122577953517 -0.00012139458725714063 0.0
0.0030800660425069366 -0.00013090698207690317 0.0
0.0031116877375371083 -0.00015410945743102083 0.0
0.003048315556502592 -0.00010675568052742137 0.0
0.0029816423058479525 -0.00013966168384215715 0.0
0.0032053247273664525 -0.0001437592144710342 0.0
0.0029484094890972062 -0.00011599339553989032 0.0
0.0031374122979397363 -0.00017640851167754007 0.0
0.003049353785020679 -0.00018664743169857006 0.0
0.003071179775318653 -0.00020906860505707443 0.0
0.003016245498652181 -8.384656562633147e-5 0.0
0.0031800409983567457 -4.14110426373673e-5 0.0
0.0032295033350137887 -0.00016663761697022545 0.0
0.0033558916574155527 -8.58646719340262e-5 0.0
0.0032909042418640304 -0.0001345773849091725 0.0
0.002158105034213601 -8.233660150848505e-6 0.0
0.0013864372158232485 0.00021271072353239566 0.0
0.0002069545055859121 -0.00012610971549004304 0.0
0.0001916950859919845 -0.00018656276807284592 0.0
0.00023203780498755677 -0.00022893334138068098 0.0
0.001748390977576615 -0.0008263163863236731 0.0
0.00233927826496058 -0.00037820424132298334 0.0
0.0022363858731960155 -7.727647856603622e-5 0.0
0.002160763704566118 -9.136717751018436e-5 0.0
0.0021736414197948395 -7.255724455616032e-5 0.0
0.0021628936343305715 -0.00011092941475515544 0.0
0.002227116282559582 -0.00011910605097684618 0.0
0.0021575070204180083 -0.00013090385904077984 0.0
0.002150706947920713 -0.0001497312201613137 0.0
0.0020972179925904844 -0.0001407287414596129 0.0
0.00025289830326340196 -0.0002201229837429497 0.0
0.002499305337985127 -9.805422175430216e-6 0.0
0.003041443703646272 5.80087251296776e-5 0.0
0.002917686561690542 6.231575898082186e-5 0.0
0.00015481391703568684 3.391822388936043e-5 0.0
0.00032227665166112684 7.67022117907091e-5 0.0
0.0003025578058681074 6.400216232147659e-5 0.0
0.002548588352236242 -8.08313817463002e-5 0.0
0.0003284850653906242 -0.00025783610729446265 0.0
0.00038165934651340126 -0.0003031465579554737 0.0
0.00041507378901358826 -0.00031372336540785346 0.0
0.00041120908371420516 -0.0002874446545549518 0.0
0.00044644929352017043 -0.00029009358293249053 0.0
0.0016254499127394348 -0.00010505539139327355 0.0
0.00018880803636693827 1.3923132520448498e-5 0.0
0.0007828711198184609 -0.00022056423983136494 0.0
0.0006414877408035093 -0.00021181020926857772 0.0
0.0017662832672975973 1.9342411503848445e-5 0.0
0.0004281189245389118 0.00016884452052616966 0.0
0.0027724773528526106 -0.0006625574520356244 0.0
0.002404388138244501 -3.500964667279653e-5 0.0
0.003787581718595018 -0.0002009811582010686 0.0
0.003018123391108785 -0.00016303465946612607 0.0
0.0029211984443601835 -0.00017168382593362063 0.0
0.0028525992831258036 -0.0007297399709726676 0.0
0.003926286611835961 -7.776933178975479e-6 0.0
0.003852855943993531 -1.996914328097085e-5 0.0
0.003868202830704239 -2.605745193141698e-5 0.0
0.0038399460480913173 -1.1827369680384697e-5 0.0
0.0037826026617334097 -3.6891239346601786e-5 0.0
0.003829888603913306 -2.9213444502342173e-6 0.0
0.0037426464174255256 -1.235301331509408e-5 0.0
0.0037607377813967274 -2.5491929931641827e-5 0.0
4.353715743605825e-5 -2.450645744397268e-5 0.0
0.0039546993044470135 -2.10869798353364e-5 0.0
0.0039039517381294336 -4.08235287364909e-5 0.0
0.003934657162837116 -2.251063414077282e-5 0.0
0.0039085609610961065 -4.3650852487885734e-5 0.0
0.0023518664400967457 6.728293807725773e-5 0.0
0.002987723396892577 -0.0006666238149795649 0.0
3.357546770216745e-5 -2.6184179366094763e-5 0.0
0.0039647819771639285 -2.2804463026520246e-5 0.0
0.001285174064366545 0.00015546836369803002 0.0
0.0032032193873300723 1.845075759426132e-5 0.0
0.0010906320375372864 4.901501289732209e-6 0.0
0.0011774259707074148 1.5602218233122807e-5 0.0
0.0011734607555810828 4.975646096555821e-5 0.0
0.001178769839366662 -1.4812013361705863e-5 0.0
0.0012535498063973288 -8.3423143237872e-6 0.0
0.0012715491360999827 2.138704236012802e-5 0.0
0.0012620274723985816 5.7199242504718914e-5 0.0
0.001175412374768319 8.197195827012978e-5 0.0
0.0010991309052066146 0.00010996708112470647 0.0
0.0011032852890904788 -3.176838144037552e-5 0.0
0.0033557178498840657 -0.0004927475657244534 0.0
0.003915717497733174 7.098093672052805e-6 0.0
0.001630418215905371 -0.0007528442828446756 0.0
0.0005281035123124548 -0.0004633576573286744 0.0
0.0017960386110690736 -0.0007357044019525255 0.0
0.0013818206612529538 -0.0007769485028523486 0.0
0.0013840508025556035 -0.0008137693593763093 0.0
0.00186896988582507 -0.00013463391861331974 0.0
0.0025529189063173315 -0.0001382905974296999 0.0
0.0034519257268457635 0.00011669914007932729 0.0
0.0034998321290040887 9.665931105695962e-5 0.0
0.0033930266737294923 0.00010134655354435863 0.0
0.0002473659070884096 -0.0001120435848880017 0.0
0.0004920868609123969 -0.0004510388012978961 0.0
0.0012344296171978436 0.0002798520670845911 0.0
0.0011077015194210964 0.00028195815665803183 0.0
0.002855137913270327 0.00013695313638818272 0.0
0.0014304167063350212 0.00020888360600462274 0.0
0.0036165507620260916 -0.00025700196891340754 0.0
0.001780269687227564 -0.0006144674942841822 0.0
0.0027323368544779226 0.00012234466464702774 0.0
0.0028169372126033727 0.0001513965430020271 0.0
0.0011962002757649301 0.0001317560870196004 0.0
0.000976329960489024 -0.0007174692137124157 0.0
0.003592689997845393 -0.0003001561193984248 0.0
0.0005854495154413782 -0.0004630535693690836 0.0
0.0006213522647715426 -0.0004952358328905159 0.0
0.0006015987278038081 -0.0005051604320251101 0.0
0.0009342947821673714 -0.00021861954563138892 0.0
0.002206976490203188 -0.00016325303531500632 0.0
0.00247747716670289 -0.00010499369950627189 0.0
0.0014961935214737976 -0.00016543991660996414 0.0
0.0015648576996460872 -0.00018347396431834455 0.0
0.003833865954224959 4.863956987521361e-5 0.0
0.003642551587969756 0.00010107102612702515 0.0
0.00017002923435381764 4.966203113344557e-5 0.0
4.300020739667083e-5 -2.698870724883726e-5 0.0
0.0018058750522081223 -0.0001791328622915987 0.0
5.938585040445531e-5 -1.5617517189886556e-5 0.0
0.0001440186838499656 -3.172878571410181e-5 0.0
0.0017749893311947093 -0.0007072206739197278 0.0
0.002522469120029681 0.00013517531226201894 0.0
0.001463961362627218 0.00019873709093415739 0.0
0.002453223699741059 -0.0003678986095698126 0.0
0.0018183317035265832 -0.00010822976236936428 0.0
0.003205213554610568 -0.00031469695011641973 0.0
0.0037401573214136106 -0.00019460612745011855 0.0
0.0011787487583874484 -0.0005284117271868986 0.0
0.0011832811849421395 -0.0005614359987507503 0.0
0.0011350508001212799 -0.0005296434559214221 0.0
0.0010852347605714986 -0.0004982802532601383 0.0
3.432386593305804e-5 -2.9181488079268354e-5 0.0
6.486729762904003e-5 -5.5918044468804875e-5 0.0
7.291587898240486e-5 -5.731631883408965e-5 0.0
0.0010137434287727112 -0.0003546969688694037 0.0
0.0009586666376999797 -0.00035839909208073087 0.0
0.003957980183278241 -2.189844962054477e-5 0.0
0.002145739224725446 -0.0008909276332033755 0.0
0.0021065244795734823 -0.0008706730734259451 0.0
0.0021032747275373147 -0.0009109766998471308 0.0
0.002063840348174824 -0.0008900958576050621 0.0
0.0020203394942540052 -0.0009073906017022789 0.0
0.0020188097134939374 -0.0008678449858983382 0.0
0.0021086024532209033 -0.0008307317270560301 0.0
0.0027360812011113325 0.00015249437555240271 0.0
0.00046444649705312184 -6.415722731375738e-5 0.0
0.0005405493676291271 -0.00011140802821459693 0.0
0.00046935882900446817 -0.00011147358607607005 0.0
0.0025176398389392405 -0.0003519305647746788 0.0
0.0007954253166557824 0.0002338250775166148 0.0
0.0020070942394064544 -0.00035934660287498184 0.0
5.931454837156012e-5 -2.4667928371829993e-5 0.0
0.0012285625819362178 -0.0007711087089435527 0.0
0.0011880420068811667 -0.0007694814265865717 0.0
0.0011961364544175665 -0.0007394628101999917 0.0
0.0013781297552954842 -0.0007402584002842459 0.0
0.0011797493763086712 -0.000491701043822692 0.0
0.0005202696477345217 -0.00022663536751733028 0.0
0.0003017959414326376 -0.00017585488875327144 0.0
0.003937829276811983 -1.443992130013424e-5 0.0
0.003884077388251134 -2.9393690315877016e-5 0.0
0.0007694117723837781 -0.000579266344078872 0.0
0.0009281168529153771 -0.0006447812004081165 0.0
0.0008923227427734705 -0.0006486600158461847 0.0
0.0008484867561204143 -0.0006133407221817063 0.0
0.000854573666613863 -0.0006494942373501323 0.0
0.002372515193799675 0.00014608852317351252 0.0
0.0015926029115664504 0.00019076041536680302 0.0
0.002581025873479959 -0.0007870089761390347 0.0
0.0026154234141402156 -0.0008012461992505912 0.0
0.002659980476236333 -0.0007712066551744994 0.0
0.002564332021242254 -0.0008373155136449147 0.0
0.0012752059043286666 -0.000524228491372568 0.0
0.0022720071446956655 -0.0006579490595255481 0.0
0.001459180908850987 0.00020693108996486785 0.0
0.0016198369013865185 -6.031270624646406e-5 0.0
0.0039661676188050485 -2.4196857665295328e-5 0.0
0.003934301593287919 -4.829510390769236e-5 0.0
0.003920738007080598 -5.24507073591057e-5 0.0
0.000812480680610277 -0.0006147626486660495 0.0
0.0007780373789246179 -0.0006142884887229602 0.0
0.0011747439147380846 -6.010364762729893e-5 0.0
0.0010410122809299696 -0.0005047743365514359 0.0
0.0037152437321737075 -0.0001574904022410222 0.0
0.003023275266521157 0.00018370094567379455 0.0
0.0017956228328700069 -0.00021710485532394698 0.0
0.0018497918330915245 -0.00020787195259030453 0.0
0.0023773568285255504 0.00017430597125254498 0.0
0.0029443216340246654 -0.0005621148249145897 0.0
0.0017306640262563025 -0.0006262041154405596 0.0
0.0017326878151618487 -0.0006601306326353296 0.0
0.0004296847312863321 8.235387775835968e-5 0.0
0.000952663882415562 -0.0005094576379880185 0.0
0.0009080022990944268 -0.0005066983235811236 0.0
0.0008591795902888611 -0.00047388014834749323 0.0
0.0008646868826847397 -0.0005070945994104558 0.0
0.0007314252358227787 -5.544356875171845e-5 0.0
0.0007348148974031665 -2.6563550212976044e-5 0.0
0.0008200640269270677 -0.00011142674291044116 0.0
0.0026020497576875377 -0.0008476628290606715 0.0
0.0025264256675796167 -0.0006452193242019033 0.0
0.0024710217688764923 -0.0006728063199622045 0.0
0.002518669213313626 -0.0006871276598536489 0.0
0.0024634187941531454 -0.0007159161312753975 0.0
0.0024962913803551682 -0.0007270928261798412 0.0
0.0025711490182252564 -0.0006529442551471169 0.0
0.002613487576650668 -0.0006577597284185377 0.0
2.8991929888447416e-5 -2.897656133466021e-5 0.0
0.003971439010613614 -2.5118161324132386e-5 0.0
0.0032857502824354995 -0.000486563204371594 0.0
0.00235059639168938 -0.0008536590982658443 0.0
0.00368400533454778 8.386535210401589e-5 0.0
0.002278137016689165 -0.0008229360836991246 0.0
0.0022684538456859554 -0.0008630025515966923 0.0
0.003001144975828679 -0.0003840059170551882 0.0
0.002685391820527155 -0.0003018137702494729 0.0
0.0026300508664454892 -0.0002943542385279812 0.0
0.00125003091071749 -0.0006932543949809625 0.0
0.0007283455764704766 -0.0004384570647566301 0.0
0.0029806157310512983 -0.0002217102958673359 0.0
0.0031547123845965214 -0.0005201406323900556 0.0
0.0013813771656835294 -0.00040877710127344875 0.0
0.0014328046436816117 -0.0004020079830798312 0.0
0.0014308127629017473 -0.0004309482820938706 0.0
0.0014361106980525127 -0.0003741549047875283 0.0
0.0013797711080175028 -0.00043812995058996177 0.0
0.0014829598928627022 -0.00039802084410494546 0.0
0.0014894564428855025 -0.00037215167980386027 0.0
0.0015027153378280149 -0.00034380970608718827 0.0
0.0029779733157196905 0.00018170581378662554 0.0
0.0003186663111066127 8.50618869323863e-5 0.0
0.00288442226088815 -0.00014869417741138503 0.0
0.0031420761396111323 -0.0003242968981928535 0.0
0.0005817027061224924 0.00018581360937704755 0.0
0.0005619098659904759 -1.1690525496459357e-5 0.0
0.0008207252317729393 -5.032577042825995e-5 0.0
0.0006373242857122733 -0.0004015285617073259 0.0
0.0013806227019071944 -0.0003525993207138874 0.0
0.0010712386049795053 -0.00029756055789296364 0.0
0.0011456944074481408 -0.0002966677083528473 0.0
0.0011931097677564044 -0.0003254023788296496 0.0
0.001930100460003287 -0.0008618081074349702 0.0
0.0019756158566911837 -0.000884313705398528 0.0
0.0019746126897000507 -0.0009276485526135123 0.0
0.0020198632326288444 -0.0008289423738577506 0.0
0.0030988486793632054 -0.0005523666804400224 0.0
0.0014347880305590718 -0.00022218467865396652 0.0
0.002914563749221652 -0.000347277018040463 0.0
0.0013744291512329952 -0.000704261029411699 0.0
0.0021105813213948737 -0.0007918459771830709 0.0
0.0014619910308692387 -0.0008337690190312015 0.0
0.003669618853641909 -2.5660882332634246e-6 0.0
0.0019544024510910005 -0.0003724819240760972 0.0
0.0004618605648753011 -0.0001950140356289394 0.0
0.0014858196452070735 -0.0005770795368661737 0.0
0.0015346558078618408 -0.00060141248472794 0.0
0.0013853847226759882 -0.0005286602056302508 0.0
0.0015027376771379983 -0.0007482206822276214 0.0
0.0023575169098241627 -0.0004985252817070265 0.0
0.0022990497734259718 -0.0005184372883257201 0.0
0.0023510631874203705 -0.0005311950071342538 0.0
0.002850727828328177 -0.00012558737493779948 0.0
0.0017798192070332503 -0.0005818831936956683 0.0
0.0012823144439340786 -0.0004798956922936183 0.0
0.0022695688768768468 -0.00021626635136821459 0.0
0.002258403440957078 -0.00023909039255206032 0.0
0.0004986035898840068 -0.0003242196218218236 0.0
0.001052611506672014 -0.0006538846176109042 0.0
0.0026741394679314634 -0.0007252372038137085 0.0
0.0022394165326524904 -5.80429028309844e-5 0.0
0.0020783698609002713 -0.0006285263227226977 0.0
0.0020261935731206004 -0.0006451612024129605 0.0
0.0020237716701300536 -0.0006809526322166944 0.0
0.001974546266395752 -0.0006607691584919602 0.0
0.0019734493086824775 -0.0006967857926991819 0.0
0.002071918052585635 -0.0006995713582668751 0.0
0.002416624273475485 -2.8507858318827365e-6 0.0
0.0016281632969653995 -0.0004932827424023627 0.0
0.0015795286162159812 -0.000502556898799376 0.0
0.002251721250335621 -0.00047389512788167877 0.0
0.0013349021272892072 -0.0005340732885941845 0.0
0.0022258042135794923 -0.0008859768299846648 0.0
0.001680012954262086 -0.0006044312355780417 0.0
0.0019771183493176273 -0.0006262212248194929 0.0
0.002807720993463778 -0.000761832164753635 0.0
0.0017912283815854075 -0.00038052756366715036 0.0
0.0037678787019302666 -8.896557710356131e-5 0.0
0.0019848003545465593 -0.0005289080709878766 0.0
0.000891885555358208 -0.00038178156435399256 0.0
0.0017231973068769888 0.00018116251061132073 0.0
0.002794746115006434 -0.0006195802072148374 0.0
0.003605185247804406 8.524588424381122e-5 0.0
0.0005849695711043578 3.995801333142739e-5 0.0
0.0006065309336943911 6.437155565181804e-5 0.0
0.0006731933059362377 2.8025544165868914e-5 0.0
0.0007114089609375274 5.7448963380770594e-5 0.0
0.0007783308649385544 3.803396720697432e-5 0.0
0.0028258758333020487 -0.00018048413831461935 0.0
0.0016299424044870275 -0.0008666845331713447 0.0
0.0018461401759701326 -0.0003702650049597136 0.0
0.00011640109354427702 -3.409130445500238e-5 0.0
0.0013050573189518088 0.00022289601928074623 0.0
0.001212159089389902 0.0002363369032679919 0.0
0.0026669157127058047 9.7993717070042e-5 0.0
0.0015865677572787732 -0.0007279255016371745 0.0
0.001808782154682703 -0.0008346490983245047 0.0
0.0015699118981965896 -0.0002533832912811493 0.0
0.002198902310326131 -0.00046114442488876466 0.0
0.002141449710215733 -0.00044648309370137073 0.0
0.0021502615082460495 -0.0004163063811416995 0.0
0.002253264786438482 6.330570048294623e-5 0.0
0.0014917735877070896 -0.0006104599866777681 0.0
0.0010111352338068068 -0.0002712972738508943 0.0
0.0015249634341046214 -0.0004498910333943123 0.0
0.00019886787920958375 -0.00013302980943825595 0.0
0.0020889672089976705 -0.0002078509243887117 0.0
0.0008400212325040405 -0.0005767340287536055 0.0
0.0020967163749608803 -0.00046823217500924225 0.0
0.001258318065377086 -0.0007299738578218619 0.0
0.002804028848403985 -0.0003099687703477267 0.0
0.00188987360596496 -0.00046641661564028413 0.0
0.0019241663972417644 -0.0006754068826479657 0.0
0.003512214364904616 -0.00025117850183675673 0.0
0.0007390405540035889 -0.0005791488910275259 0.0
0.003817630552489609 -0.00018705171941706477 0.0
0.0015709589990372428 -0.00035475710412507936 0.0
0.0018839979365336572 -0.0005257059667152438 0.0
0.00034219115918720296 -0.00013543461209476314 0.0
0.0035074226815120014 -0.00018419464414774357 0.0
0.002212406240494811 -0.0007142888592771797 0.0
0.00011575078929536531 -4.126535008387354e-5 0.0
0.00202236433054515 -0.0002908471631289453 0.0
0.0020201578697532116 -0.00031097052590057833 0.0
0.00374352751419619 -5.4486107257988285e-5 0.0
0.0021862461658051662 -0.0009088344403143285 0.0
0.00068787723784726 -0.0004367335547197942 0.0
0.003865346762747407 -8.854152175582143e-5 0.0
0.0020953103702290483 -0.0004045933142537978 0.0
0.0019433256829742684 -0.00045417357027333 0.0
0.002435593553190237 -0.0006263995403642396 0.0
0.002384931424145223 -0.000614282258842139 0.0
0.00222774898471098 -0.0006420888034777938 0.0
0.0018435136479428395 -0.0003961941841651422 0.0
0.002274339190607154 -0.0009262023717466648 0.0
0.0024460638081395727 -0.0009018763628617568 0.0
0.001741112660879048 -0.0009180925045779491 0.0
0.001875868779146119 -0.0009315818109281131 0.0
0.002703426379950723 -0.0008311409361723818 0.0
0.00269187718668209 -0.0007896076545939474 0.0
0.0013887877105642375 -0.0008488328960452642 0.0
0.0010929156322242268 -0.0007664652897337197 0.0
0.002359497133926953 -0.000916296385879651 0.0
0.001480737835371068 -0.000874055886520334 0.0
0.0016664482143999694 -0.0003123386255128071 0.0
0.0034294736109817263 -0.00012043853529740779 0.0
0.0028225397884545068 -0.00047262595037383427 0.0
0.002803219082540811 -0.0005064420714492743 0.0
0.0014305384719041614 -0.0004622364787082349 0.0
0.0024290880227868933 -0.00041824269340614526 0.0
0.0019288934412968117 -0.0007447401951824228 0.0
0.0009933348073153036 -0.0006036898966649566 0.0
0.0007421973963421426 -0.0003483867794254918 0.0
0.0016797306601655472 -0.00045448873230709063 0.0
0.0035031841525953625 2.6016534970663563e-5 0.0
0.0013507819847371858 3.4035195329120915e-5 0.0
0.0019016586877118541 -0.00035941863287678876 0.0
0.002247752949143676 -0.0005069324995692763 0.0
0.0002619708499108529 -0.0002460742259274487 0.0
0.0002716269090589006 -0.00027323605328153895 0.0
0.0016795849246531178 -0.0006714693438937752 0.0
0.0014091556212784552 -0.0006281941003921569 0.0
0.002036149413405385 -0.0005451166096745311 0.0
0.0037143001046340543 6.795985640205034e-5 0.0
0.0021530789350443186 -0.0008103648188298074 0.0
0.003928857068602179 -6.393931667632999e-5 0.0
0.0039042053049924788 -9.476759770964993e-5 0.0
0.0010966636124907865 -0.00018067959060154355 0.0
0.0017316123494278265 -0.0005012484417030556 0.0
0.0018292809839614004 -0.000601782781785845 0.0
0.00381453134452849 1.325923561321589e-5 0.0
0.0018602280022508555 4.89633479106549e-5 0.0
0.002664865209743247 -0.0006318808965857818 0.0
0.0027473505899643148 -0.0005340613913142609 0.0
0.0010730806170767128 -0.0007277355572894596 0.0
0.0025219910533623665 -0.0004990567877825665 0.0
0.0017327142553739967 -0.000444210905621777 0.0
0.0026425658362884824 -0.0004519968641399598 0.0
0.002631172785133293 -0.00048443864453372073 0.0
0.0027031336892292435 -0.0004278437063491756 0.0
0.0008940538883227082 -0.0006856231466261974 0.0
0.00313219036615816 -1.2191561107166868e-5 0.0
0.002303010176211506 -0.0008841024559365666 0.0
0.0032830708404454393 -0.0005462828464996746 0.0
0.00297419816374967 -0.000349094602480015 0.0
0.001922490835020533 -0.00027004905468132703 0.0
0.002458538173460428 -0.0007596874781722489 0.0
0.0015386242533885674 -0.0006345561759202625 0.0
0.0016151982662588051 -0.00038015041721667847 0.0
0.003699656178128363 -4.2557611972388745e-5 0.0
0.0008504411143626688 -0.00024773965143224346 0.0
0.0028536154411438978 -0.00020288791356661733 0.0
0.0018953755381033175 -0.00017396143577789417 0.0
0.0024832285247814822 -0.0004268534325145344 0.0
0.0035496811794441846 -0.00011712400783307205 0.0
0.0003018091308582378 -0.00014328340540763145 0.0
0.002881794548860682 -0.0005145772835182831 0.0
0.0021552176776448357 -3.066130811062026e-5 0.0
0.002135848681919263 -5.039143038193158e-5 0.0
0.002380105682111722 -0.0007346702754913798 0.0
0.002189695759065203 -0.0005588576973540759 0.0
0.0022537743377643387 -0.0007300042354086564 0.0
0.0029306882931609797 -0.0006031950673339891 0.0
0.002922623695601011 -5.326556827529092e-5 0.0
0.0018779925287042822 2.8696055637612042e-5 0.0
0.002639694508608819 0.00018505686448073291 0.0
0.0034434407366159014 -0.00032038370764853703 0.0
0.0034584155662795574 -0.0002890876484087651 0.0
0.0018894643234346638 -9.713315252810753e-5 0.0
0.0012795818797455435 -0.0006157848748787245 0.0
0.0025799992222690377 0.00016284804064191076 0.0
0.0018861054973910427 -8.418006237829597e-6 0.0
0.002511268420804401 -0.0005321789701342735 0.0
0.003873334086400589 -9.717600100928314e-5 0.0
0.0006511696344966565 -0.00046814674053808096 0.0
0.002416219961315446 -0.00025978852346272076 0.0
0.0018924155760716055 -5.1952481014264396e-5 0.0
0.0018881093983841887 -8.325724375566965e-5 0.0
0.0006691605497101204 -3.347337721302829e-6 0.0
0.003481797147728761 0.00013135921934128022 0.0
0.002041032938076793 -0.00018206793764113718 0.0
0.0035586044773197457 -0.00024099849501619259 0.0
0.0012321434740768223 -0.0005883934633168263 0.0
0.003048019437046212 -0.0006928096292524185 0.0
0.0031292951979723115 -0.0006619612977556524 0.0
0.0011161550067107626 -0.0006063936065233327 0.0
0.002604312146566175 -0.0005496934696361649 0.0
0.0016968465470498734 -0.0009127228469497621 0.0
0.002478492396138017 -0.00015770097372722728 0.0
0.0007070417467823403 -0.0005974593043011916 0.0
0.0020595030659401976 -7.562199227240454e-5 0.0
0.002144689749950516 -0.0002421950182620743 0.0
0.0020991558102062802 -0.00010305596335585072 0.0
0.002294706558552912 -0.0005524165432075655 0.0
0.002787764772060939 -0.0005396406753070337 0.0
9.374669217848266e-5 -0.00010923715148570534 0.0
0.00016191391377409957 -0.0001830394333501257 0.0
0.00019442073303267427 -0.00021618675414240756 0.0
0.0037024613873253994 -0.00029406107976266444 0.0
0.00026222658873018153 -0.0002829713463712561 0.0
0.001144260116175867 -0.0005647924503540351 0.0
0.0005133855517197674 6.718485291698629e-5 0.0
0.0033234379717847736 -0.0005607165476786921 0.0
0.0005965737242924664 -0.0005316676246989578 0.0
0.0006712196466245211 -0.0005773014678157646 0.0
0.003664956040220697 -0.00032374656203556536 0.0
0.0035903199943252357 -0.00038452727623942414 0.0
0.002127716508199313 -0.00030749382015461755 0.0
0.0015440567768032637 -0.0007753748217952063 0.0
0.0029093626069540005 -8.942333631831737e-5 0.0
0.003400464678488828 -0.0005120831800840387 0.0
0.0034390273485139476 -0.0004886526640890029 0.0
0.0005249470769659071 -0.0004891881510517971 0.0
0.0003620217976609019 -0.0003665945580322454 0.0
0.0035158732190940078 -0.0004369575023871162 0.0
0.00354588018925451 -0.00038350796317827536 0.0
0.00238534634577504 -0.000873093295907332 0.0
0.000430990194428914 -0.0004216609291226252 0.0
0.0029127082849311915 -0.0007598959247858025 0.0
0.0007420354788949245 -0.0004738116078900956 0.0
0.0032918900380292525 -0.0003979068650053017 0.0
0.001140477671798533 -0.0007494736853602706 0.0
0.003069177539597815 -0.0005419667687283239 0.0
0.003116213757264086 -7.434866595750282e-5 0.0
0.001122372081414497 -0.0004049438410654727 0.0
0.0007524231290145087 -0.0003783167904381294 0.0
0.0014542831550123595 -0.0006536672058179233 0.0
0.0019333500197892888 -0.0005433676648425777 0.0
0.0033013056064293642 -0.00022763469453053727 0.0
0.002063650209256351 -0.0008497408374901382 0.0
0.002094033315195613 -0.0001899816501459015 0.0
0.0020713735410361977 -4.520436614855889e-5 0.0
0.002662724384892055 -0.0003898974562293565 0.0
0.003072821066070466 -0.00045824547420175 0.0
0.001082851874728257 7.127370140777021e-5 0.0
0.002499423212591571 0.00013599828110090573 0.0
0.001222742827014258 -0.00039754511770027516 0.0
0.0033353500393090273 -0.00032823989922868297 0.0
0.0007805277850365351 0.00012167664308503179 0.0
0.0006643843886189672 9.209991629976598e-5 0.0
0.0016907962158637015 -0.00011942531470622466 0.0
0.0034698632187011866 -0.00014550126262959657 0.0
0.0018381541953391065 0.00010189892922082411 0.0
0.0020326071631157033 -0.00023208767432540244 0.0
0.0036711607574169097 -0.00013591602655542133 0.0
0.0010281354097448072 -0.000409939718641185 0.0
0.001265801284860423 -0.00025511223206337036 0.0
0.0028620512980780215 -0.00037838126217770506 0.0
0.0031651463024748167 -0.00042786678735212013 0.0
0.0008911029739140141 -0.0004122036021042837 0.0
0.0005172518821985993 -0.0003583429870241437 0.0
0.00303450475919266 -0.00045511121015546905 0.0
0.0012905480980975213 -0.00016169331663534714 0.0
0.0030063417852469387 -0.0002596164978335029 0.0
0.0039373319361385595 -5.0337657795683594e-5 0.0
0.00327268025774915 -0.00011236576347942481 0.0
0.0021025167032250576 2.118125535350147e-5 0.0
0.002172188480916979 1.6009556242186936e-5 0.0
0.0024665641388018087 -0.000317704653011292 0.0
0.003591526817132316 -2.889574316480187e-5 0.0
0.003530205536758176 5.9077294670425884e-6 0.0
0.00015704984834211003 -0.00012237527921584425 0.0
0.00011675207160769842 -8.98650145074034e-5 0.0
0.001586134112103289 -0.0007638557300580329 0.0
0.0025704592969816153 -0.0005084010489437037 0.0
0.0014403097458415403 -0.00027032533297123524 0.0
0.0014387059305144584 -0.00024648146987877825 0.0
0.0014154532809188172 -0.00010074974436292626 0.0
0.002022937225138167 -0.0007172458465437382 0.0
0.002355657242384852 -0.00027823293244325905 0.0
0.0006299684249960773 -0.00011189915263658056 0.0
0.002767235179090571 -0.0002117170605961197 0.0
0.0021305798420395332 6.45375857372723e-5 0.0
0.001679487577373325 -0.0004829692793166444 0.0
6.83396826232285e-5 -7.952181516401063e-6 0.0
0.0019358362931178354 -0.0005123818864301959 0.0
0.0036515413063863385 -0.00015746150536007127 0.0
0.0031199509410441938 -0.00026226651014250657 0.0
0.0029591063362123258 -0.0001947918171611088 0.0
0.0034982953667184315 -0.00020718821180057087 0.0
0.002547465731535887 -0.00022291197555721363 0.0
0.001390507846933895 -2.7018403646729093e-5 0.0
0.0004563902895701599 -0.0001724974276201502 0.0
0.0017299213122626634 -0.0002422013817711766 0.0
0.0021769112667105314 -0.0003183757579186695 0.0
0.0005689204999502537 -0.0003065960772153406 0.0
0.001831157018671381 -0.0009281996173466943 0.0
0.002463714480721596 -0.00022062129021389586 0.0
0.001191792184024608 -0.0005941811363855292 0.0
0.002660205395073489 0.00015742349995071878 0.0
0.003354021213409934 -0.0002244833862852162 0.0
0.0012821040087928936 -0.00013618784219067166 0.0
0.002931672448282896 0.00017726545641422013 0.0
0.0022488112345106894 -0.0002615567287086237 0.0
0.0019386367869409235 -0.0004825433892218432 0.0
0.000707482384180479 -0.00013725189288440383 0.0
0.0013233671645257723 -0.0002805091020444096 0.0
0.0016983013120978798 0.00017224000584400087 0.0
0.0005315768761891737 8.775391341992127e-5 0.0
0.0029603992139234933 -0.0003813376927324099 0.0
0.0007791501501167598 -0.0002940789423127056 0.0
0.001992306811725136 -0.0004697597629154676 0.0
0.0033035513020995247 8.14882648166322e-5 0.0
0.0028114136909150192 -0.00037475191412529986 0.0
0.0013138616860385456 0.00012642208992395002 0.0
0.0002387987674745041 -6.691896627691108e-5 0.0
0.0010093380747651344 -0.00024363893478090577 0.0
9.027083137294769e-5 8.153884502745228e-6 0.0
0.00018841746972502498 3.868465891196422e-6 0.0
0.0027954808575853442 -0.00034594932402319024 0.0
0.0023061374854961457 -3.966953542432965e-5 0.0
0.0012998331430812934 -0.0008343396689725253 0.0
0.0009080695415336462 -0.0005418111680986546 0.0
0.003271678985281542 -0.0001769162037678247 0.0
0.0004455784595412877 -0.0004097657923992337 0.0
0.00271076279781163 -0.0003978071788507922 0.0
0.002261145193941999 -0.0006939922263463266 0.0
0.003244533933911299 0.00012587151955197352 0.0
0.0011665537628719666 -0.0007051701556636359 0.0
0.0035365385004441185 -0.00034103905168662434 0.0
0.0020351622793468543 -0.00021551000829460467 0.0
0.0006454112349515221 -0.0005338971927918433 0.0
0.002738098613745321 -0.0007868812941537979 0.0
0.0006579826385242172 -0.0003443864372931358 0.0
0.0037491127159954116 -0.00014732423806903706 0.0
0.0004699994485500584 -0.00024173803465306467 0.0
0.00277084430117074 -1.3003117379672097e-6 0.0
0.00255122996245654 -0.0001975067961536088 0.0
0.002073129672815235 -1.3585408045767439e-5 0.0
9.229026019930736e-5 1.2489380022577773e-5 0.0
0.0015228477791685308 0.00020313996068556403 0.0
0.0010808042442858638 -0.00015104221032134015 0.0
0.003161948826321785 -0.000611045040184472 0.0
0.0032055877595776236 -0.0006285572626962519 0.0
0.00030044486306142926 -1.0923948168927176e-5 0.0
0.0023113393095730004 -0.00024792699598199483 0.0
0.0009478999212713745 -0.0005420755019813882 0.0
0.0016314028941990775 -0.0005223242456819135 0.0
9.749072472086969e-5 -8.565438123028851e-5 0.0
0.0002224566128128418 -3.867924029170731e-5 0.0
0.0022216690270903993 -0.0003523617770418843 0.0
0.0020460739146242884 -0.0004554189949765018 0.0
0.00014516492923937022 -2.1582714153136568e-5 0.0
0.00038966240359689547 -0.0001414917268801111 0.0
0.00029526264773978105 -0.0003118114153553942 0.0
0.0033128262329306913 -0.0003613173961154878 0.0
0.0026169277342763205 -0.0005168150544985487 0.0
0.00046789810407665155 -0.00032387855429036815 0.0
0.0030732379388645047 -5.3744623820826713e-5 0.0
0.0028248074577177603 -7.509107086857974e-5 0.0
0.0002082251696054121 -0.00021641417973150505 0.0
0.00164249160824138 -0.00016288665733647982 0.0
2.5576776439890498e-5 -2.9877089530372843e-5 0.0
0.003973075327071998 -2.929942605435096e-5 0.0
0.0038599442712504988 -6.220392478717185e-5 0.0
0.0011783959619133463 -0.0007980981815092809 0.0
0.0030825198184026566 3.022029119370284e-5 0.0
0.002621859549164868 -0.000623729732304796 0.0
0.0005209910930547395 -0.0002500786772908409 0.0
0.002487976034163058 -0.0008924413656034125 0.0
0.0005643888052959937 -0.0001364960042787607 0.0
0.003457042770568548 -0.0001686981368495511 0.0
0.0015803713175446717 -0.0005309540941270092 0.0
0.00014730026542204348 -0.00010633214802080309 0.0
0.001829453136122931 -5.8151801788385474e-5 0.0
0.0018281807468338866 -7.473754138443865e-5 0.0
0.003628632504812852 7.063068333681855e-5 0.0
0.0022441440078087385 -0.0005391739329232639 0.0
0.00028740754870994705 1.56270871611661e-5 0.0
0.003501916587684285 -0.00042053783229668 0.0
0.003665152156110904 -0.0001047406670620081 0.0
0.002802523708744737 6.037273920529507e-5 0.0
0.0028756060102911466 2.989437781358025e-5 0.0
0.0017124601222668714 -0.0008021907442284625 0.0
0.00389298340916792 -0.00011845493807698617 0.0
0.0016901960925126015 -0.00013780109210159263 0.0
0.0003579886072307718 0.00010801967396480777 0.0
0.000456842545504581 -0.0003530779549881838 0.0
0.001178354929318206 0.00016098973859969822 0.0
0.0035071201111466863 -0.000341726344484351 0.0
0.00020310597907990174 3.243776402766905e-5 0.0
0.0020926949981847592 -0.0001730390756898069 0.0
0.003133296840235259 -0.00023107227130975927 0.0
0.0025214913784713743 -0.00032830570970920566 0.0
0.003913214370053274 -4.607095956405928e-5 0.0
8.967081572036169e-5 -4.6124586056395356e-5 0.0
0.0036796663873816062 -2.6591577122751945e-5 0.0
0.003925384334709294 -4.526496248294086e-5 0.0
0.0019319579577048494 -0.0008977293676474884 0.0
0.0022857099235036654 -0.00033914823454936105 0.0
0.001300283256374108 0.0002168982757709401 0.0
0.0009399624517687005 -0.0004107548290805186 0.0
0.0012448391602541717 -0.00022178984526487696 0.0
0.0016331731672226725 -0.00018101060046200242 0.0
0.0007919965888033723 0.00010107479244743055 0.0
0.001449405237557075 -0.0006185569907925074 0.0
0.0007187903902906179 -0.0001088300332109459 0.0
0.00047016095884093825 0.00010913098529632355 0.0
0.001858490091797883 -0.0003016146752060262 0.0
0.0028421070825741857 -0.0005109140915111944 0.0
0.0033693021840208097 -0.00032888817560440726 0.0
0.0013250350417778154 -3.197192849305322e-5 0.0
0.0008889988551158376 0.00018223005267704713 0.0
0.002156232030700013 9.36041525204301e-5 0.0
0.0011518603002624017 -0.00014681070014673466 0.0
0.0031940327807140237 -0.00034177935307495307 0.0
0.0010984686825257007 0.00021820082099026415 0.0
0.0009881308523553086 0.00021401796486796688 0.0
0.0021973289818875926 -0.0004936092101884673 0.0
0.0022171221279844652 0.0001502576467054619 0.0
0.0015615996479264105 -0.0008917498563343543 0.0
0.0029993285381600446 -0.0007232876352178211 0.0
0.0010700389080885513 -0.0003802610906460098 0.0
0.002788476254425906 -0.0008074044665973035 0.0
0.0008594465373770561 -0.00014182339416767808 0.0
0.0032506903320061796 -0.00033396744542052605 0.0
0.001528896947955052 -0.000509985133310411 0.0
0.0034487468032087703 -0.00021602960581394538 0.0
0.0009431309111288784 -0.00038356152452195526 0.0
0.0015871831678185243 0.00019733073977802856 0.0
0.0014099357919293023 -7.6484720567641e-5 0.0
0.0017841754111757912 -0.0006780876950785499 0.0
0.0018895095180930604 -0.00022235978907845174 0.0
0.0018270201242370089 -9.035110842274621e-5 0.0
0.0010951517010209155 -0.0005334708481969133 0.0
0.0011080227103505932 -0.0005708603948248941 0.0
0.0007141564058662275 -0.00026455003491715554 0.0
0.0009622254216542541 0.00028932905624104037 0.0
0.001848359217561512 -0.0007848361077250251 0.0
0.003482204226793655 7.649246279016724e-5 0.0
0.003128632468766006 -0.00042571672018573085 0.0
0.002179599722556235 3.8459402765552015e-5 0.0
0.0010228524194169691 -0.0003829846688536417 0.0
0.002743085367696391 -0.0003047190206330958 0.0
0.002313226605516397 -0.0006726147279639865 0.0
0.0015263221555898555 -0.0004792352806419391 0.0
0.003709770890418225 -0.00012793884033108742 0.0
0.003890921298006899 -7.736366420410967e-5 0.0
0.0013782541653049366 -0.00025371792967795407 0.0
0.0026444451836903408 -0.000816777358956264 0.0
0.003586589331088577 -0.00036193185068490356 0.0
0.00017807434853694907 -4.7059637858938355e-5 0.0
0.0009492392723872896 -0.00024662997241330716 0.0
0.0011213137431167828 -0.0003779498592816075 0.0
0.0036523650870333713 -0.00031220118712830007 0.0
0.001442831507407017 -0.0005830281797740201 0.0
0.002498781328015691 0.00015743131326248177 0.0
0.0003770731058264737 -0.0003588186706151814 0.0
0.0023109019572019472 -0.00040308488689403294 0.0
0.0033567468844277453 -0.00029781417581067513 0.0
0.0026736557369272046 -0.0004916742403321914 0.0
0.0037729017148443443 -0.00012251337795666405 0.0
0.0027028637595789295 -0.000740855119947583 0.0
6.983391172167633e-5 -3.835145951336288e-6 0.0
0.0017682264083969089 -0.00029029784177887747 0.0
6.746320229501674e-5 -4.826317779954298e-5 0.0
0.0012457777623099988 0.00010924109327544135 0.0
0.0008341334807544331 -2.5319348678982005e-5 0.0
5.790034293841848e-5 -6.243428049646531e-5 0.0
0.0010146993048308927 -0.0007425381767311463 0.0
0.0009382464817061214 -0.0006789551451092022 0.0
0.0016949819091312077 -0.00010312376014974226 0.0
0.0016963901643381432 1.7101132309746487e-5 0.0
0.0006829618805613381 -0.0005569123792916352 0.0
0.001216746806928893 -0.00014236857470980804 0.0
0.0023558942541660184 -0.0002589336683569419 0.0
0.0006975000384315512 -0.0003458751244496039 0.0
0.0026150212928731766 0.00018332847526234317 0.0
0.00236963750956331 -0.0006498014796469143 0.0
0.0005113304404398122 -0.00013806242701104503 0.0
0.0002917613876782517 -0.00025813110437348 0.0
0.0020413691032944805 -0.00015004484296493684 0.0
0.0001348857090133715 -0.0001450442092151522 0.0
0.0038159820870699327 -4.205402562367544e-5 0.0
0.001341923848182017 6.498344272962451e-5 0.0
0.0018699799443922702 -0.00027772656302379046 0.0
0.003459679778292734 -0.00037951970467825274 0.0
0.0037729728722222977 -0.0002332472834039742 0.0
0.003146694846991033 -0.0001996984859990614 0.0
0.0018427392212187197 -0.0007485357234140843 0.0
0.002400855826352506 -0.0003816232431048264 0.0
0.0033827767612041684 -0.000496487257786159 0.0
0.002014667981167207 -0.000941275186107362 0.0
0.003312073048281962 -0.0003020156011901739 0.0
0.0026858446235418568 -0.0004599500809100503 0.0
0.0013932119787805322 -0.0005583585146892997 0.0
0.0023651163937550208 0.0001644391714954243 0.0
0.0014715931878061291 -0.00045374090615029895 0.0
0.0012303846397762805 -0.0007400286657092301 0.0
0.0018388647227615895 -0.00022825123363911425 0.0
0.003096260100224936 -0.0006429192932942165 0.0
0.000707328453220002 -0.00023947568565813902 0.0
0.0005697036852672081 -0.0004937040689527946 0.0
0.0028728623099795437 8.646270548978661e-5 0.0
0.0008958706233191581 -0.00027380566599196547 0.0
0.0022963778225248673 0.00015959149613517672 0.0
0.0012073583985011073 0.0004286060489405414 0.0
0.00295688878602144 0.00022566695980457777 0.0
0.0034411140530438452 -0.00019460445023544392 0.0
0.0019044543276476994 -3.8514305384862124e-5 0.0
0.003073552394457383 -0.00023230579476517975 0.0
0.0024262017965031918 -0.0007067147312092465 0.0
0.002566442568353181 -0.0008776596503568187 0.0
0.001173871147303965 -0.0003734303898605998 0.0
0.0011834271021403117 0.00022613637208680128 0.0
0.0007763288375981621 -0.00024386969157244007 0.0
0.0008593894302083358 -0.0006788611697014388 0.0
0.0017363957560388686 -0.00032102168009525697 0.0
9.120624702707285e-5 -4.1863069439506664e-5 0.0
0.0006591514664450137 -0.0005103622436853601 0.0
0.0018982804801238689 -0.00012387717508197685 0.0
0.0002269984992485449 -0.00015892258274985638 0.0
0.00023048213428620242 -4.229988625752547e-6 0.0
0.002088394243521582 -0.0004439781790517262 0.0
0.0020939028160654478 -0.00015740062285669862 0.0
0.003726435185799174 -0.0002537742641625921 0.0
0.0016323460183514777 -0.00014500283256532878 0.0
0.002861559462394277 -0.00047734223920917326 0.0
0.002111598356458449 -8.177388536876919e-5 0.0
0.0005422532475093023 0.0001024269703137192 0.0
0.0007137728385911686 7.967940648592002e-5 0.0
0.0038300780738969625 -8.97051778757884e-5 0.0
0.002432848995615134 0.0001606570366790154 0.0
0.0005742678069382536 -0.0002567554480583603 0.0
0.0024110089873661 -0.00016702228765378506 0.0
0.0018213655165634996 -1.7785583764952224e-5 0.0
0.002075527319032677 -0.00022315773254638936 0.0
0.0006656353160655157 0.00018728057158833882 0.0
0.002100613354968333 -0.0009449420482844338 0.0
0.0036367042743038714 -5.8402076575638796e-5 0.0
0.002053973745472577 -0.00037063961370100654 0.0
0.002039448417364464 -0.00010486208578527294 0.0
0.002595576918158745 -0.00028036454473148866 0.0
0.0017626529207654296 -9.77848890644317e-5 0.0
0.0020635304377290054 -0.0003439089977361927 0.0
0.0009942794810569064 -0.0005784327791417893 0.0
0.0027443576273915075 -0.00043468620889529634 0.0
0.0016296432612175487 -0.000256654781386524 0.0
0.002038121059774757 -0.00013537186265288455 0.0
0.0032398319961589534 -0.0006144464649670904 0.0
0.0017399315391397113 -0.00022269076225446798 0.0
0.0024317194955136303 -0.00012382249725915241 0.0
0.0021213091819285786 -6.683860923353771e-5 0.0
0.00030614859247469404 -0.00030547917234811136 0.0
0.0031454612304677217 -0.00039816252712092837 0.0
0.002106890741392987 -0.00012177042756118041 0.0
0.0011640365574160897 -0.0007376686931221742 0.0
0.0022949126266380315 0.00016409130435486105 0.0
0.0028742805577400186 -0.0007813413736733886 0.0
0.0038402431631844773 7.26453537249694e-5 0.0
0.00017310385052021735 8.87436882811692e-5 0.0
0.0016932063078146432 -0.00033167411386959145 0.0
0.0022583269736412793 -0.0008980522419203733 0.0
0.0014191727999172126 -0.0008316152029565255 0.0
0.0016148331558036857 -0.0009023617444262364 0.0
0.00029999977045921407 -0.0001292335001619136 0.0
0.0029135688665560115 -0.0004544407809060494 0.0
0.0011798175616980267 -0.0003460743796867048 0.0
0.0016805419321686684 -0.00023073316584502944 0.0
0.0013307259351871582 -5.557050952298025e-5 0.0
0.0016727248575766206 -0.0008829278450581013 0.0
0.0028711649423204034 0.00018576544280111 0.0
0.0036726530346133544 8.21776512438983e-5 0.0
0.0024272131659851303 -0.0006776696213413962 0.0
0.0020472985863688267 -0.00039979587049200844 0.0
0.0013104036062428716 -0.0005513943210222258 0.0
0.00218754804176626 -0.0009430587193072965 0.0
0.0030373321627437297 -0.00038758882959346284 0.0
0.00026240231911060004 -0.00015852940857233032 0.0
0.0035843297972730673 -0.00012110459809763745 0.0
0.0017643878699675603 -0.0008929191367007277 0.0
0.0018080009180309969 -0.0008020636000134085 0.0
0.002750913723044629 -0.0007056870691387834 0.0
0.003944579575219251 -5.450715661227264e-5 0.0
0.0015032920719553714 -0.0008517993731846169 0.0
0.0012545707325988644 -3.466413692791593e-5 0.0
0.0013295287246579874 -0.00026058107404262605 0.0
0.0025792282034694217 -0.0003113586929655051 0.0
0.0038378320488758337 -4.5685232457086695e-5 0.0
0.00031820240132030345 -0.00026916631184551034 0.0
0.002070541503729274 -0.00032064349725933745 0.0
0.0035562130145984274 -0.00034632333212020726 0.0
0.0038230311972576405 4.886330559027875e-6 0.0
0.0011227401144251413 -0.0002106422601734466 0.0
0.0018061610814693878 -0.0009014681089571267 0.0
0.003722924535512693 -0.00011199463125673194 0.0
0.0006834546594997146 -0.00047939954264419437 0.0
0.0038930917692946254 -3.161627925106465e-5 0.0
0.0012629959075587942 -0.0008302413112119524 0.0
0.0027563884377658737 -0.0004031391638518915 0.0
0.000752861472080275 1.2351248300800586e-5 0.0
0.0024931284865737204 -0.00012787379276042377 0.0
0.0038593488705361513 -0.0001368918662428138 0.0
0.00309382434756392 -0.00036094380832359574 0.0
0.0011081333215556652 -0.0007482934872602554 0.0
0.0007839515888956335 -0.0006438056271396229 0.0
0.0009937139163092275 -0.0005269621330470923 0.0
0.003317357235687912 -0.000536159665773635 0.0
0.0030168659989892677 -0.00023514431035895285 0.0
0.0006240197051771991 -0.00026554966953751903 0.0
0.0016018630634477113 -0.0003173256568204309 0.0
0.002574838517137936 -0.0003428915919255318 0.0
0.0015466432492772513 -0.0003734253729741801 0.0
0.0037531580826255725 3.5264587348567535e-5 0.0
0.0027516030655902915 -0.0001880407524682236 0.0
0.001621496961096483 -0.00023865800457838904 0.0
0.0006409663396869404 -0.00023474574358142616 0.0
0.0029437526030390727 -0.00040761841727021035 0.0
0.002460767506569255 -0.0008287512380262332 0.0
0.003466338896187002 -0.00044959156567793494 0.0
0.0013527195729882099 -0.0008171351064185829 0.0
0.0025484132234903562 0.00012394077507482288 0.0
0.001475265427748215 -0.0004238118635386208 0.0
0.002341314621078417 -0.0008898167170537806 0.0
0.003429314765026338 -0.00038181193487794483 0.0
0.0029900605784350318 -6.255906340321042e-5 0.0
0.0037538025226965003 -1.522234679203045e-6 0.0
0.0008932064158616329 0.00019399518540779272 0.0
0.003650519901273159 -1.6272443749383592e-5 0.0
0.001292589413761667 -0.0005058857170530627 0.0
0.0033738073132855433 8.725392962803155e-5 0.0
0.00235923250330579 -2.426925131556672e-5 0.0
0.002770741887226251 -0.00013353229592128236 0.0
0.0012138148616915542 -0.00031012137596078194 0.0
0.002815343618946812 -0.00022593477140005905 0.0
0.001893807643978672 -0.0009063498090572489 0.0
0.001036128764889353 -0.0007015605473406175 0.0
0.0021407330613676116 -0.0001646617324237799 0.0
0.002978580698340295 3.9271863239856635e-5 0.0
0.001776130655875954 -0.0008447995195204153 0.0
6.385684003628652e-5 -4.171742581959529e-5 0.0
0.0038583790176847503 -5.74453995073901e-5 0.0
0.0033605883915461213 -0.00012485627871747934 0.0
0.0016227838558811301 3.7834060765373884e-5 0.0
0.003909988570000628 -6.827926839476487e-5 0.0
0.0010826388069186282 0.00016276460969810535 0.0
0.0018236379727089285 2.722239032066638e-6 0.0
0.003971371785742585 -3.4042948077194975e-5 0.0
2.676984918808076e-5 -3.344545006131749e-5 0.0
9.478305683692696e-5 -7.744945162620171e-5 0.0
0.0011469017375846306 -0.00012503483046825444 0.0
0.0024389202471255043 -0.000392858136060509 0.0
0.0027708108633764865 9.661312938173877e-5 0.0
0.0031009223509496976 -0.0006086070802380722 0.0
0.003871249366026203 -6.849514543865091e-5 0.0
0.00029185646446762637 -0.0001816814748227173 0.0
0.0008331351865079939 2.1289458605248373e-5 0.0
0.002477630281628489 -0.0007878021989485083 0.0
0.0034778949179991464 -0.00012667985551777122 0.0
0.0010258830416265085 -0.0005250402561781304 0.0
0.00022577457806687327 4.323680917492331e-5 0.0
0.0024680104323296106 -0.00017688309070498556 0.0
0.0011933842119585824 -4.021066771252039e-5 0.0
0.0029350633786899344 0.00018077347308332085 0.0
0.001854557372540373 -0.00012019037006912588 0.0
0.0015335886562977573 -0.0003962196808798634 0.0
0.003530922830432121 8.068233223744114e-5 0.0
0.0036172237468753915 -0.0003453245686826481 0.0
0.002983563825432251 -0.0007012790440969759 0.0
0.0009026546532867558 -0.0002517545188512946 0.0
0.0036844199691785954 -0.00010811498768336096 0.0
0.0006109736397458572 -0.00031719893480670625 0.0
0.0037173476553777314 -5.033483716469464e-5 0.0
0.003348444922007369 -0.0005241910719238802 0.0
0.002385937979347871 9.654262787159248e-5 0.0
0.002772947948946174 -0.0007853419933087532 0.0
0.0028911347209120654 0.0001691680319451445 0.0
0.0018369275213800517 -0.0001891206538650004 0.0
0.001026149059960201 -0.0006649796444117013 0.0
0.0014027923079866353 0.00020978270173682055 0.0
9.407358327033198e-5 -5.241905791709486e-7 0.0
0.0038230755799388977 -6.807870050676523e-5 0.0
0.0004069383636128981 -0.000387290773561672 0.0
0.0029378728517342897 0.0001046033539950692 0.0
0.0007141365405487537 -0.0005786260985440989 0.0
0.0027600674018205596 -0.0003776737053639255 0.0
0.0008174934647538775 5.911808140797263e-5 0.0
0.00034407870431492484 -0.00019562827711889835 0.0
0.0004973636424866133 -0.0004759058873510963 0.0
0.0004487541303692281 -0.0003286289822052576 0.0
0.0011816015361264948 0.0002593696792517708 0.0
0.0031191337969784503 9.389302774469868e-6 0.0
4.9031551464606787e-5 -4.9547850905658066e-5 0.0
0.0033347248864514156 -0.00011080980327722143 0.0
0.003010131093171624 0.00019866513595641493 0.0
0.0024987607989201675 -0.00037425656063205906 0.0
0.001857550735000517 -0.00014855801756621123 0.0
0.0010515226226917086 -9.151317783000426e-5 0.0
0.001903059742554809 -0.00020577242661222716 0.0
0.002533928794664638 -0.0007183156157474155 0.0
0.001226408794940175 -0.0003461717801303007 0.0
0.0009124784036095427 -0.0006776646844802457 0.0
0.0034175996359075535 -0.0003006861184454865 0.0
0.002599879534533825 0.00018635029775019335 0.0
0.00040979009913651317 8.9160180046953e-5 0.0
0.0011745424619493425 0.00010746315725282942 0.0
0.0026824164225149874 -0.00028312071728572294 0.0
0.0025200438295107587 -0.0008558368611291695 0.0
0.0015971696074483926 -0.0003394829815820513 0.0
0.0031966616360809144 -0.0006076367031692655 0.0
0.00024053892509995922 -0.0002503279767333993 0.0
0.0027943755979214667 -0.0006762774572052446 0.0
0.001322034546677769 -8.606293451119295e-6 0.0
0.0037552790138171777 -0.0002326433678997146 0.0
0.001270135874888976 8.217855401422436e-5 0.0
0.002451504239593062 -9.019855031038787e-5 0.0
0.002104568184504666 -0.000425706233854773 0.0
0.0018283589135292904 2.1376907532396736e-5 0.0
0.00218002101589634 -5.8107075411409055e-5 0.0
0.0024311464790896047 -0.0008702213585957117 0.0
0.0031276864815519404 -0.0006334392687124484 0.0
0.000988083461844142 -0.00038852122714417306 0.0
0.0022350779088428537 0.0001205617393505045 0.0
0.0021810543021489196 5.830153485282092e-5 0.0
0.0031158946679932537 -0.0005670457747636949 0.0
0.0018447161024441943 -0.00017277475965472554 0.0
0.0017662637107494633 9.590576522150754e-5 0.0
0.0010197060777920731 -0.0006308720860153965 0.0
0.0037309035281509347 -0.00023342131230582276 0.0
0.0026274128155762745 -0.0008610569308369267 0.0
0.0017803771645272756 -0.0008198092896364038 0.0
0.0038554046037665517 1.767808758521443e-5 0.0
0.0017555746007143715 -0.0007261958464762541 0.0
0.0029359435459688984 0.00016770127894026498 0.0
0.0010575720974288505 -0.00019128390047380364 0.0
0.002604706527997081 7.481587291144394e-5 0.0
0.0007672544726238879 -9.753631031113872e-6 0.0
0.0016678907723867466 -7.658096775111196e-5 0.0
0.0011065525881234824 0.00034223640157846926 0.0
0.00392405269360537 -4.327792119592703e-5 0.0
0.002443957494144976 -0.0006531537260608993 0.0
SCALARS damage float 1
LOOKUP_TABLE damage
0.33325886459542436
0.0983955434097884
0.40070728539967515
0.12559095588208075
0.9666497884105238
0.9761837076659172
0.02454544978183783
0.503125145364514
0.49583633819284584
0.4996192841865031
0.522752485594406
0.5426095661994247
0.5703209896629972
0.5974770056570688
0.615018212266625
0.6297706979117323
0.6268043709482382
0.6217351721846754
0.6085509058906373
0.5885713968991944
0.5689863052022517
0.5560037427365044
0.5340634997488557
0.5097063964034417
0.493281559978557
0.47062706822053174
0.4406464981839271
0.41336850841607203
0.37578046390235587
0.3377811438256645
0.2909702504721941
0.23731884301329584
0.08325470507194326
0.156240520748421
0.17306707463968155
0.1985545505479595
0.21622304001616047
0.22965077183824456
0.24490243461758443
0.2560691089790652
0.26764472019379576
0.2792255840391288
0.2884353058850544
0.2990777884242293
0.30998075295562494
0.31749289606900394
0.3253270074498569
0.3346973332832297
0.3452952090002745
0.3576368143829831
0.3649734689828444
0.3746893353682713
0.384122437119001
0.3972110222201692
0.4020622510328986
0.41755481793079957
0.42430920107302345
0.4384615987498101
0.447839922651011
0.46445619648062114
0.4690420474058555
0.486993463098439
0.49829192917022946
0.5139955183575325
0.5249484262230567
0.5411273417281778
0.5500182183774972
0.5632935013197867
0.5801503927809583
0.5989220604220608
0.6205187621124146
0.6370037291987826
0.6546440532138841
0.6812849921943602
0.6979503765905625
0.7198482870876816
0.7454097297331844
0.7609650768321128
0.7881977765794225
0.8070160606658302
0.8280275967224826
0.8522301439199307
0.8710099881130806
0.878790236406999
0.9055508023463593
0.9153947132495794
0.9406980490643541
0.9403698771341779
0.9490643694118407
0.9429334017986212
0.9308903082571298
0.9115831178870363
0.8914907571753287
0.8684254634461942
0.8490798075463939
0.8231208567007275
0.8095876067952933
0.7884218954509957
0.7621520522954561
0.7446073954707215
0.7260458501618877
0.7157126949411211
0.6929451310683828
0.6868577055216278
0.6711158572871574
0.6577335988713922
0.6474490362981633
0.6278956193009342
0.6214139962404209
0.6094165217098585
0.5972321056028632
0.58143707675983
0.5814549538192351
0.560759462680668
0.5542539963334825
0.5392019163455543
0.5289578819882749
0.51921237031778
0.5034978794114813
0.4923565885144821
0.4832375241656515
0.46921121670423105
0.4522010178127698
0.43456372681580024
0.4219315331388323
0.4047429526732132
0.38919362619540665
0.35039177755038675
0.3188922043785795
0.303057125568942
0.191932213206033
0.2519874314545139
0.32262330466056216
0.40072009449199264
0.4449629007205178
0.4700122182938183
0.4888928858081914
0.5024345841282946
0.5117748465139544
0.5189025540222774
0.5291715747843967
0.5361577300349305
0.542865592162102
0.5493611288332565
0.555393513426246
0.5574413724288122
0.5551028431848931
0.5488143590149204
0.5432612907344586
0.5256040487468459
0.5183512174513681
0.5078298652655077
0.49926944397717143
0.5076815112270634
0.521815383370911
0.6013733690365685
0.46921438811280936
0.8263752529333162
0.9996998775813164
0.9921074275289656
0.9834555355390378
0.931434972065297
0.7999639473654078
0.703424807581844
0.5950445367874336
0.5056420382331104
0.41575488901005325
0.35531173192838833
0.2828797199106436
0.213541549956107
0.14602670688250416
0.11436491629618667
0.014373862515415723
0.05731467981923328
0.10730392615483186
0.17134775590901377
0.24737859686743363
0.3443274575207329
0.4540152088551441
0.5899126980575954
0.7367114975427297
0.8960067599839627
1.009695995316448
0.9985725046689125
1.0033969648381298
0.948229259102327
0.8278440467222027
0.5690219958847983
0.47966811292383976
0.722986070697377
0.5779531256268043
0.8424355620058547
0.7060606244400927
0.9395694049710662
0.8333301197708483
0.6413480217706238
0.4128900848218609
0.5853597990670469
0.3627512630144339
0.5866283176628059
0.5512300692505002
0.3771465622094601
0.4008617673486563
0.03855988863298583
0.2090972323585925
0.5248364491957176
0.3171252983717759
0.5234798544623125
0.5287242482624469
0.5327899875386157
0.6094957097857007
0.47417461278997536
0.2725932644353447
0.6391840678330971
0.45120983411254195
0.4635417163569814
0.4970382913454817
0.6425753627483235
0.7723112096287266
0.9051218126005198
0.8827046363603642
0.7907011493879553
0.6768191678378936
0.5370675606457037
0.4441435736587122
0.42257061458293216
0.23566830244737508
0.498475702492525
0.5745178845157449
0.44829133106646796
0.36369756659525737
0.7927012653182396
0.7176971651426923
0.49765949773872387
0.5085839694424766
0.5599735778227385
0.5467265118367313
0.3223224954767978
0.10517886072908544
0.18641979956620308
0.35489126967046153
0.7474479071904085
0.9193085863410163
0.6070857049861361
0.5051966391151205
0.9346291775978343
0.6157594584971664
0.39258639196055073
0.5600050117329771
0.34197029782120836
0.2948239103546336
0.49760483419900664
0.7522129118408444
0.758939493783989
0.369681685542707
0.28056822969542133
0.9735640965533499
0.9515039463537928
0.45245863848639595
0.5463867562285026
0.14512719098980803
0.29137855420860687
0.945303433722563
0.7253284865041655
0.5737090986646673
0.5881153033418277
0.6841617351597034
0.563556984295926
0.5205288604411706
0.5008491101937018
0.4795434237595758
0.463554096027751
0.47396048886307796
0.4517035256254382
0.4601950330650118
0.4462774213886621
0.45537248938271185
0.4550464709191373
0.2835706755667932
0.11045632683977377
0.24604616013447228
0.13973465002674013
0.23741393489973628
0.17726833826257266
0.2430139292176397
0.20550220268878588
0.25256042350384483
0.22493632923025683
0.25811827258234393
0.24351618732925745
0.2726137931629094
0.2576343016735822
0.2814779484783806
0.2715972117856734
0.29066996354085994
0.28104747411058306
0.2977776322606102
0.291375335998032
0.3054270304847062
0.3017327917140421
0.31276693286619284
0.3106374739916951
0.32228315956742865
0.3215159419497807
0.3311389341681598
0.3294885036184013
0.3388943529640848
0.3364365040930854
0.3466165621829702
0.3474470993123557
0.3559451310320136
0.3571687891370589
0.3645703689831866
0.36600990390346877
0.37345792468330574
0.37596070219081107
0.1957463959299493
0.38308169151335036
0.2788955776767479
0.34310730514522336
0.38575810559735063
0.39322347682843484
0.3962262705298988
0.38887479520927953
0.3995029993123677
0.40378396582532194
0.40094944651539316
0.35490219315667304
0.4119709218893433
0.4089507716481513
0.41960583428568443
0.39211422277612595
0.4031112652146443
0.4166112528579138
0.39597406206810537
0.4070119208682515
0.4288670782952596
0.4262711095747709
0.4009031809391319
0.4118417250746347
0.4388650921433076
0.4367103822213007
0.4053007402776045
0.41587403853165633
0.44988371998071813
0.4479274879010629
0.4085657371735258
0.4201095549959361
0.4615246206280047
0.4596631169097855
0.4121719973943004
0.4255195432010415
0.41684876029672857
0.4049399620016904
0.4636249785361525
0.47371772551692215
0.47135020914508513
0.4568179858863941
0.3178913229633338
0.4695392604321546
0.4545184161498626
0.46752341712920586
0.4302555845930402
0.4223136404108915
0.4360329429404271
0.48642788141714566
0.43305898554478167
0.4246341641173604
0.29984716317470156
0.43487429786904336
0.4267772713175072
0.4364143037656119
0.42816854014880995
0.4190482915416837
0.4198694801020603
0.4133216822861999
0.4374748318069373
0.41686778362431676
0.4087881774149217
0.4469018203696835
0.44678422813899793
0.4118061267652459
0.40585873082950896
0.4549877989912368
0.4676165491367206
0.456332105822997
0.45470977494132025
0.45630400364143847
0.47020522938913906
0.48270756830790307
0.4839025161854448
0.5009659944014205
0.4993725258256733
0.5170178444566037
0.5133760165093898
0.5325631101420594
0.4989913569756192
0.5268150160568709
0.5484291472840329
0.46536691411996106
0.40954684663298024
0.40455852776748946
0.5545693201780367
0.5713275553953804
0.5627054076956337
0.582495358272001
0.4633260504637836
0.5868013600487323
0.5754636343245468
0.47453047987889446
0.4727446739028492
0.4619229537335796
0.6002192225797439
0.5875961568796766
0.4853084348645214
0.4879986325099293
0.4700499215880333
0.45874186340393797
0.609461335107185
0.5973168152600574
0.5716583005633668
0.623312751430278
0.5791823702387117
0.5581744098773304
0.40864506410894774
0.40583146139863296
0.3991718904474781
0.405682715077376
0.3950610020877409
0.4032166179720976
0.3911023676765291
0.49932624722564867
0.5019174432539797
0.46576197234034394
0.4548757484541889
0.6030785305626151
0.40475777560311016
0.39131900737257364
0.5137232930649287
0.5165537382674484
0.42136209225087384
0.5853782821675281
0.31548694857046294
0.6950616737125449
0.3129277063368776
0.4597232577109923
0.40738091963552436
0.3930133772016541
0.4625672054721276
0.4521198291591105
0.5286474079871877
0.5326952588284412
0.6088932133374997
0.4125127995925502
0.4133624205671703
0.41743023636059556
0.5877324624900381
0.41565182712508164
0.39771139873990696
0.5247961688039714
0.457550025214694
0.44699659281512233
0.44630746103278673
0.45301651003324256
0.43934222610189916
0.450832502700061
0.5451077677251058
0.5489085292071876
0.39368361279581676
0.4225073444225137
0.4124811652918991
0.6121701384229306
0.629513502358494
0.44371888473964033
0.42716033556898614
0.5932508310289241
0.5699779919814769
0.45728738563209487
0.4694947065075982
0.563012778900478
0.5663538997598446
0.5515843663193284
0.5694037424695828
0.5535710519325717
0.5716198470693583
0.5546774954305183
0.5723247974023935
0.5541782865231427
0.5716212389638766
0.5911626758599332
0.5905341315291021
0.6115160189793517
0.6104317470633602
0.6328215228368506
0.6311552665116903
0.5527743010764772
0.6073810053657547
0.6277198657376741
0.653510616109861
0.6496265722575664
0.4160754787575725
0.4156570949694729
0.4524991602454609
0.4423439017157795
0.6227835549583838
0.6440471772228772
0.6731107370723036
0.6668936180826776
0.4202348366773494
0.4177458663415059
0.4375407922624505
0.45300730925343924
0.44091151704244813
0.6158080589986172
0.5960451023726702
0.5820147023135782
0.3743026543753113
0.43215351490249954
0.6982420640516639
0.6911564435590503
0.659315584523558
0.6836293790498525
0.41412908155407013
0.46178853436713363
0.4726758631110455
0.4433679185639233
0.4469431156496531
0.437097600712703
0.4484876187554717
0.7163940956215944
0.7089417421418103
0.6743348851957232
0.7009363945657496
0.6659522265275587
0.6908885412598431
0.7272587959185471
0.7157663469642771
0.4677101284259204
0.4227361540763513
0.4185419942558967
0.5784650714120142
0.6195881650514811
0.6010279791666402
0.7489545305343045
0.7394385069986419
0.44825605380633365
0.4425859584068903
0.4319258460092549
0.3942900579223282
0.44965958013275964
0.5981854128977291
0.46800009073984244
0.4375367241183103
0.6241832582699721
0.5998923793993733
0.5719744015834107
0.477349913560928
0.6362862195173087
0.4294984932986048
0.44889502697943806
0.47925302052646324
0.4667680481728404
0.6572106834845061
0.4349429530490602
0.4250651803888555
0.4248295236718298
0.41890195172464256
0.44582019729971845
0.7721099423572526
0.756749124118136
0.4223844093063868
0.4164123048381138
0.7831721382991775
0.592836985786019
0.41769945267420955
0.40939460663564803
0.5382201747205552
0.5721082463274328
0.5467195203116728
0.5998506494413596
0.7877642380732981
0.771597336413588
0.6340846930355551
0.6259591041767614
0.6135034346530366
0.7423623518093331
0.7544922386284079
0.42760837470967783
0.4185889654557943
0.7805174736511351
0.7620796987456565
0.4097042259734955
0.4014259389199855
0.5028315745575295
0.49399183008281006
0.4020696214742984
0.39461248097880885
0.3920397385235673
0.3854099774414078
0.5711251507429104
0.5973412940023186
0.4492463728193642
0.4658991903205922
0.4269946178055278
0.6079956070894299
0.7852298349983943
0.7668316983661141
0.46492364395320734
0.72649618899324
0.6327141140285343
0.3889141491799834
0.3805469497785865
0.37675267039127447
0.37103465258601254
0.3761659081870765
0.3669889567612823
0.3745621006771372
0.3655919272729636
0.3774588476828707
0.3680430824488291
0.38333825580098946
0.3554744697640128
0.3619939299620715
0.42857328235663944
0.43990621340907343
0.33998904571092753
0.34810439083128264
0.4349832813506509
0.4049400059882064
0.6046500649577458
0.59747575751932
0.41533251756386247
0.6293874214520054
0.6339819530216791
0.6178632679622067
0.5901724542209867
0.569823338283293
0.5903056049572106
0.6067010391129743
0.4540591128490431
0.4851103290926373
0.5872493376273411
0.6010781027516707
0.5816509794721867
0.36577023602964603
0.5256342353900427
0.5247452826861192
0.41755032209312215
0.786791795684705
0.7687067907930558
0.7501162598237954
0.7533636108674928
0.4346894555355706
0.45434441023991456
0.5042971290732499
0.8026354255956195
0.45068748908529493
0.7681688766414559
0.7536066909997855
0.7360685270937666
0.7378940263684663
0.7201303326360953
0.7226299756292365
0.7360835142933424
0.7215598181636437
0.33011939125427964
0.33382702843410395
0.359432125565266
0.6497504084535413
0.6575537015090144
0.593870785497713
0.5747993176144944
0.5924066214880853
0.5785782131009244
0.4668964456455002
0.4741094408999842
0.4813648366229272
0.4732165124178706
0.3267475678469697
0.4565206019754874
0.42545325120200705
0.6026043391628227
0.3846812615689537
0.4372688772275611
0.7306126380440892
0.7178885136782385
0.4646570697098276
0.4559850225668694
0.42762273088464386
0.41400631468878585
0.44254149075168636
0.4559693757453372
0.3723994572358895
0.7645475419569348
0.49008904665269193
0.7036570438916738
0.49514534043876735
0.31534114560231113
0.3218376790205348
0.4194535946386589
0.6100869748473365
0.5828297621711491
0.613409826857905
0.470468398854595
0.46443425757990076
0.4757441693707495
0.4726909482011687
0.4642648232067145
0.4719904576187535
0.4809590286757304
0.4785822708093465
0.4894901822903315
0.4915408010799725
0.49816159074353467
0.499821860434235
0.5078513415351612
0.5071598602884219
0.5054852260696577
0.5129240708551026
0.5148881865408889
0.4674579347577287
0.41465949176912575
0.4110231449642114
0.4208236491451635
0.5204398022368605
0.5198488686016827
0.5184825902978047
0.730832438381746
0.7352263613961384
0.7635380963900602
0.7670877968982335
0.7958741043110741
0.7981438907266608
0.768217568375014
0.7972541968833096
0.7660587800298915
0.09655175459627782
0.8278759832509112
0.825104541016116
0.4153828839682827
0.5366442614036264
0.5344165829057469
0.5194532410418008
0.5164589448230839
0.5026272316704803
0.4991800827258131
0.5125992293340788
0.4949722639575203
0.5087173283612946
0.4896419806012516
0.5030433402942313
0.47796657867813686
0.4862242331636122
0.48991567102376526
0.5220960206370613
0.5165806164131123
0.41211597996363275
0.35876428457547904
0.23810378933752765
0.6168559565522022
0.5395920130587171
0.534402425397779
0.3065676215551576
0.3321578300867101
0.7158339978740361
0.48337172455939503
0.5771452431443835
0.5647111627619367
0.3727149302629879
0.5862751220269529
0.5675222015646838
0.2974336543885529
0.7915885906398994
0.7593483856118242
0.556484437114407
0.550422709732673
0.5392968229887036
0.5343438311411409
0.5443888226282458
0.5285316042313897
0.5389983246151527
0.5227249762575464
0.36287103581959534
0.5160519019501489
0.562293219099705
0.5670477573819643
0.4467612759595592
0.4391808488555367
0.510866413509842
0.4955196313147778
0.6738667302134653
0.6801678625219463
0.7988922545786328
0.3835933396910093
0.43510795537712915
0.5159576359069392
0.576517658570175
0.699742084710775
0.5533222727894991
0.7071204000601334
0.7033531898398856
0.709020998483305
0.6953913715963709
0.3848041431895486
0.37151799158587556
0.48484055813002064
0.49302362221437
0.6416074850097266
0.4226762032876975
0.43131957416830513
0.814265099370405
0.5238698830746645
0.57736002997017
0.5842869284338594
0.5565928440004692
0.5452718958284553
0.5471612547574187
0.400525608327718
0.29836188101276034
0.3074488151868669
0.33719897648066505
0.49092986138980715
0.4927718228797288
0.49362006795257063
0.5034374981304561
0.5220989432875642
0.5228481981033639
0.5785916814557752
0.4645066778986608
0.4957583700111715
0.49051445862507054
0.4653281292995757
0.47789026368742066
0.4756392757927625
0.7335660223120141
0.5138671268248789
0.5073522907436141
0.5163281087004546
0.5018552653927423
0.6914201888708653
0.6855117548372499
0.6852617045100621
0.6737614063867439
0.5635097347373402
0.5569998569422847
0.856576254901021
0.8518311826214177
0.47411463771323525
0.478021902657553
0.6625210557416656
0.508514450717349
0.49448178799486064
0.6170335618598478
0.613937458005862
0.6285884497166043
0.6202393960486896
0.6990462427613172
0.2953589695094118
0.39001179748714015
0.3980425855648728
0.46303278700111206
0.47784930002513065
0.4668744154620369
0.49352355353000876
0.48136572992007354
0.5089294169641319
0.49666390285071954
0.5951196026838543
0.49327282303618714
0.693447108288193
0.8186056120255372
0.8302050659821892
0.8337263523963907
0.7845966923841897
0.5464529412257999
0.6677528926250721
0.5296719432074039
0.5202987717456916
0.39864128839332236
0.5563372391080295
0.5977574465374575
0.5908755232725147
0.8236698595303952
0.7529490302189412
0.414221508859946
0.5197156888952235
0.5224408598894257
0.5201291637515086
0.5194388966543525
0.6326371467254507
0.7433429727745199
0.5585362291186539
0.5891519606617687
0.44214862775707675
0.6023347354036384
0.7120232963813576
0.697178214342743
0.5409831222811575
0.5491137777022422
0.4333305223804245
0.44295024366098845
0.5246609288515633
0.5127037038871101
0.4837266780051231
0.4992444951236108
0.5273233417405561
0.5136240691253865
0.539181421550168
0.5253559817828704
0.5476387222098472
0.28295260615641793
0.5655474060708598
0.2936343631145363
0.41331237174276614
0.5114167787607593
0.5501282690834381
0.5038801780246996
0.5869231843360173
0.5323492649613615
0.3600532012358663
0.35225248749135607
0.524217543740588
0.8078802921333834
0.5968780704579673
0.656841565915444
0.5162327250729567
0.49232123013256435
0.4799729943397934
0.49377234883715915
0.35517125668494204
0.4823540848873276
0.44600350239330394
0.8812845116886378
0.8750760276253073
0.8464333729127089
0.8682794979389772
0.710601230596632
0.6825327219449079
0.5045233209676638
0.5112087294142282
0.6089128732524871
0.6393873360774199
0.4030776795788023
0.500910264128244
0.48733236600514696
0.41604323891108086
0.6775503846753514
0.5482934200113622
0.4812193122509229
0.8928726145076897
0.8840001357799352
0.5443469561541693
0.5487643336217132
0.5270039498602422
0.3989538915278818
0.39349418874665576
0.2650619948095701
0.8370314216009281
0.5020952598734403
0.7768769050000853
0.4179311117804179
0.41523534218515845
0.36721813169443096
0.6640863257186447
0.42098622548894077
0.4144265254433789
0.4201785431580553
0.4144839540048273
0.41865797928928056
0.4092559439283176
0.8457575216904483
0.8480847722083987
0.5033210106348571
0.8088038559072517
0.6554160567332339
0.6535761721094798
0.4438122870490247
0.4706536079739343
0.4485518735966776
0.5475474376395097
0.532598554529159
0.4722447264385623
0.4536793384732821
0.45133612263051937
0.45567119506867326
0.43484420567371956
0.48028720180512324
0.568321930665083
0.5911820276719295
0.5365440076437369
0.8832532198006823
0.5904512237480637
0.5058841039476694
0.4924983124673205
0.36459992060676755
0.4913230111621234
0.5392072268125878
0.53560096535592
0.4030337590911502
0.3485027493857041
0.3406346883615777
0.3459862244602171
0.40469519995449565
0.2771311225363364
0.31450878125040843
0.9032638312515794
0.8900839251624678
0.8684528078527962
0.6779196458232903
0.6781545354172875
0.6543260188727109
0.41039047350171287
0.4064133412686735
0.5522838254911079
0.5230662866654193
0.520555358827644
0.5085157113640577
0.4964749183955977
0.26230851890050666
0.4191587058048657
0.40140637650494665
0.3924957530467561
0.3748134994791162
0.3743169539073761
0.3801690465687755
0.5734291753127675
0.46350152615479373
0.4589919583657047
0.3371974443060133
0.32877007245231243
0.45812244926652823
0.4627425244295709
0.4748094295174454
0.47650270401365297
0.46846456568863076
0.7480630390004034
0.7262998350419265
0.7701630161709209
0.4736195448114774
0.426959457756858
0.4596413552360843
0.5693123760742423
0.8587002613474316
0.506045593750706
0.6395802292642908
0.39179476415738146
0.3747814445609767
0.3897593381664694
0.37897913914895986
0.39208648989578887
0.38553347544000527
0.39830335877028294
0.3939638773656044
0.40645216100062015
0.36594519135944753
0.3826067780705829
0.8341824466667065
0.4962461444140232
0.5288011611277724
0.5145029926906964
0.5646399903311429
0.47216842636738415
0.35720140357837143
0.5257338714950982
0.5068083723128782
0.31135345669146935
0.33074885063205317
0.4808955714182785
0.5359485321286694
0.5403836270857761
0.49500768073132656
0.4816475228990279
0.3815232520290305
0.24502203102964673
0.47990101058088785
0.4586972904247099
0.2609577268592298
0.6689312196594203
0.6545226256895792
0.667244517050574
0.6409070399798149
0.39187304283030905
0.5117881094969785
0.37266818691743425
0.5333229252190332
0.5123334701955543
0.4514487603266936
0.44404627373204447
0.6098575199197286
0.7416952063306944
0.729789289870315
0.7402066917262033
0.7235173131804343
0.7298912024947631
0.7498762476677404
0.7786251732722913
0.8328947397681165
0.4973558557100291
0.7074177365357159
0.4976623568411866
0.46039619775279755
0.45479562107997834
0.7162759958011953
0.7053225945313157
0.7005671578178025
0.6191205985402679
0.6298179902688135
0.6514945232913361
0.6730080657599433
0.47992380983254995
0.6281796634673106
0.8135394596064506
0.6644758806274816
0.6503408885481908
0.6383342780698901
0.6518299707895182
0.46040014520445427
0.5550234701471706
0.5472259179751552
0.5632863965297233
0.5565928150329709
0.6535730176862736
0.41406698627273386
0.39508510131237257
0.5181802084211755
0.5427471792283052
0.5575892560098393
0.8625758775226701
0.8689867162773552
0.5794878492063146
0.4891489321676456
0.39433348024344167
0.6371344565660241
0.628687397952591
0.4946876041059644
0.4748904541221744
0.6260302901166755
0.6791606558196636
0.6842896177279912
0.6243403042318975
0.6435181388145034
0.5603358039916596
0.9132546881008112
0.5043834688689594
0.5214703269838338
0.5485580910303834
0.6091430330666889
0.9041933958787383
0.4628164826854424
0.5092362687881467
0.40925492686196163
0.4858671221409235
0.7133512961513703
0.4134915320376082
0.6047378642739001
0.7582722019432316
0.7377922763840613
0.7601287327717376
0.7043614978354196
0.5299238102425986
0.4517963862322144
0.6699413253407184
0.5007337564311358
0.4990153787930539
0.4948159276815895
0.4672673841664673
0.44884962261918254
0.4604917388448016
0.5620334300526992
0.5439773827874043
0.6604509965103985
0.3959686271990382
0.40279438070954476
0.39936988111020677
0.661195058805249
0.602385628091419
0.5647955257807376
0.5305797685431344
0.5173839302716544
0.5580749181131286
0.5592675253030416
0.5643409690430518
0.5191067044285792
0.5126723846373155
0.5142202292007537
0.5019114120643127
0.5096362939782425
0.500915481646389
0.6276880237448211
0.48878730518429336
0.5028171165757125
0.9047486186043274
0.5743662584254328
0.5511458376460433
0.5439818017282242
0.5356304513297483
0.5487689313732803
0.5386489135045067
0.5392253258150457
0.42379860228211014
0.4222393972124584
0.41741764049618185
0.4200840515834032
0.4256123757707553
0.42120837924772897
0.42753922079524237
0.49534959948946516
0.42366496282103777
0.42931278075570795
0.5569075098675882
0.44043237059031276
0.43477438654773626
0.4169534092015909
0.6630578028371948
0.6774943905158286
0.7477440879422891
0.7681044611456281
0.6002057136955136
0.38233499374694324
0.35889192189936486
0.29700895443504927
0.33072692497402806
0.36124933058727515
0.3122744616969942
0.3300641330819639
0.2715718519432442
0.2970102664176265
0.25038225061335123
0.28502910143563404
0.25573891637538626
0.28352552586005925
0.265978991640401
0.28721228764789886
0.27949062800462293
0.29576640810332633
0.2917105085984658
0.30644649698427623
0.30529360425938157
0.3180768537915457
0.3188412967600683
0.33037116885567264
0.3319262731736443
0.34257587174444926
0.3411346089162591
0.35264738979771765
0.34646396235061894
0.3119658460569415
0.322111047109899
0.29426252261615626
0.34983532401177025
0.26102023696458626
0.35234496959987205
0.3624976506395293
0.36452867129213895
0.3733468521731588
0.3066873742141681
0.22689807581960825
0.3419760814717137
0.24008827952695308
0.37637427357214326
0.3842526078312421
0.3812661306598276
0.35402577743754887
0.34739578549962863
0.3681716842461594
0.3806170519459658
0.3734938251339441
0.27234167568875123
0.21700315499400238
0.39128201205030244
0.389045749686642
0.3804305330901959
0.38815885816162815
0.9047952624818576
0.8809223211853952
0.5102980334431731
0.8020773306496611
0.8291914231996644
0.5193265070053863
0.5337796585809528
0.4491093225921859
0.5358685326495745
0.3949109080693634
0.4734256897973461
0.47003530076356903
0.475007738902865
0.5147176747255411
0.40134129541485425
0.5079286018964493
0.5083930427155261
0.3896822110830567
0.36417102037795857
0.39861411730188284
0.3543985097637113
0.4271166250479697
0.41050003852916433
0.418498685646248
0.4144622387752445
0.44653125969229207
0.4563062389178354
0.4422672133811369
0.45180889043454847
0.43759224101472455
0.4474050481257536
0.43343699971160315
0.4428221418874287
0.4573434596938389
0.45111013632229957
0.5076526253951515
0.4939937033866109
0.49774115803641106
0.4812917609244529
0.4142835427356342
0.3253837862360405
0.3179796577435074
0.32091902821420315
0.3099527455351176
0.5575455573600012
0.5462585310678342
0.5687930590399668
0.42564501569273844
0.38192145926071974
0.3733523993696131
0.6767959743161912
0.521290422767943
0.4970969774381635
0.48502289734344417
0.4910978437147592
0.46891746052972627
0.43982455190951625
0.44552295698623795
0.4159046784792057
0.41818565828396137
0.45619853911527397
0.5620903028718803
0.418777280063225
0.34741681048370365
0.38538328734773847
0.5127020485159599
0.5351709544525324
0.664815153556852
0.66671509317376
0.6467160151366597
0.5825004236401115
0.5977142937015916
0.4580951541004597
0.22110697863629622
0.2211766878035879
0.4137352656160968
0.603756420507008
0.6326515246048701
0.6729459041965739
0.6914462409154701
0.5707958769691777
0.6240071630318632
0.6375652335459037
0.6353850435642545
0.6185551281310423
0.6213931534935908
0.5209782177862898
0.5321368164157051
0.5374454378910741
0.5289989837694808
0.4082560959413813
0.5305615039511742
0.5287904577702546
0.7995184539106854
0.305190746864687
0.29532976265441524
0.3044094940364151
0.28980271040210637
0.485433938773447
0.5167000841050287
0.5243401660176639
0.6393566330506633
0.4533734452097011
0.6111346036051135
0.5947207061422881
0.5873943161887997
0.5681165629406099
0.566564812162899
0.5824524132306778
0.5593081424982712
0.7897939752665504
0.7840133698999289
0.7512652755121298
0.40077173714068387
0.41889693489438734
0.38881776268040896
0.38871777833964005
0.5645275130149228
0.5481013973203832
0.4580890860983574
0.5517835873639357
0.48716283564280566
0.47030675278579476
0.4839556850422565
0.49868247177164177
0.6490531850697688
0.3857947451341661
0.3839792618487472
0.6779579301593682
0.8190414043345512
0.4264650070412633
0.4119638287584455
0.44142950093044364
0.6797235911944106
0.6482125153619083
0.6998431444284902
0.5494854990976769
0.6614000958563224
0.48635348089710745
0.39433176965067596
0.516638179295937
0.5327744474815134
0.5475033699536114
0.4056915994990175
0.3920020060095025
0.6759752471862654
0.666527994086514
0.23711237998711648
0.8924427728173119
0.9005881096312183
0.6431185963784506
0.6542797292062467
0.6450291731299183
0.6663339094087681
0.661192922710347
0.33277597131072906
0.34064619974084814
0.45024117828476445
0.5630082746493182
0.47358358789202837
0.6454644294962696
0.6809264516453583
0.6864934782500877
0.28159494623144704
0.27332500296079754
0.516465017617818
0.39672536104920175
0.39238897185950183
0.593387800349315
0.5080265101931652
0.4829003673567942
0.4021188177423432
0.8629296087561317
0.8791739000864497
0.43688303174377696
0.4310329781821685
0.6537561988980596
0.6382194557814778
0.4288584017566926
0.4202311489965254
0.1952104835038555
0.9267714432923064
0.42783527563263096
0.36255871410697665
0.36673918595682803
0.4295944580523005
0.4232461373327646
0.37837515138312566
0.3669982032664628
0.37233559897345303
0.3618393370311795
0.36727095575841817
0.35599099155591585
0.35046547053809335
0.3445467903911822
0.33822970757622134
0.33333462936704594
0.3636158447765778
0.5821020701310672
0.4291522257978937
0.4412343503626324
0.27929984527646795
0.18538618723339106
0.17669622234061444
0.23202087459625653
0.2214186068985854
0.18837698436480674
0.1605491385650272
0.1529578078001252
0.4120630409568028
0.39222941156799807
0.5066513485903973
0.47703863277981357
0.47416023137314184
0.7131623795676277
0.7268918736058523
0.4657023174046395
0.4702318473578109
0.4594350137325206
0.37240470035821416
0.13140320819204346
0.3396956276856778
0.32814156783939646
0.321143457694087
0.31673020526835877
0.3087875991450024
0.48206703166844794
0.4939454020602881
0.1630087323139096
0.6980225245930133
0.6307586477741267
0.5300315889771344
0.40593758431995
0.3586385086001581
0.3438632624032349
0.4242048185086785
0.560997386270721
0.6334146986143789
0.6136893244099485
0.46742973062517784
0.6751561347238747
0.6891850422727577
0.702246183801748
0.7191110085189171
0.48486197774134804
0.5139857899980734
0.4897322299014994
0.47028620671429705
0.46617792920703505
0.4548434686611496
0.7253739085633942
0.3964175084903329
0.29895417532852464
0.24350524902369336
0.2432831475857882
0.26149298370498125
0.2528775941356285
0.2695740959398053
0.2333007505727111
0.2799559171926188
0.2847148783487039
0.24791019100504313
0.5583560034969041
0.2931085533205732
0.54520717862138
0.39301330952177477
0.6960997238390744
0.7005807215962255
0.22330949405212516
0.2116431653010369
0.49198537745697324
0.7670959341527537
0.7733353933229659
0.7679852899666397
0.7828066118376757
0.7743411112039255
0.7947558655272888
0.5002528447006239
0.5056983111293594
0.5106124949840276
0.50728176673682
0.5108262289643876
0.5025825085397209
0.5090767167324045
0.49925945404668737
0.49165915631359536
0.5163534207856135
0.48898968287750716
0.5186221088899765
0.5102821603622046
0.5208979313097077
0.5000643495434031
0.5030644146275597
0.5277511853304517
0.5136677187034481
0.522193499724457
0.33132610480238295
0.29551980904120145
0.3858809161379992
0.2422328372119829
0.2487559585139317
0.7123986832886378
0.5089986410160291
0.3569675756031395
0.34210938210323755
0.3400324518282499
0.3460428010753414
0.3611593150139224
0.3525636974352713
0.35947567195319385
0.34922929792205837
0.2799322957479686
0.46992872273897907
0.4843671151997856
0.505405363528851
0.5388646960142162
0.5107608390456824
0.5388745289368964
0.4329154692530685
0.3121269867783583
0.3148747314125084
0.32902810708217145
0.3403729250574028
0.35427079531431005
0.3085850123481086
0.5873935732960627
0.4144340879584137
0.41421177003266935
0.1874165742523339
0.5970765976880507
0.7950759702057252
0.41670806255360643
0.4277881189908165
0.4987312493060449
0.48700751512521695
0.7449822809355428
0.5485184806541729
0.5309185435955002
0.5322651234022486
0.5240658766039756
0.5251873982927545
0.5146526571925789
0.5126167390831616
0.5204536246228791
0.5018507035009133
0.5187736801592804
0.5118730277633046
0.5361253087091397
0.5032231942188857
0.5412537159464528
0.7109538225432593
0.4318438196331474
0.48509174631101176
0.39220867006970117
0.4851389756634358
0.380220858611891
0.3611030810803833
0.37413937164505695
0.35569123541166703
0.33650642557696037
0.33532845907759773
0.35057451355156155
0.39006252901891253
0.42775970094847926
0.37284378686315384
0.5971815982452153
0.523791757845747
0.6430121146941431
0.336102172960883
0.6813082642985092
0.580799289130435
0.5899134081919721
0.32435717432996347
0.4242905849378954
0.46122114665863534
0.4565763686575924
0.45101907672502045
0.43339292832314286
0.32448055642892487
0.8574796392218662
0.7477980219128397
0.8783296645969763
0.25964196716660864
0.5853160023593393
0.6096889200817143
0.7030656020800752
0.7790428114110641
0.40937506109134797
0.4584645376839402
0.5681472203941954
0.3576368561986853
0.3641196938218702
0.3563269535516259
0.4108850014307192
0.37297658448320753
0.4112657999537756
0.3551084306990174
0.3599895046516868
0.5268705916610094
0.5354289330114996
0.46863854587859516
0.4852339226441657
0.3512690699719418
0.5736845781156394
0.5394345095458013
0.6591760839023189
0.4826821152127833
0.2690651821170152
0.5166934588482268
0.305844395913673
0.6247293032807443
0.5281825833095712
0.4814050858339733
0.4903303832863303
0.47600309196179996
0.4627275518264432
0.4016851047516751
0.3484598457334235
0.3832240611623235
0.43096617371310186
0.4294453075464442
0.5095782281729946
0.903910058652341
0.8768089173175944
0.89087567961283
0.8686985550861427
0.8541777989386191
0.8399673578119099
0.8528535572037789
0.7404223774327258
0.47035867638539985
0.4400731997582257
0.4458319238295175
0.515213863174849
0.6239322945645828
0.4673158707968192
0.5341775685823782
0.5371023600721545
0.5245758489732832
0.5244809071222385
0.5713972542563592
0.47395306815711685
0.4015283978825326
0.3758971547211036
0.5499466210957943
0.5333408341052978
0.40413371673119025
0.4455414365164213
0.43563921730250005
0.4243003047275447
0.42287487331804885
0.3545290964213873
0.14988886106956284
0.8469334789391998
0.8340398058636497
0.8193530510119175
0.8453330289040971
0.49476843253883923
0.7509968900211035
0.24362357867964024
0.2777911781561031
0.4742114367034132
0.46004523545189707
0.4754975482056972
0.41393862290866384
0.4018275867640724
0.35518457453904245
0.45977571588173793
0.5658753214024828
0.8596021724025364
0.3744071137466545
0.3701106601417272
0.5948146861042279
0.7492216251871713
0.6063089127713355
0.6246580689535801
0.5325377446007035
0.4460538969891669
0.43729062021754206
0.4275908484338188
0.42954476824834253
0.43631951746956193
0.4430190296311461
0.4149299059137615
0.8193816259462638
0.8067183101893493
0.8196954701678358
0.8348513648344541
0.8506662635601637
0.859670098345286
0.8158890281405281
0.8188039537876469
0.331344498316647
0.4223066058504432
0.6483393394300672
0.9159404642342619
0.4964730205161741
0.9005713850696461
0.920145500995377
0.6476600803167274
0.5107483257380437
0.49671850129137757
0.5307106728497899
0.401028386175954
0.5126041448231081
0.6950923162887181
0.467102101192936
0.46686825429045975
0.47879811910747705
0.45513339946884324
0.47709581182615235
0.4673174552978267
0.45626935692761567
0.443474698165925
0.49626747790489967
0.4876654335604465
0.47834357296306346
0.6213980586291967
0.5572054371296797
0.4856212326117537
0.4219269783508822
0.3836252664694376
0.445312375921627
0.42413082926861717
0.42429464142704976
0.43217252091374453
0.8009435425058836
0.8320052515998521
0.8495737902052424
0.8173116270217466
0.7083545690869866
0.3882433666932959
0.5992121660525218
0.5609083172142297
0.8274488344954791
0.6121124946615338
0.49278572828455364
0.4731010207352759
0.40656383088725784
0.5422198600037594
0.5598011980534171
0.5084255215383956
0.605967271588184
0.6116530379417059
0.6197199731707925
0.6417158154865074
0.4748737269472822
0.5908700583826603
0.4801103572786448
0.40310864755125897
0.41326483891924704
0.3597065921699289
0.4812245697557124
0.8206290539552408
0.35968769419386226
0.6779213258402793
0.6806769580777093
0.7088055467872098
0.6808416078059462
0.70695550626185
0.7376994275085983
0.45123496884791
0.5227792664309071
0.5216260200071811
0.5733494939495579
0.5055136229498948
0.923268664695314
0.5855861829397528
0.6555167211366717
0.7543431374371905
0.4705976270855251
0.5115124222442832
0.5842347052638982
0.42608056218189305
0.07766963634410812
0.7842553607252067
0.4656630987434165
0.5103369772923029
0.5151589450258374
0.48767583409228543
0.49169449532391907
0.4662705788426332
0.47449575399066773
0.6803254183658775
0.46682578024918
0.5330811522584774
0.5661033708094226
0.5194603125413886
0.552730263712285
0.6220476499192951
0.7433293757808743
0.39881724386752854
0.5558975586814412
0.5393454165234541
0.5172735556471438
0.4795909804249598
0.5551489843402296
0.41913593025446966
0.4937257592174405
0.36379296327559557
0.3809995593106541
0.42387467933709094
0.5518540701968435
0.5417518849664147
0.5397823938179902
0.5309004469887643
0.6791666452308404
0.6200898717740945
0.39412705173606166
0.3902800385625771
0.4504525447781329
0.5699642652835618
0.42860374840033577
0.5496760381705211
0.7922902787367012
0.5129777736417691
0.4240852624496167
0.43703613994289436
0.5203430109173628
0.9235553944360394
0.3914404618581171
0.5046645539957418
0.5037610679843783
0.526953331387935
0.7633218799982916
0.7361886286982192
0.7240642559496989
0.482427967859535
0.9419653194207392
0.8834331519299807
0.7493680311316909
0.8167441185883932
0.7664410236371598
0.8001976659576604
0.5916219989493463
0.49242174620700063
0.9220230159084778
0.6269772608803661
0.429241410164311
0.5256749641490857
0.6942451355232362
0.720187659860898
0.4905170424333728
0.5536796897850919
0.7272632691123424
0.46103695093567043
0.4082554113116101
0.5070910027236103
0.476298399181613
0.31155469695529925
0.4620960778859559
0.6001068899107114
0.26567523419565336
0.25765347060545307
0.619759711383931
0.5455626518204254
0.6029427685212011
0.4744127285831806
0.8566119717000727
0.4009829219814028
0.3581380738839706
0.39713403335021547
0.537749269173731
0.6109708100457535
0.5029566547365018
0.13338557963223915
0.8016430184460446
0.7375030363885775
0.48659548264313346
0.6481194495603072
0.5056801564545388
0.6303250526621716
0.6612601064849495
0.6213372135985404
0.4312208934751675
0.4998040898363456
0.9273348004951288
0.6102693645436061
0.611481562818659
0.407896452647146
0.8729521728074539
0.5734777623678822
0.46612550529620583
0.5171888378126602
0.41578888001046405
0.48521487382316236
0.35184441574735814
0.5707407583841467
0.5278531671574516
0.41374086453885267
0.7336324988696519
0.3288973961203295
0.3240561030786563
0.858662627693693
0.6373635954343744
0.820187833502591
0.7548195243018808
0.5031344382405059
0.17028985969464258
0.5103255531592985
0.6418881769667493
0.6354250912990693
0.30081140502105547
0.5193085631544039
0.6636789228485694
0.21966576604110263
0.680635627455815
0.48037792076733166
0.37886439236650427
0.4439994530403916
0.2655082249090818
0.2911278791428472
0.46982621942491615
0.5350928716168505
0.36396832370817717
0.615717698131228
0.5045977975920466
0.6558393503407148
0.6280317862540628
0.4875904101755175
0.7254005995667149
0.7255397293610045
0.4120322850145885
0.3811775548885138
0.31176626375363264
0.40460867239449516
0.33318126454105307
0.650797051758251
0.7446635929248595
0.16888466043346145
0.2005776545467242
0.2222153833275508
0.43993386937924034
0.24741272906765607
0.484983503016899
0.5300524139928099
0.5715931119842745
0.3503949321383519
0.3729671787448957
0.46167258972270503
0.4844424871630911
0.44119827136757434
0.6256096473157619
0.49053828311352166
0.5509460594122768
0.5350602248994129
0.330129226919003
0.2852503711951458
0.5147412074231046
0.5299177593263031
0.9124277165987852
0.30479307504322056
0.6970971264772515
0.4021193144894046
0.6737665216320793
0.5073967986830018
0.7203917691793645
0.5040779782827401
0.44836665904445316
0.4087936312694212
0.5630323868765964
0.5883698304389587
0.5632524264934775
0.847277514190078
0.37218395076153576
0.3010497299108724
0.5763635289352323
0.7075229148905912
0.41479609415954966
0.6059874382769119
0.4539816617833742
0.6508875833845547
0.4852518261010734
0.5077999962573883
0.3143797660306261
0.5344921575691105
0.0693723087701018
0.39098092007371865
0.5241332484296378
0.44290078350393375
0.4096316785898048
0.6140873232787522
0.6935011655433403
0.42833154831405956
0.35570578355498167
0.7042584841723489
0.3720898736182353
0.5418559362511607
0.4469150943920764
0.517289685509133
0.3017412056646767
0.3487161447064734
0.484588359752055
0.5030611575278968
0.48762589415063395
0.3255919921931631
0.3508084965903408
0.634057436226329
0.6707184265783781
0.4104056964175386
0.39940716290843253
0.3300274494297402
0.7373699152783983
0.44679171317720306
0.43394974690078114
0.47288710223883096
0.3558266932094775
0.5223128633600872
0.6040333226906432
0.5666714352468155
0.5416105189217129
0.5631057014164027
0.4970092357946905
0.5693553821067499
0.4428323396549433
0.3060489098890119
0.41730928057513744
0.3889132353773489
0.4519187059202047
0.38501290553174455
0.7912936088614074
0.43074763076269235
0.4988131803971509
0.7047549477114575
0.56603093658597
0.3628084588188825
0.4717332543855852
0.42452172475742794
0.5462961542719983
0.42244377892468404
0.41845351118376756
0.14663820687371612
0.5223246733194522
0.6361579800526469
0.413811642397669
0.5417250524358
0.45806203001267204
0.6011372308157826
0.38030333492510415
0.4863552558916721
0.41357255881680116
0.6078476936629689
0.5818883843114956
0.5665213855092777
0.3845178031491035
0.5589147653295553
0.43891034283882385
0.5335972906967388
0.3139153621396656
0.5939570976360857
0.7863946459116493
0.447392615599069
0.5119032182066118
0.5797161740941321
0.38078420017622105
0.36802557150484355
0.7780293564073921
0.39605436807242167
0.556787042808276
0.3856634653931722
0.5217841179373817
0.4339212093302925
0.28829016565928156
0.5940153205322918
0.19302400895603308
0.38925065629202693
0.6429865866537426
0.5991223383808335
0.5395784405350176
0.42347368671360897
0.4466222356002021
0.5368589896220847
0.30486325207821885
0.5223504058664735
0.47822431215636374
0.5367299886454227
0.5592240780082156
0.42976983338480357
0.2620383541824703
0.6653195400810317
0.69277322247566
0.34764665427317604
0.5036887814243409
0.485420421607506
0.23166996862888217
0.34678926226443235
0.20934285059968585
0.30618525799364843
0.5024926950645574
0.5213307958896346
0.4923559994779535
0.798090376766765
0.3918744148460825
0.8673146702895953
0.43301896821042896
0.5414135474754436
0.5354213586070425
0.3601049359273936
0.26565901419302035
0.2805224467139596
0.46503038504667177
0.629157299687478
0.563470883987877
0.5417590220075453
0.5209917273522292
0.5278267836806362
0.5233159724148574
0.6857419562944733
0.3104106080861271
0.32688956955508647
0.4953643048520118
0.3334429688456945
0.4143123136686998
0.6011892950595524
0.5687064562402914
0.3637526072281637
0.5441985200404157
0.49940509012736045
0.492761669425897
0.48137444973924975
0.5056107438679472
0.4774021594261135
0.8190991840697867
0.4763277370895311
0.3212727283193433
0.4344115413118379
0.39902795325496504
0.35525470142256993
0.4854399815394097
0.550126323613806
0.42563341967561863
0.502231421920985
0.4252428246658682
0.7284126718505481
0.6534056392767671
0.3221408508510503
0.4521726622077996
0.440028877360878
0.3813894840979285
0.6438987849957531
0.41463689387384933
0.4514556930169123
0.5815012031206904
0.32438611362432596
0.6633181142164141
0.6679690165400698
0.43938969888663065
0.7382945953642208
0.40956892795754973
0.6460779974101594
0.5196607326909457
0.5713945600812155
0.4317725318239237
0.15224487908093343
0.3205408668189868
0.64268937103154
0.3786342532915354
0.29356365777826215
0.47253082145796166
0.4801404868866381
0.4111651832817092
0.7696596361581031
0.7248661798201996
0.4608752480784866
0.6947775166923498
0.3712292867720134
0.4379202741878925
0.5238312379167905
0.779018656211775
0.5063098008059738
0.52254807590765
0.47908224483157147
0.4052884426536428
0.8185707532906631
0.5114691540760088
0.5095016549876838
0.41627971506716815
0.44266277911210317
0.4899762773953706
0.5374946779302154
0.6060892050728913
0.2918568401412037
0.5251475665326986
0.6339876582711496
0.6816576033736962
0.5331355539274394
0.8099615621233882
0.6161988052463597
0.4167754613152797
0.42222755025485403
0.384362651299511
0.4262916582206657
0.19829069009626527
0.46880813119416587
0.4489249063626289
0.30259944147717
0.203618419946788
0.37994051093011866
0.3730602815998232
0.43619798942243565
0.40208662858488065
0.6104733205028298
0.767956461557826
0.43208143555078304
0.28143881861506787
0.3466590448262745
0.20141396415028526
0.5280209882401354
0.323338095060705
0.41201986257513873
0.604661563168804
0.403434619677992
0.5301732697717142
0.7014980612491314
0.5201455619348614
0.5778771206511382
0.8645926343145032
0.6314871998953289
0.650632787472648
0.52062199991502
0.5756719693790391
0.4912091147299742
0.5371820165319897
0.38140764338328764
0.6640364457028269
0.41314722426469425
0.34728165086225005
0.5065068373275686
0.4179538407986959
0.6492930279652297
0.9749638362146699
0.9828968356491228
0.5525681617497701
0.25799041504234504
0.5348630557801098
0.8468394342848686
0.8227815623814431
0.4450952759374473
0.4208549757064678
0.4141561399835644
0.42285611688486396
0.43621759307495345
0.49542951381986405
0.375585292197004
0.3192216300619391
0.3455603309938804
0.5637013023792834
0.5316265407341821
0.3558365719714435
0.4557562078634467
0.3333245541740393
0.7055208093521959
0.3268919935675494
0.5132321738503907
0.49639085210520817
0.49946149575037846
0.5805804399284636
0.3997159858865682
0.4039398203058363
0.22594617390055144
0.38780327378123985
0.5025108109898729
0.8993344834629612
0.5191761233879831
0.47771495962650057
0.32208373377412114
0.4803158289073833
0.29884605269816633
0.46014191863093096
0.4597517598977715
0.6398780674152462
0.3999216948425096
0.33922349516183115
0.5880003744850305
0.37789767255634454
0.4019803591904949
0.3246003731449037
0.2688511962359602
0.6796598080482243
0.3418197483280572
0.5119902091863888
0.5850480445511899
0.7064092124770462
0.4790942221030584
0.4429870413551496
0.4414000870957299
0.9327811088796079
0.598060287013364
0.6851694303105422
0.4253512396748832
0.6960935051178737
0.43860988281483243
0.3834673077088385
0.32724147186262986
0.7046596255392124
0.5045818409631917
0.4872077153576075
0.8195696568173085
0.4960255160112039
0.507195778661284
0.9369764344714188
0.6568358306502051
0.37383734844816885
0.5270514421517689
0.751673963052569
0.7225332680660828
0.7998647954118026
0.35242213835575126
0.6237131223565069
0.33832560011613283
0.4113633979256307
0.4973407529042835
0.5268745964036682
0.2946118254804295
0.44536779388085546
0.5579925119068271
0.5151958491946435
0.4025295197702836
0.7666768535554352
0.5179233944729651
0.38956337417292924
0.5271582110394534
0.546388042358111
0.6130497576923349
0.4601686710627562
0.41198579808484415
0.39288401301248116
0.6468670143194406
0.497764272805264
0.4010086311400596
0.45577175765825856
0.5922190777149263
0.5281978085072946
0.40457126626661505
0.4309365027455213
0.5173257544295176
0.4588107159328565
0.4788066531841835
0.4634411860676148
0.38798678732747754
0.4095755823621883
0.6561871049869432
0.886367740107632
0.5475150640209463
0.5813091046829093
0.573641280023101
0.47888047127391464
0.9245535309843554
0.6220812192821018
0.5037239594066202
0.505447710991383
0.44663539641336575
0.5016257797958583
0.49079046475659804
0.4525809711678768
0.4080891632166188
0.4632690925185555
0.4297180013675479
0.4892187593481474
0.8107855828448883
0.47637761171555554
0.36445109072066556
0.5003139710380834
0.7273938450320756
0.44667804501302133
0.5087322197946195
0.5231161887062106
0.21705648357846974
0.4714355987746484
0.42774746542617065
0.20301975290856705
0.20516435654179996
0.12245246697713805
0.34245451901922697
0.3773839499292403
0.5353907825105384
0.5234436088553547
0.6787530905093037
0.5023860160485233
0.3630636118045569
0.4482743847125838
0.875826451201326
0.5289234314779022
0.45937082506691856
0.550229081641055
0.4145784849751235
0.35357274815408707
0.5890078025287497
0.31559672217263074
0.4700301534017239
0.45349210613409363
0.49392466483394776
0.6932160860775077
0.4164545705718067
0.5226275047981119
0.39344708164354536
0.5203485038955656
0.5785133817677859
0.6462583983311733
0.7619179968651345
0.7011575142838871
0.3579412004237949
0.4739282572979003
0.2656446915647034
0.6135519124692638
0.511844549051069
0.29997181968222003
0.48336285544665264
0.3862416868554356
0.5893004885050147
0.4710277114094607
0.3755240434781875
0.3225212723158818
0.3422750668174016
0.6303603682180605
0.49832802056037273
0.2746596729494501
0.5187873608005746
0.9142448310447601
0.5288958740861266
0.33152166573949227
0.38353298864470337
0.37005738185935233
0.8469928847635504
0.44101715852757134
0.4411391514888242
0.646120503722188
0.5701431623909355
0.517299349594102
0.4121168634320852
0.497479230273428
0.8672791674783731
0.44074736701905554
0.6279511137464978
0.24300509131262882
0.7888363256304017
0.3168437990421068
0.4395168666855981
0.3627668110064905
0.4086757969192755
0.5210795569546598
0.1783273681345741
0.3420328521822259
0.8983707282681274
0.6525503041227543
0.4367003930489736
0.6468998341511305
0.4032759354899891
0.6925825606801741
0.34914943948044685
0.10573749508154484
0.47142598774689787
0.48853800486823834
0.8051930377536712
0.7232802533362284
0.5092924947181667
0.665089165171021
0.9140153118752009
0.4006946849614051
0.589192720076892
0.4473247446456687
0.28496462566077385
0.9058270380682668
0.4999475793991899
0.7978115579048313
CELL_DATA 4886
TENSORS stress float
-9.82851569293998e6 8.010176059318635e6 0.0
8.010176059318635e6 3.658762981227068e7 0.0
0.0 0.0 0.0

-2.0765375308585465e7 1.2891429141116323e7 0.0
1.2891429141116323e7 7.851457179430511e6 0.0
0.0 0.0 0.0

-1.0200364577994265e7 2.426866760853299e7 0.0
2.426866760853299e7 -9.28714673828297e6 0.0
0.0 0.0 0.0

-3.518829364467698e6 2.318446867690599e7 0.0
2.318446867690599e7 1.3804029474955704e7 0.0
0.0 0.0 0.0

-1.7962226411024632e6 2.698605917722049e7 0.0
2.698605917722049e7 -1.2841498626075052e6 0.0
0.0 0.0 0.0

1.5687167196994266e6 2.73769021566559e6 0.0
2.73769021566559e6 -4.1917890111470176e6 0.0
0.0 0.0 0.0

6.282577210945016e7 2.9460995157599404e7 0.0
2.9460995157599404e7 1.6235482608125065e7 0.0
0.0 0.0 0.0

2.2735353136917073e6 2.9861310358939017e6 0.0
2.9861310358939017e6 -4.8938688780407414e7 0.0
0.0 0.0 0.0

-9.48564293671281e6 9.868740312417354e6 0.0
9.868740312417354e6 3.800835579106457e7 0.0
0.0 0.0 0.0

1.8172813025129e6 2.0044900665898878e7 0.0
2.0044900665898878e7 2.2817765123576578e7 0.0
0.0 0.0 0.0

-780697.4864326501 2.182308463196157e7 0.0
2.182308463196157e7 -8.2729700176667785e6 0.0
0.0 0.0 0.0

-75840.45722812577 3.2759383334056128e7 0.0
3.2759383334056128e7 -1.20033601395554e6 0.0
0.0 0.0 0.0

1.0144459659600221e6 9.700975284456832e6 0.0
9.700975284456832e6 -4.479125360442715e7 0.0
0.0 0.0 0.0

8.97876089704424e7 3.272565461837694e7 0.0
3.272565461837694e7 1.78020442425065e7 0.0
0.0 0.0 0.0

-478544.6345402994 2.251394891653874e7 0.0
2.251394891653874e7 -8.253204121229306e6 0.0
0.0 0.0 0.0

3.34244556692913e6 3.9701795576974116e6 0.0
3.9701795576974116e6 -1.756103110805748e7 0.0
0.0 0.0 0.0

-3.7177693251167918e6 1.8372904570651777e7 0.0
1.8372904570651777e7 -2.3073577704412375e7 0.0
0.0 0.0 0.0

-108316.3954142835 1.4616498840207838e7 0.0
1.4616498840207838e7 -3.076446755031882e7 0.0
0.0 0.0 0.0

-9.13089229378797e6 -1.5550751542039462e6 0.0
-1.5550751542039462e6 2.9136035635684755e7 0.0
0.0 0.0 0.0

145473.83568188315 2.5288822628779642e7 0.0
2.5288822628779642e7 -7.509545241229684e6 0.0
0.0 0.0 0.0

2.1643674585929457e6 1.1772836202286538e7 0.0
1.1772836202286538e7 -2.1940271466717903e7 0.0
0.0 0.0 0.0

1.2605943959491313e6 3.2396393582201526e7 0.0
3.2396393582201526e7 -1.1694699465358148e6 0.0
0.0 0.0 0.0

-1.0662054683472749e7 8.637182942526419e6 0.0
8.637182942526419e6 1.957144574119147e7 0.0
0.0 0.0 0.0

-1.5207694412798354e7 2.4985888707021907e7 0.0
2.4985888707021907e7 -491872.2003273796 0.0
0.0 0.0 0.0

-612868.2369284891 1.2906312479681898e7 0.0
1.2906312479681898e7 -4.02766924531616e7 0.0
0.0 0.0 0.0

2.5974294059511386e7 4.497400149688619e7 0.0
4.497400149688619e7 -9.901331678642314e6 0.0
0.0 0.0 0.0

4.2137561525039256e7 2.3361475877941474e7 0.0
2.3361475877941474e7 9.13591819712359e6 0.0
0.0 0.0 0.0

-8.769569494350513e6 1.726553558060365e7 0.0
1.726553558060365e7 2.6846938780055076e7 0.0
0.0 0.0 0.0

3.452748512294976e6 3.985296574237143e6 0.0
3.985296574237143e6 -1.796516610419181e7 0.0
0.0 0.0 0.0

-7.959909918090163e6 -3.0876497698417394e6 0.0
-3.0876497698417394e6 1.564106577545979e7 0.0
0.0 0.0 0.0

-1.1431574789308669e7 1.034160717940903e7 0.0
1.034160717940903e7 1.749653898627729e7 0.0
0.0 0.0 0.0

1.374425915402263e6 9.070843638545152e6 0.0
9.070843638545152e6 -9.071794279001273e6 0.0
0.0 0.0 0.0

2.154163296702714e6 2.200818627677115e7 0.0
2.200818627677115e7 9.34245379336339e6 0.0
0.0 0.0 0.0

-51641.343485855876 1.957468908940009e7 0.0
1.957468908940009e7 268129.1789926693 0.0
0.0 0.0 0.0

-3.0370375317416894e6 2.4226073055190623e7 0.0
2.4226073055190623e7 5.252257731648403e6 0.0
0.0 0.0 0.0

-1.1487079604175307e7 7.214564128683982e6 0.0
7.214564128683982e6 1.6403894351741247e7 0.0
0.0 0.0 0.0

46130.283863632474 1.3019112673068056e7 0.0
1.3019112673068056e7 -7.883407975571057e6 0.0
0.0 0.0 0.0

-2.4609413776190123e6 2.3914562146669105e7 0.0
2.3914562146669105e7 5.792661590685547e6 0.0
0.0 0.0 0.0

-4.925155642726582e6 1.6086103054900834e7 0.0
1.6086103054900834e7 -4.190239354308459e7 0.0
0.0 0.0 0.0

-2.5849004155227635e6 2.9106494075316478e7 0.0
2.9106494075316478e7 1.6700007509982265e6 0.0
0.0 0.0 0.0

41615.60149271414 9.838160442050064e6 0.0
9.838160442050064e6 -4.8869635838843524e7 0.0
0.0 0.0 0.0

-1.2857115783053134e7 2.596655064475695e7 0.0
2.596655064475695e7 -1.0437517378947144e7 0.0
0.0 0.0 0.0

-2.537512083668019e6 2.835876314592275e7 0.0
2.835876314592275e7 1.5285682243843088e6 0.0
0.0 0.0 0.0

-1.1011728745661512e7 5.252698796039924e6 0.0
5.252698796039924e6 2.651911336958678e7 0.0
0.0 0.0 0.0

1.609248964037736e6 1.1663019154293733e7 0.0
1.1663019154293733e7 -2.4018991208430815e7 0.0
0.0 0.0 0.0

-7.265160357530791e6 1.8416804038362864e7 0.0
1.8416804038362864e7 2.5388514008161247e7 0.0
0.0 0.0 0.0

846145.6732068639 2.1556710353344686e7 0.0
2.1556710353344686e7 -1.297693736096904e7 0.0
0.0 0.0 0.0

-717886.6393073467 1.252347308556991e7 0.0
1.252347308556991e7 -8.716229914020102e6 0.0
0.0 0.0 0.0

2.759306521927189e6 3.042879201913038e6 0.0
3.042879201913038e6 -4.048375235748194e7 0.0
0.0 0.0 0.0

5.208658292786661e6 1.763936721520254e7 0.0
1.763936721520254e7 1.7362194355441764e7 0.0
0.0 0.0 0.0

-879281.2584498799 2.8169299548993945e7 0.0
2.8169299548993945e7 -439107.83475361386 0.0
0.0 0.0 0.0

-1.5106726778908337e7 1.0738470909848046e7 0.0
1.0738470909848046e7 7.114429481210786e6 0.0
0.0 0.0 0.0

2.795040840904027e6 3.0888397076157224e6 0.0
3.0888397076157224e6 -4.20069545172817e7 0.0
0.0 0.0 0.0

-1.652481911580705e6 2.613126815141909e7 0.0
2.613126815141909e7 967323.2955995027 0.0
0.0 0.0 0.0

5.579777676715963e6 1.7804132803097583e7 0.0
1.7804132803097583e7 2.0965211817331906e7 0.0
0.0 0.0 0.0

-8.216875942060519e6 2.6041568266247775e7 0.0
2.6041568266247775e7 6.069684904588159e6 0.0
0.0 0.0 0.0

1.8964645127847046e6 3.706301067652234e6 0.0
3.706301067652234e6 -5.370022759256463e7 0.0
0.0 0.0 0.0

-1.9230009328579293e6 2.933665802504444e7 0.0
2.933665802504444e7 1.7341997883403397e6 0.0
0.0 0.0 0.0

5.329849112337963e6 1.9347943843872268e7 0.0
1.9347943843872268e7 4.052655534326856e7 0.0
0.0 0.0 0.0

2.312439838170849e6 1.0619462765347315e7 0.0
1.0619462765347315e7 -2.6548878750363797e7 0.0
0.0 0.0 0.0

-2.5102963893714095e6 1.7615990945423298e7 0.0
1.7615990945423298e7 -1.1638647752028737e7 0.0
0.0 0.0 0.0

3.0887298965704277e7 2.5783901802021388e7 0.0
2.5783901802021388e7 1.0376558548600543e6 0.0
0.0 0.0 0.0

-4.333798598013082e6 2.0544990431732632e7 0.0
2.0544990431732632e7 -1.3917547836100673e7 0.0
0.0 0.0 0.0

-9.245363972086355e6 -56381.01919977916 0.0
-56381.01919977916 1.6318543505041623e7 0.0
0.0 0.0 0.0

20035.547754239 6.523526320305179e6 0.0
6.523526320305179e6 -1.4363320266149137e6 0.0
0.0 0.0 0.0

2.5396394557852093e6 4.406694584632132e6 0.0
4.406694584632132e6 -3.9477233366954975e7 0.0
0.0 0.0 0.0

1.6463738083339836e6 8.41602142403154e6 0.0
8.41602142403154e6 -4.448551902096713e7 0.0
0.0 0.0 0.0

-2.364847891668851e6 2.5689800090854093e7 0.0
2.5689800090854093e7 204639.25013685145 0.0
0.0 0.0 0.0

2.294885523967445e6 1.9254659426453944e7 0.0
1.9254659426453944e7 3.332238333405146e7 0.0
0.0 0.0 0.0

2.2388477252890233e7 1.841084705498381e7 0.0
1.841084705498381e7 4.702549608589704e6 0.0
0.0 0.0 0.0

-1.190643993501778e7 7.024808127063771e6 0.0
7.024808127063771e6 2.40019469895226e7 0.0
0.0 0.0 0.0

255114.47922292538 1.2974874735730562e7 0.0
1.2974874735730562e7 -3.72641880348171e7 0.0
0.0 0.0 0.0

-4.535390374763765e6 1.714254584014202e7 0.0
1.714254584014202e7 -3.855814961979185e7 0.0
0.0 0.0 0.0

7.246780212596705e6 1.8971764569284055e7 0.0
1.8971764569284055e7 5.504058803511905e7 0.0
0.0 0.0 0.0

-3.3367331931705717e6 2.3317593064837217e7 0.0
2.3317593064837217e7 1.3146434003886338e7 0.0
0.0 0.0 0.0

-7.479558528266875e6 1.8656856490921896e7 0.0
1.8656856490921896e7 2.494722593478153e7 0.0
0.0 0.0 0.0

-1.9760491018132945e6 1.426061171311617e7 0.0
1.426061171311617e7 1.0568394893625028e7 0.0
0.0 0.0 0.0

-2.8510220597140994e6 1.8076490732228264e7 0.0
1.8076490732228264e7 -2.266359624534158e7 0.0
0.0 0.0 0.0

-832322.9997614026 1.9392328185769495e7 0.0
1.9392328185769495e7 -1.189445982025927e7 0.0
0.0 0.0 0.0

900901.4034572113 1.4627577759822184e7 0.0
1.4627577759822184e7 -1.935381657407138e7 0.0
0.0 0.0 0.0

2.450555701070739e7 2.7415541433391094e7 0.0
2.7415541433391094e7 -3.7824498852744084e6 0.0
0.0 0.0 0.0

-9.106724541049499e6 -1.1127825599639066e6 0.0
-1.1127825599639066e6 3.417871240170843e7 0.0
0.0 0.0 0.0

1.5762753816397483e6 2.005703069502674e7 0.0
2.005703069502674e7 -2.1016522504824256e6 0.0
0.0 0.0 0.0

1.3752838457242008e6 3.393363030715437e7 0.0
3.393363030715437e7 -2.026620128234995e6 0.0
0.0 0.0 0.0

-3.705883575960979e6 2.3275920125239708e7 0.0
2.3275920125239708e7 1.3911028503543021e7 0.0
0.0 0.0 0.0

3.406240294876471e6 3.4426341850366183e6 0.0
3.4426341850366183e6 -2.4965798177983113e7 0.0
0.0 0.0 0.0

855808.4088147855 8.127639950877413e6 0.0
8.127639950877413e6 -1.0245355952046547e7 0.0
0.0 0.0 0.0

1.9529756033037375e6 2.087585008820365e7 0.0
2.087585008820365e7 8.544320731540399e6 0.0
0.0 0.0 0.0

2.152429705652444e7 4.6513872590766765e7 0.0
4.6513872590766765e7 -1.2308324176259898e7 0.0
0.0 0.0 0.0

-8.175169001817515e6 8.93839117630529e6 0.0
8.93839117630529e6 4.6212737895036206e7 0.0
0.0 0.0 0.0

1.591873938249805e6 2.1655801658987753e7 0.0
2.1655801658987753e7 -7.379587928299882e6 0.0
0.0 0.0 0.0

-1.9764861721751816e6 1.979940607730863e7 0.0
1.979940607730863e7 -1.4697585679494418e7 0.0
0.0 0.0 0.0

-648226.0027746779 1.141905283339974e7 0.0
1.141905283339974e7 -7.370513934242747e6 0.0
0.0 0.0 0.0

-1.0758356592499425e6 5.46034884948976e6 0.0
5.46034884948976e6 -2.958007783624951e6 0.0
0.0 0.0 0.0

5.565896217897837e6 2.2549733042781036e7 0.0
2.2549733042781036e7 -4.317514611732393e6 0.0
0.0 0.0 0.0

-4.0490631491361717e6 1.7860145767447077e7 0.0
1.7860145767447077e7 -3.1218290948108774e7 0.0
0.0 0.0 0.0

2.2235806406086013e6 2.9861054957861463e6 0.0
2.9861054957861463e6 -4.872126572284599e7 0.0
0.0 0.0 0.0

-3.8481791593319317e6 2.3809939914240222e7 0.0
2.3809939914240222e7 1.1870300522356238e7 0.0
0.0 0.0 0.0

1.7960610904123578e6 9.262018374047607e6 0.0
9.262018374047607e6 -3.520532679408009e7 0.0
0.0 0.0 0.0

1.8803238276550882e6 3.694372934167488e6 0.0
3.694372934167488e6 -5.445289236578726e7 0.0
0.0 0.0 0.0

-3.034238808524454e6 2.1949264809793357e7 0.0
2.1949264809793357e7 1.4908573312922131e7 0.0
0.0 0.0 0.0

-5.523760759615631e6 1.9068171513118967e7 0.0
1.9068171513118967e7 -1.846641074445726e7 0.0
0.0 0.0 0.0

-1.1137552004227504e7 8.957575119923916e6 0.0
8.957575119923916e6 2.1448922551267806e7 0.0
0.0 0.0 0.0

-1.5346877756093426e6 2.760092476617665e7 0.0
2.760092476617665e7 1.1085149292156613e6 0.0
0.0 0.0 0.0

-264426.0125659127 1.1615853305576647e7 0.0
1.1615853305576647e7 -5.245162195368848e6 0.0
0.0 0.0 0.0

-5.351384802901677e6 1.4523181163824052e7 0.0
1.4523181163824052e7 1.2886863491801314e7 0.0
0.0 0.0 0.0

-8.88823159799978e6 -938659.5275330213 0.0
-938659.5275330213 3.451460270563096e7 0.0
0.0 0.0 0.0

1.3777846042388547e6 1.487002538485477e7 0.0
1.487002538485477e7 -1.804179683564305e7 0.0
0.0 0.0 0.0

612268.9903435827 3.2029188190477416e7 0.0
3.2029188190477416e7 -1.3815520256079359e6 0.0
0.0 0.0 0.0

-9.692552091003943e6 8.054259667586705e6 0.0
8.054259667586705e6 1.77108205010702e7 0.0
0.0 0.0 0.0

512283.0415707547 8.544504422968158e6 0.0
8.544504422968158e6 -4.8264604245131984e7 0.0
0.0 0.0 0.0

-2.4633910115854857e6 1.2489781498712307e7 0.0
1.2489781498712307e7 -3.29472861857414e6 0.0
0.0 0.0 0.0

1.008639397985127e7 2.337531758212168e7 0.0
2.337531758212168e7 1.2409846636050217e7 0.0
0.0 0.0 0.0

4.2796639233182795e7 2.4242533344232466e7 0.0
2.4242533344232466e7 8.73827949253656e6 0.0
0.0 0.0 0.0

3.185413045256257e6 6.230083655433239e6 0.0
6.230083655433239e6 -2.2782593506519172e7 0.0
0.0 0.0 0.0

-6.026792285570405e6 1.7739654808225542e7 0.0
1.7739654808225542e7 -3.9333723183461644e7 0.0
0.0 0.0 0.0

2.9440973364691213e6 6.171099033920548e6 0.0
6.171099033920548e6 -2.399697504969793e7 0.0
0.0 0.0 0.0

3.6173601551079676e6 3.4778106122110295e6 0.0
3.4778106122110295e6 -2.5912676195961725e7 0.0
0.0 0.0 0.0

3.556248425725718e7 1.5315747422677755e7 0.0
1.5315747422677755e7 1.7704204112088028e6 0.0
0.0 0.0 0.0

-1.1075839252775135e7 3.868330150255672e7 0.0
3.868330150255672e7 3.347497255449725e6 0.0
0.0 0.0 0.0

-3.763953149675914e6 1.6352082799023105e7 0.0
1.6352082799023105e7 -3.543800890350801e7 0.0
0.0 0.0 0.0

-1.1883029295914186e7 2.428413039727827e7 0.0
2.428413039727827e7 -3.4087938974286504e6 0.0
0.0 0.0 0.0

3.4276619377583805e6 3.410998142664039e6 0.0
3.410998142664039e6 -3.383787611702044e7 0.0
0.0 0.0 0.0

-8.560715772058759e6 2.583035389005574e7 0.0
2.583035389005574e7 6.793116840130621e6 0.0
0.0 0.0 0.0

1.00606194026294e7 3.2521505045464013e7 0.0
3.2521505045464013e7 -5.211591218922755e6 0.0
0.0 0.0 0.0

-9.89049127282549e6 1.1153365841033606e7 0.0
1.1153365841033606e7 3.505278635107392e7 0.0
0.0 0.0 0.0

1.4772474195809722e7 4.522845225466079e7 0.0
4.522845225466079e7 -7.729941864671153e6 0.0
0.0 0.0 0.0

-835488.8913062346 2.058180538375383e7 0.0
2.058180538375383e7 -778200.2286726248 0.0
0.0 0.0 0.0

2.6227002783629503e6 2.958647400565602e6 0.0
2.958647400565602e6 -4.309717381752462e7 0.0
0.0 0.0 0.0

3.1608819174937658e7 2.063301364312816e7 0.0
2.063301364312816e7 6.73397375870881e6 0.0
0.0 0.0 0.0

-2.4970502486707633e6 2.1422657230675172e7 0.0
2.1422657230675172e7 1.5201754804927472e7 0.0
0.0 0.0 0.0

2.0279919722245429e6 6.365688928540714e6 0.0
6.365688928540714e6 -3.878043570527052e7 0.0
0.0 0.0 0.0

1.0976932334302985e6 2.5805203842637353e7 0.0
2.5805203842637353e7 -6.661660447952039e6 0.0
0.0 0.0 0.0

1.6083588296097568e6 2.0883015296724193e7 0.0
2.0883015296724193e7 -8.327100388498577e6 0.0
0.0 0.0 0.0

-3.8009209405974266e6 1.92764148563643e7 0.0
1.92764148563643e7 -1.4312948775854465e7 0.0
0.0 0.0 0.0

-885898.9359299876 2.0304416933846004e7 0.0
2.0304416933846004e7 -1.039651194387639e7 0.0
0.0 0.0 0.0

1.314509462545193e7 2.3977768881947804e7 0.0
2.3977768881947804e7 1.2432557825078145e7 0.0
0.0 0.0 0.0

68980.92429315299 6.902964220493199e6 0.0
6.902964220493199e6 -6.759146187027085e7 0.0
0.0 0.0 0.0

-4.807793471981193e6 2.461623948443069e7 0.0
2.461623948443069e7 1.1394045470506245e7 0.0
0.0 0.0 0.0

1.09317228171061e6 4.537967741076481e6 0.0
4.537967741076481e6 -3.602918702320076e6 0.0
0.0 0.0 0.0

-9.206684146194112e6 1.5835241860913342e7 0.0
1.5835241860913342e7 2.7546895951886237e7 0.0
0.0 0.0 0.0

3.8123061121424222e6 3.97535302457186e6 0.0
3.97535302457186e6 -2.2583608924618922e7 0.0
0.0 0.0 0.0

-8.0824071985072885e6 -1.5427600003900211e6 0.0
-1.5427600003900211e6 4.1138409416516975e7 0.0
0.0 0.0 0.0

1.2873395429201499e6 1.5752969635829614e7 0.0
1.5752969635829614e7 -2.1944119569395516e7 0.0
0.0 0.0 0.0

819246.8085264578 2.407913172252768e6 0.0
2.407913172252768e6 -3.6463322551676766e6 0.0
0.0 0.0 0.0

4.515170740224731e6 1.858038545386555e7 0.0
1.858038545386555e7 2.0120507596497763e7 0.0
0.0 0.0 0.0

-2.568879788755414e6 2.862672659597337e7 0.0
2.862672659597337e7 3.791451126489238e6 0.0
0.0 0.0 0.0

-8.902491060861694e6 -153014.78283661223 0.0
-153014.78283661223 3.927015748171362e7 0.0
0.0 0.0 0.0

-1.4787978439109344e6 2.108048368643743e7 0.0
2.108048368643743e7 9.081912510689728e6 0.0
0.0 0.0 0.0

5.972519807336308e6 2.3935453180166904e7 0.0
2.3935453180166904e7 -5.3533761394098215e6 0.0
0.0 0.0 0.0

-2.4121082419558247e6 2.4836049542869307e7 0.0
2.4836049542869307e7 -22533.252259133267 0.0
0.0 0.0 0.0

-5.147851030463425e6 2.22716248822479e7 0.0
2.22716248822479e7 -1.0689192785025857e7 0.0
0.0 0.0 0.0

-1.8763118437263276e6 2.4981780070159417e7 0.0
2.4981780070159417e7 1.6865043842740823e6 0.0
0.0 0.0 0.0

-6.351083291154848e6 1.7650340250033095e7 0.0
1.7650340250033095e7 -2.146342628560079e7 0.0
0.0 0.0 0.0

2.055627641014587e7 2.6704081878497027e7 0.0
2.6704081878497027e7 -4.0222498498815754e6 0.0
0.0 0.0 0.0

-1.9203525375412e6 1.8711622021295413e7 0.0
1.8711622021295413e7 -1.5986112589519626e7 0.0
0.0 0.0 0.0

-3.566346147019053e6 2.0187378467711933e7 0.0
2.0187378467711933e7 2.4912431159421332e7 0.0
0.0 0.0 0.0

5.303778910077653e6 2.2080191871869072e7 0.0
2.2080191871869072e7 1.4773575966523243e7 0.0
0.0 0.0 0.0

1.9827228765282854e6 1.0756170915857842e7 0.0
1.0756170915857842e7 -2.5654302370867863e7 0.0
0.0 0.0 0.0

-6.715777617472295e6 1.373651068348939e7 0.0
1.373651068348939e7 1.1884173991938122e7 0.0
0.0 0.0 0.0

-3.0526050690083224e6 3.3172098832870353e7 0.0
3.3172098832870353e7 1.2567992021794845e6 0.0
0.0 0.0 0.0

-5.133226643802283e6 2.049811567709204e7 0.0
2.049811567709204e7 1.749565554743601e7 0.0
0.0 0.0 0.0

3.943315462729006e6 3.5147236260674015e7 0.0
3.5147236260674015e7 -1.7704144105163e6 0.0
0.0 0.0 0.0

749877.0520816632 1.5401077825497804e7 0.0
1.5401077825497804e7 -2.337495222713722e7 0.0
0.0 0.0 0.0

-2.4069050837580144e7 2.7986114164061226e7 0.0
2.7986114164061226e7 -9.949642741894241e6 0.0
0.0 0.0 0.0

2.550175007837426e6 4.693803180201759e6 0.0
4.693803180201759e6 -4.7949533253425166e7 0.0
0.0 0.0 0.0

1.352169652794066e7 3.524108032441274e7 0.0
3.524108032441274e7 -5.019411067276704e6 0.0
0.0 0.0 0.0

-1.9842477576517403e7 3.3193800902529128e7 0.0
3.3193800902529128e7 6.685600379787854e6 0.0
0.0 0.0 0.0

1.4859891136210104e6 1.98452250560645e7 0.0
1.98452250560645e7 2.0849416728328016e7 0.0
0.0 0.0 0.0

-3.736540133408216e7 3.351958455991758e7 0.0
3.351958455991758e7 6.114389513004726e6 0.0
0.0 0.0 0.0

2.8252245496110767e6 3.0159355764618306e6 0.0
3.0159355764618306e6 -4.4423701124891385e7 0.0
0.0 0.0 0.0

-4.669106208993176e6 2.0279075508352693e7 0.0
2.0279075508352693e7 1.884487797748872e7 0.0
0.0 0.0 0.0

-1.0485604289917272e7 7.825007782047008e6 0.0
7.825007782047008e6 1.483711587058464e7 0.0
0.0 0.0 0.0

3.4568163103818996e6 3.057048753749121e6 0.0
3.057048753749121e6 -2.3833462556050513e7 0.0
0.0 0.0 0.0

773401.6215111231 2.081807654666284e7 0.0
2.081807654666284e7 -1.02306414245732e7 0.0
0.0 0.0 0.0

-7.03543530430023e6 4.020506128249099e7 0.0
4.020506128249099e7 4.668220918115458e6 0.0
0.0 0.0 0.0

-1.3675819972210743e7 1.8224002634457935e7 0.0
1.8224002634457935e7 5.755718982737364e6 0.0
0.0 0.0 0.0

-3.735522398418347e7 2.8446209806318764e7 0.0
2.8446209806318764e7 -91470.61671346053 0.0
0.0 0.0 0.0

4.525261132786385e7 2.415637796139689e7 0.0
2.415637796139689e7 1.6994229494150557e7 0.0
0.0 0.0 0.0

-8.086828092695016e6 1.6681854749428507e7 0.0
1.6681854749428507e7 -8.653530970340773e7 0.0
0.0 0.0 0.0

-285980.1370220361 1.96896671112638e7 0.0
1.96896671112638e7 -1.3158343081525141e7 0.0
0.0 0.0 0.0

-3.216505471042622e6 1.9653509336674683e7 0.0
1.9653509336674683e7 2.5015253751797646e7 0.0
0.0 0.0 0.0

1.2201003153709788e6 2.365833343011143e7 0.0
2.365833343011143e7 -9.928349904993204e6 0.0
0.0 0.0 0.0

-1.0085568027202896e6 2.7411363608776256e7 0.0
2.7411363608776256e7 -586548.4053300121 0.0
0.0 0.0 0.0

3.200062982740666e6 1.739897170384639e7 0.0
1.739897170384639e7 1.1612189783628717e7 0.0
0.0 0.0 0.0

3.320092344666056e6 3.431886305179983e7 0.0
3.431886305179983e7 -1.7271404521450805e6 0.0
0.0 0.0 0.0

-1.0746036332183952e7 8.617670932447447e6 0.0
8.617670932447447e6 1.7848981171749566e7 0.0
0.0 0.0 0.0

6.019655211918824e7 3.652424756094101e7 0.0
3.652424756094101e7 2.5006584589290585e7 0.0
0.0 0.0 0.0

1.842851691416643e6 2.7296462859941185e7 0.0
2.7296462859941185e7 -6.389071705142713e6 0.0
0.0 0.0 0.0

4.3025820896225525e6 1.6591742649854368e7 0.0
1.6591742649854368e7 1.607599569123775e7 0.0
0.0 0.0 0.0

-1.1887197714518849e7 2.5981171696008347e7 0.0
2.5981171696008347e7 1.9542386684823255e6 0.0
0.0 0.0 0.0

684503.3541131532 1.864398818341622e7 0.0
1.864398818341622e7 1.7692089605939582e7 0.0
0.0 0.0 0.0

713703.7663269578 2.5751377812840078e7 0.0
2.5751377812840078e7 -6.219426740396942e6 0.0
0.0 0.0 0.0

2.21400564559152e6 8.206712901487227e6 0.0
8.206712901487227e6 -3.442369356583591e7 0.0
0.0 0.0 0.0

-2.850500971855558e6 2.311320251916632e7 0.0
2.311320251916632e7 6.307641833077415e6 0.0
0.0 0.0 0.0

-6.513559628630026e6 2.3302488923319448e7 0.0
2.3302488923319448e7 3.9559356060591536e6 0.0
0.0 0.0 0.0

1.275248706602823e6 8.169790947260456e6 0.0
8.169790947260456e6 -1.247754963784464e7 0.0
0.0 0.0 0.0

-3.5245885052079465e6 2.392809202297069e7 0.0
2.392809202297069e7 1.2072957895033836e7 0.0
0.0 0.0 0.0

-7.679788670819905e6 6.219597066126924e6 0.0
6.219597066126924e6 5.00531927769268e7 0.0
0.0 0.0 0.0

-1.0507786472324834e6 1.1914072874634901e7 0.0
1.1914072874634901e7 -2.382398377497568e6 0.0
0.0 0.0 0.0

-1.1732544861901008e7 2.4380572667510696e7 0.0
2.4380572667510696e7 -9.743813722460909e6 0.0
0.0 0.0 0.0

4.1810992509189986e7 3.0174585861631975e7 0.0
3.0174585861631975e7 1.826351911250349e7 0.0
0.0 0.0 0.0

304274.2092816755 1.4944854754636168e7 0.0
1.4944854754636168e7 -3.004808423630789e7 0.0
0.0 0.0 0.0

2.748290242146261e6 6.419210575587578e6 0.0
6.419210575587578e6 -3.638584114520262e7 0.0
0.0 0.0 0.0

9.736656275678102e6 2.23291993608607e7 0.0
2.23291993608607e7 4.4115700818612175e6 0.0
0.0 0.0 0.0

-3.286678721487159e6 1.1987890811220257e7 0.0
1.1987890811220257e7 1.594027553860994e7 0.0
0.0 0.0 0.0

-1.415054768173211e6 2.636546150364341e7 0.0
2.636546150364341e7 25237.490690588485 0.0
0.0 0.0 0.0

-1.0513093801148268e6 2.26535484282368e7 0.0
2.26535484282368e7 -7.757457998122888e6 0.0
0.0 0.0 0.0

-320134.70510360505 2.2897758453720123e7 0.0
2.2897758453720123e7 -9.648715881370561e6 0.0
0.0 0.0 0.0

-1.1220117752725016e6 1.9802993631628953e7 0.0
1.9802993631628953e7 -8.16751584374543e6 0.0
0.0 0.0 0.0

1.9567527646199227e6 8.984505497128071e6 0.0
8.984505497128071e6 -1.125586240008934e7 0.0
0.0 0.0 0.0

3.486890662386054e7 2.7315955592860293e7 0.0
2.7315955592860293e7 1.5451041522076655e7 0.0
0.0 0.0 0.0

2.7593637391593605e6 1.8227347547970302e7 0.0
1.8227347547970302e7 1.0384857220347758e7 0.0
0.0 0.0 0.0

-3.382164796181963e6 3.2403160731145564e7 0.0
3.2403160731145564e7 3.3138431961750276e6 0.0
0.0 0.0 0.0

-3.8125559783027716e7 2.2826617488567185e7 0.0
2.2826617488567185e7 6.373590899242347e6 0.0
0.0 0.0 0.0

3.730021224429627e6 3.671801109611303e6 0.0
3.671801109611303e6 -2.112703874583196e7 0.0
0.0 0.0 0.0

686427.5860716787 2.0107437703802668e7 0.0
2.0107437703802668e7 7.1558246035902975e6 0.0
0.0 0.0 0.0

-4.757345975731267e6 1.687473844999401e7 0.0
1.687473844999401e7 -2.0516152123852212e7 0.0
0.0 0.0 0.0

-254672.56800031103 1.7880939684769865e7 0.0
1.7880939684769865e7 -2.2000710920509543e7 0.0
0.0 0.0 0.0

-9.335748153411064e6 -2.283514035067142e6 0.0
-2.283514035067142e6 2.808424153041696e7 0.0
0.0 0.0 0.0

1.0895610022893818e6 1.4045701838668168e7 0.0
1.4045701838668168e7 -2.077909452557452e7 0.0
0.0 0.0 0.0

-1.058101293684724e7 1.7671312069344327e7 0.0
1.7671312069344327e7 -5.1467551513102785e7 0.0
0.0 0.0 0.0

1.2892147731500398e6 1.342233475571725e7 0.0
1.342233475571725e7 -2.1965044938451182e7 0.0
0.0 0.0 0.0

2.013723255532776e6 2.1471790565655142e7 0.0
2.1471790565655142e7 -9.426243024289314e6 0.0
0.0 0.0 0.0

3.3038570663073808e7 2.2563798720550854e7 0.0
2.2563798720550854e7 7.675487959512558e6 0.0
0.0 0.0 0.0

-7.26980009549078e6 1.5337539368978582e7 0.0
1.5337539368978582e7 3.617165221095796e7 0.0
0.0 0.0 0.0

-5.464979869172347e6 2.332348290166221e7 0.0
2.332348290166221e7 -1.1322529377050862e7 0.0
0.0 0.0 0.0

347928.7121545322 1.8572041704783276e7 0.0
1.8572041704783276e7 878295.0467549168 0.0
0.0 0.0 0.0

-6.412228810344491e6 2.1265857587867253e7 0.0
2.1265857587867253e7 -1.447751034758811e7 0.0
0.0 0.0 0.0

3.2964289883052785e7 2.7525180653105788e7 0.0
2.7525180653105788e7 1.4582737779631276e7 0.0
0.0 0.0 0.0

-4.252211964962855e6 2.40032100103562e7 0.0
2.40032100103562e7 1.2802733479770936e7 0.0
0.0 0.0 0.0

2.0058814127784844e6 2.1176128927418172e7 0.0
2.1176128927418172e7 -3.281137277225185e6 0.0
0.0 0.0 0.0

93976.4508069465 2.931578034051774e7 0.0
2.931578034051774e7 -1.633733490264908e6 0.0
0.0 0.0 0.0

-2.772796300093874e6 2.309240559927418e7 0.0
2.309240559927418e7 7.185275537591048e6 0.0
0.0 0.0 0.0

-5.227577868290931e6 1.918521906322171e6 0.0
1.918521906322171e6 7.511052664551218e7 0.0
0.0 0.0 0.0

523875.87457257695 2.090721716696895e7 0.0
2.090721716696895e7 -1.4358048325812176e7 0.0
0.0 0.0 0.0

-1.8607677073039026e6 2.8693104006250765e7 0.0
2.8693104006250765e7 2.0969174680642418e6 0.0
0.0 0.0 0.0

-528444.96598521 3.9462076687203585e6 0.0
3.9462076687203585e6 843164.1688617975 0.0
0.0 0.0 0.0

-8.153487793031661e6 1.731502130245351e7 0.0
1.731502130245351e7 2.6665329708676107e7 0.0
0.0 0.0 0.0

-3.92001640506469e6 1.849731649366267e7 0.0
1.849731649366267e7 -1.3522872720824052e7 0.0
0.0 0.0 0.0

3.1143374217326622e6 3.6610253384211534e6 0.0
3.6610253384211534e6 -2.9480860090730168e7 0.0
0.0 0.0 0.0

-1.789083703062552e6 3.365681314714413e7 0.0
3.365681314714413e7 1.9960372420669333e6 0.0
0.0 0.0 0.0

1.689590128402277e6 1.4329372082150672e7 0.0
1.4329372082150672e7 -1.8970012156260967e7 0.0
0.0 0.0 0.0

-5.416867401956035e6 1.9735018474388577e7 0.0
1.9735018474388577e7 2.0586363276489332e7 0.0
0.0 0.0 0.0

1.2659848756700158e6 6.191823301816788e6 0.0
6.191823301816788e6 -6.254372612411268e7 0.0
0.0 0.0 0.0

-4.1370530244246214e6 3.201333649822966e7 0.0
3.201333649822966e7 2.821019164875949e6 0.0
0.0 0.0 0.0

-8.312795357247129e6 1.7826062444182236e7 0.0
1.7826062444182236e7 -3.0441563212379966e7 0.0
0.0 0.0 0.0

3.487894568571683e6 2.6684399751391285e6 0.0
2.6684399751391285e6 -1.3870725813292557e7 0.0
0.0 0.0 0.0

-657238.1411387762 1.1115857249250328e7 0.0
1.1115857249250328e7 -3.8974683114916133e6 0.0
0.0 0.0 0.0

-1.6656326823745053e7 3.330625624283935e7 0.0
3.330625624283935e7 5.872532753657669e6 0.0
0.0 0.0 0.0

5.667980129623416e6 1.6644976221306603e7 0.0
1.6644976221306603e7 1.893335128235248e7 0.0
0.0 0.0 0.0

-8.177543016024104e6 3.7902116006493054e7 0.0
3.7902116006493054e7 3.0418085508508375e6 0.0
0.0 0.0 0.0

-1.0909938773773372e7 6.787670472314239e6 0.0
6.787670472314239e6 2.7410637973696362e7 0.0
0.0 0.0 0.0

-62441.73576802388 9.347275828090062e6 0.0
9.347275828090062e6 -6.975365768914372e7 0.0
0.0 0.0 0.0

7.83546028326183e7 2.634999363167443e7 0.0
2.634999363167443e7 6.438309030883413e6 0.0
0.0 0.0 0.0

-1.3283132381549347e6 2.7147042290176768e7 0.0
2.7147042290176768e7 193432.58447253495 0.0
0.0 0.0 0.0

-5.349215557078805e6 2.8270066108192082e7 0.0
2.8270066108192082e7 6.720659265139436e6 0.0
0.0 0.0 0.0

-2.3211951780440398e6 2.5228218214021374e7 0.0
2.5228218214021374e7 4.6765887405164745e6 0.0
0.0 0.0 0.0

7.639700959236121e6 2.0366245510618538e7 0.0
2.0366245510618538e7 5.612954714491955e7 0.0
0.0 0.0 0.0

2.7110306714296266e6 3.950166719855363e6 0.0
3.950166719855363e6 -3.463563703066786e7 0.0
0.0 0.0 0.0

221302.2727191099 1.3496681160769075e7 0.0
1.3496681160769075e7 -8.864360496573687e6 0.0
0.0 0.0 0.0

8.030412536767012e6 3.242800212798443e7 0.0
3.242800212798443e7 -4.73478846401318e6 0.0
0.0 0.0 0.0

596320.9464508351 1.109089720897891e7 0.0
1.109089720897891e7 -3.926283801780833e7 0.0
0.0 0.0 0.0

-2.049499160508942e7 2.051827660689646e7 0.0
2.051827660689646e7 5.342901292112921e6 0.0
0.0 0.0 0.0

-6.456244983983855e6 2.360658233294382e7 0.0
2.360658233294382e7 2.6872522166796806e6 0.0
0.0 0.0 0.0

491412.3921427919 1.9010825228095844e7 0.0
1.9010825228095844e7 4.239624889070202e6 0.0
0.0 0.0 0.0

1.8278888530724794e6 1.3716545846507572e7 0.0
1.3716545846507572e7 -2.0243796308588147e7 0.0
0.0 0.0 0.0

3.063205967904076e6 1.959437216873765e7 0.0
1.959437216873765e7 3.575444550446746e7 0.0
0.0 0.0 0.0

1.3085692310216341e7 3.2631754215012137e7 0.0
3.2631754215012137e7 -5.652538569392525e6 0.0
0.0 0.0 0.0

-4.428662449718427e7 3.8990231534585003e6 0.0
3.8990231534585003e6 6.41655244051376e6 0.0
0.0 0.0 0.0

4.539178257663336e7 4.3830281725760415e7 0.0
4.3830281725760415e7 -9.575426747214654e6 0.0
0.0 0.0 0.0

1.2432815898655623e7 3.29186807114277e7 0.0
3.29186807114277e7 -6.119117949861799e6 0.0
0.0 0.0 0.0

3.4071929924932383e6 3.7503791373201106e6 0.0
3.7503791373201106e6 -2.0361610004798956e7 0.0
0.0 0.0 0.0

-2.9696425003784946e6 2.876370451802327e7 0.0
2.876370451802327e7 2.3292459523514626e6 0.0
0.0 0.0 0.0

3.974465289820907e7 1.573205310874684e7 0.0
1.573205310874684e7 2.2695092682901584e6 0.0
0.0 0.0 0.0

-6.581859953940526e6 8.404576281631706e6 0.0
8.404576281631706e6 5.406143078646353e7 0.0
0.0 0.0 0.0

517686.2615373824 2.1144246855817888e7 0.0
2.1144246855817888e7 -1.3879226310737798e7 0.0
0.0 0.0 0.0

2.5020752992011778e7 1.94069034512428e7 0.0
1.94069034512428e7 5.125833613573018e6 0.0
0.0 0.0 0.0

1.4606936075743549e6 2.1495972507381294e7 0.0
2.1495972507381294e7 -1.110824944710104e7 0.0
0.0 0.0 0.0

2.9111239013510104e6 4.48727835021107e6 0.0
4.48727835021107e6 -3.7271851506879196e7 0.0
0.0 0.0 0.0

-855865.971604366 2.6925717973298762e7 0.0
2.6925717973298762e7 -1.5492364609766812e6 0.0
0.0 0.0 0.0

-4.1508175769173037e6 1.7211956546121188e7 0.0
1.7211956546121188e7 -1.8599083390532393e7 0.0
0.0 0.0 0.0

2.289527785854754e6 2.8847419038502727e7 0.0
2.8847419038502727e7 -5.16019740818978e6 0.0
0.0 0.0 0.0

-5.123063186120335e6 1.1137993551344033e7 0.0
1.1137993551344033e7 5.6086302910688184e7 0.0
0.0 0.0 0.0

-984822.7008344834 1.901119946014902e7 0.0
1.901119946014902e7 -1.0442742175952531e7 0.0
0.0 0.0 0.0

1.9288044531592205e6 1.042309197412969e7 0.0
1.042309197412969e7 -2.7608135091316998e7 0.0
0.0 0.0 0.0

4.386954894637811e6 2.414276255842072e7 0.0
2.414276255842072e7 -6.545587068856086e6 0.0
0.0 0.0 0.0

-2.905568800778135e6 1.8571124369094662e7 0.0
1.8571124369094662e7 -9.669527258813854e6 0.0
0.0 0.0 0.0

-7.716392800455261e6 3.6340385736074047e6 0.0
3.6340385736074047e6 5.0068667403096326e7 0.0
0.0 0.0 0.0

2.5013536592559414e6 2.006810515488951e7 0.0
2.006810515488951e7 2.1919156443974085e7 0.0
0.0 0.0 0.0

371787.8142745849 1.071233724867883e7 0.0
1.071233724867883e7 -4.234970331710175e7 0.0
0.0 0.0 0.0

3.0454675260765776e6 2.85846744235196e7 0.0
2.85846744235196e7 -5.024739934389109e6 0.0
0.0 0.0 0.0

3.5754253728441396e6 2.236783295386853e7 0.0
2.236783295386853e7 1.4220363530131426e7 0.0
0.0 0.0 0.0

2.663638091165185e6 9.350752642685337e6 0.0
9.350752642685337e6 -2.7013652885834944e7 0.0
0.0 0.0 0.0

5.884796376412033e7 2.6426070914790533e7 0.0
2.6426070914790533e7 1.3373859133881556e7 0.0
0.0 0.0 0.0

2.2418138341959533e6 2.796222492292967e7 0.0
2.796222492292967e7 -5.212108273085784e6 0.0
0.0 0.0 0.0

-9.154169695248922e6 -1.858022792339478e6 0.0
-1.858022792339478e6 3.1276206007393103e7 0.0
0.0 0.0 0.0

-8.803874057117391e6 3.9335043894487787e6 0.0
3.9335043894487787e6 4.657544562781435e7 0.0
0.0 0.0 0.0

3.4662503539351057e6 1.946152494290698e6 0.0
1.946152494290698e6 -3.131597910786798e7 0.0
0.0 0.0 0.0

-2.9232378825386344e6 2.479352465732705e7 0.0
2.479352465732705e7 4.0945384362125574e6 0.0
0.0 0.0 0.0

-1.5669992516664395e6 1.9026955837669343e7 0.0
1.9026955837669343e7 -9.058961478627121e6 0.0
0.0 0.0 0.0

1.190563666900599e6 2.305861318998631e7 0.0
2.305861318998631e7 -1.1141176686170476e7 0.0
0.0 0.0 0.0

-9.892034496722173e6 570223.3305899496 0.0
570223.3305899496 2.4123726155209318e7 0.0
0.0 0.0 0.0

77727.34532415913 2.3364414926379856e7 0.0
2.3364414926379856e7 -8.121585520039033e6 0.0
0.0 0.0 0.0

-7.997634770328004e6 3.5032757717991457e6 0.0
3.5032757717991457e6 4.985674380554065e7 0.0
0.0 0.0 0.0

9.401837709337406e6 2.1096046559722785e7 0.0
2.1096046559722785e7 6.085989036627114e6 0.0
0.0 0.0 0.0

-141116.39625474066 1.2907753089222595e7 0.0
1.2907753089222595e7 -4.03913085306699e7 0.0
0.0 0.0 0.0

975882.9826341309 1.0703398217561651e7 0.0
1.0703398217561651e7 -4.256928762412643e7 0.0
0.0 0.0 0.0

-8.290657297213003e6 1.694037094611438e7 0.0
1.694037094611438e7 2.807454757974302e7 0.0
0.0 0.0 0.0

-2.5597255299268896e6 2.0839648767433263e7 0.0
2.0839648767433263e7 5.100357268771443e6 0.0
0.0 0.0 0.0

560642.0865161779 4.782486223251482e6 0.0
4.782486223251482e6 -1.8883335114965679e6 0.0
0.0 0.0 0.0

-1.2569468862860017e6 1.9980970402944252e7 0.0
1.9980970402944252e7 -8.910187641640045e6 0.0
0.0 0.0 0.0

-3.3330359625213966e6 2.7165604245404713e7 0.0
2.7165604245404713e7 6.82562786390954e6 0.0
0.0 0.0 0.0

6.799825859651604e6 2.0251752063552167e7 0.0
2.0251752063552167e7 4.455167212234211e7 0.0
0.0 0.0 0.0

1.3615409446154723e7 2.379623766486062e7 0.0
2.379623766486062e7 -2.1190186437024595e6 0.0
0.0 0.0 0.0

-4.75280490011245e6 1.5196417375509094e6 0.0
1.5196417375509094e6 7.280457808523852e7 0.0
0.0 0.0 0.0

-7.569595528500767e6 1.0937596317099458e7 0.0
1.0937596317099458e7 4.432197494334978e7 0.0
0.0 0.0 0.0

-8.55948371190833e6 1.68288055666609e7 0.0
1.68288055666609e7 2.3127964158924244e7 0.0
0.0 0.0 0.0

2.1581297025449933e6 1.9011413417163525e7 0.0
1.9011413417163525e7 1.1180969867801284e7 0.0
0.0 0.0 0.0

-1.055218916736643e7 4.351900155971057e6 0.0
4.351900155971057e6 1.807553359655235e7 0.0
0.0 0.0 0.0

-1.0797224834971735e7 2.163615763292327e7 0.0
2.163615763292327e7 -7.035001715659091e6 0.0
0.0 0.0 0.0

3.2794683421719503e6 4.950442693489198e6 0.0
4.950442693489198e6 -3.299853981988432e7 0.0
0.0 0.0 0.0

-7.969361714833635e6 1.751659830557663e7 0.0
1.751659830557663e7 -4.345236111183215e7 0.0
0.0 0.0 0.0

1.8455673968998175e6 1.815123048158184e7 0.0
1.815123048158184e7 7.187205089520184e6 0.0
0.0 0.0 0.0

1.8220441120471746e7 2.9259839923918437e7 0.0
2.9259839923918437e7 -5.854013112635706e6 0.0
0.0 0.0 0.0

1.9511541038882756e6 2.2110313903401833e7 0.0
2.2110313903401833e7 -8.424620128103908e6 0.0
0.0 0.0 0.0

-2.387461380918953e7 2.708700320685134e7 0.0
2.708700320685134e7 -7.608016757088571e6 0.0
0.0 0.0 0.0

-1.3172450659481245e6 2.797947035077204e7 0.0
2.797947035077204e7 -1.7673600471817898e6 0.0
0.0 0.0 0.0

-1.7316962429961287e6 7.20530765744357e6 0.0
7.20530765744357e6 -2.51003290411047e6 0.0
0.0 0.0 0.0

-5.3816565494556315e6 3.886290622209264e7 0.0
3.886290622209264e7 4.530256100082159e6 0.0
0.0 0.0 0.0

-2.433683323119083e6 2.1354041110121988e7 0.0
2.1354041110121988e7 3.7802651445428715e6 0.0
0.0 0.0 0.0

-1.2056326381949134e7 8.930948761912191e6 0.0
8.930948761912191e6 1.835892605195569e7 0.0
0.0 0.0 0.0

-2.981319369237596e6 2.132182059119211e7 0.0
2.132182059119211e7 1.8461301611034903e6 0.0
0.0 0.0 0.0

-5.469861728641426e6 1.8345723619849677e6 0.0
1.8345723619849677e6 5.606894171944311e6 0.0
0.0 0.0 0.0

697122.5270478427 1.0413875338343993e7 0.0
1.0413875338343993e7 -1.864129381216616e7 0.0
0.0 0.0 0.0

212673.92413067818 1.354609388812954e7 0.0
1.354609388812954e7 -3.493584652500883e7 0.0
0.0 0.0 0.0

-1.0515641972459638e7 2.322337155325831e7 0.0
2.322337155325831e7 -8.959017223920371e6 0.0
0.0 0.0 0.0

-3.487772891747188e6 2.0280224992550954e7 0.0
2.0280224992550954e7 2.344689668971328e7 0.0
0.0 0.0 0.0

-1.1596902720602846e6 1.8902091990836818e7 0.0
1.8902091990836818e7 -6.549845943072954e6 0.0
0.0 0.0 0.0

3.221695987517261e6 4.162439742428431e6 0.0
4.162439742428431e6 -1.4081876909565374e7 0.0
0.0 0.0 0.0

-851509.369552434 2.5207510050431423e7 0.0
2.5207510050431423e7 -5.348821725620403e6 0.0
0.0 0.0 0.0

-312203.65008112974 2.911463240233251e7 0.0
2.911463240233251e7 -2.7973881704046167e6 0.0
0.0 0.0 0.0

5.980047450957686e6 2.3658535267482698e7 0.0
2.3658535267482698e7 -5.776861720431646e6 0.0
0.0 0.0 0.0

-1.1463075607102055e7 1.2079468175596356e7 0.0
1.2079468175596356e7 1.9687772141697597e7 0.0
0.0 0.0 0.0

-2.387313410670889e6 1.819102684442201e7 0.0
1.819102684442201e7 -2.0627643980793044e7 0.0
0.0 0.0 0.0

-5.901442448591489e6 3.3525295057954226e7 0.0
3.3525295057954226e7 3.1977744579686997e6 0.0
0.0 0.0 0.0

-4.928527570759774e6 3.277647357671295e7 0.0
3.277647357671295e7 2.9997866490342026e6 0.0
0.0 0.0 0.0

-2.997079610609943e6 1.6242796469720792e7 0.0
1.6242796469720792e7 -3.2550592228421416e7 0.0
0.0 0.0 0.0

-3.747957766916311e6 1.8409374507736232e7 0.0
1.8409374507736232e7 -1.245662075664742e7 0.0
0.0 0.0 0.0

991639.3554521892 1.8944202699390564e7 0.0
1.8944202699390564e7 5.940179714963688e6 0.0
0.0 0.0 0.0

1.7181375348862503e6 9.899580755006697e6 0.0
9.899580755006697e6 -3.338800764266781e7 0.0
0.0 0.0 0.0

-9.047596781200958e6 1.2234580175246108e7 0.0
1.2234580175246108e7 3.64975732913964e7 0.0
0.0 0.0 0.0

-2.025512485703323e6 1.2743033311316626e7 0.0
1.2743033311316626e7 -7.245949441703959e7 0.0
0.0 0.0 0.0

1.0763698631062496e7 3.63320193915134e7 0.0
3.63320193915134e7 -6.539074879217169e6 0.0
0.0 0.0 0.0

6.98669714453303e6 1.8132646206290964e7 0.0
1.8132646206290964e7 3.104066132064762e7 0.0
0.0 0.0 0.0

4.562527676187645e6 1.917457545139247e7 0.0
1.917457545139247e7 4.022485027148082e7 0.0
0.0 0.0 0.0

2.4535334832871478e7 2.4656875095681984e7 0.0
2.4656875095681984e7 1.1847878377148706e7 0.0
0.0 0.0 0.0

-259482.26417934825 1.9572832389038324e7 0.0
1.9572832389038324e7 3.197467437047493e6 0.0
0.0 0.0 0.0

-769069.807504254 2.47776272433853e7 0.0
2.47776272433853e7 -5.09261963749549e6 0.0
0.0 0.0 0.0

-3.09868677282474e7 2.7604386921462e7 0.0
2.7604386921462e7 -8.802377756071506e6 0.0
0.0 0.0 0.0

-243438.9426726157 1.864206604353461e7 0.0
1.864206604353461e7 1.148861429409329e6 0.0
0.0 0.0 0.0

-3.8054250434921402e6 2.2461818464278385e7 0.0
2.2461818464278385e7 5.835767480003681e6 0.0
0.0 0.0 0.0

3.7097629099493828e6 3.7894962173033943e6 0.0
3.7894962173033943e6 -2.728617302824149e7 0.0
0.0 0.0 0.0

-1.2193954539319396e7 2.3257680716141082e7 0.0
2.3257680716141082e7 -5.274581522469226e6 0.0
0.0 0.0 0.0

-1.4746667733336328e7 4.084244064468387e7 0.0
4.084244064468387e7 5.286997669347315e6 0.0
0.0 0.0 0.0

-1.0117758291033894e7 2.4473587811129647e6 0.0
2.4473587811129647e6 2.7147176614878334e7 0.0
0.0 0.0 0.0

1.269769758032737e7 3.0229402401607834e7 0.0
3.0229402401607834e7 -5.327359502453408e6 0.0
0.0 0.0 0.0

-3.1257049724550024e6 1.0753158632711232e7 0.0
1.0753158632711232e7 7.909493974847086e7 0.0
0.0 0.0 0.0

-9.102393080632983e6 -1.878585559970733e6 0.0
-1.878585559970733e6 3.1090865934060592e7 0.0
0.0 0.0 0.0

-1.3716782265842652e7 1.991466192991023e7 0.0
1.991466192991023e7 -5.6339173762063354e7 0.0
0.0 0.0 0.0

-346645.75518917805 2.0542463677720048e7 0.0
2.0542463677720048e7 -1.1725946936810575e7 0.0
0.0 0.0 0.0

-113174.12923379027 3.0033023597490504e7 0.0
3.0033023597490504e7 -1.4822344292878658e6 0.0
0.0 0.0 0.0

-7.833368965567971e6 1.970281590761389e7 0.0
1.970281590761389e7 -1.00669619382838e7 0.0
0.0 0.0 0.0

-834327.3963408543 1.053960976498141e7 0.0
1.053960976498141e7 -2.485313656974255e6 0.0
0.0 0.0 0.0

-1.3363467462487388e6 2.669237798918419e7 0.0
2.669237798918419e7 -2.9352313778429027e6 0.0
0.0 0.0 0.0

-3.102548516814602e6 3.1739923338754456e7 0.0
3.1739923338754456e7 2.758258025247762e6 0.0
0.0 0.0 0.0

167707.84059070237 3.0208790799738508e7 0.0
3.0208790799738508e7 -1.8925437066761972e6 0.0
0.0 0.0 0.0

-3.9701122177250534e6 1.1816662240303824e7 0.0
1.1816662240303824e7 -7.88280369571971e7 0.0
0.0 0.0 0.0

-5.634903610966646e6 1.961285835220173e7 0.0
1.961285835220173e7 -1.9493371655057546e7 0.0
0.0 0.0 0.0

-6.532979310849369e6 2.707592053257678e6 0.0
2.707592053257678e6 5.921097864924821e7 0.0
0.0 0.0 0.0

1.3610169014292795e7 2.2990272077518076e7 0.0
2.2990272077518076e7 6.310855587653344e7 0.0
0.0 0.0 0.0

-4.966526187672979e7 3.815706745434506e6 0.0
3.815706745434506e6 6.265878667433519e6 0.0
0.0 0.0 0.0

4.104378205364657e7 2.838708838329632e7 0.0
2.838708838329632e7 7.084528124544016e6 0.0
0.0 0.0 0.0

-118300.29054455832 1.5964716333338138e7 0.0
1.5964716333338138e7 -2.898564151643928e7 0.0
0.0 0.0 0.0

2.208875038561594e6 5.583655321994563e6 0.0
5.583655321994563e6 -8.631023082559451e6 0.0
0.0 0.0 0.0

5.570089740321921e7 2.6925923374477066e7 0.0
2.6925923374477066e7 -1.4756869413220063e6 0.0
0.0 0.0 0.0

2.9616646590704313e6 1.1975720694023762e7 0.0
1.1975720694023762e7 -2.4184411422084473e7 0.0
0.0 0.0 0.0

3.056498396974753e7 2.483557754935639e7 0.0
2.483557754935639e7 1.2613492346235618e7 0.0
0.0 0.0 0.0

-1.6808195068017836e6 2.7746035093517803e7 0.0
2.7746035093517803e7 -1.1282417014924246e6 0.0
0.0 0.0 0.0

-4.586845644583546e6 2.766562214679712e7 0.0
2.766562214679712e7 6.9395163488574885e6 0.0
0.0 0.0 0.0

-886948.9638330173 1.3972443768198252e7 0.0
1.3972443768198252e7 -9.608813610293346e6 0.0
0.0 0.0 0.0

-6.780470533110305e6 1.453576075947294e7 0.0
1.453576075947294e7 -5.115711557664399e6 0.0
0.0 0.0 0.0

-5.471891207755614e6 1.8262739497418743e7 0.0
1.8262739497418743e7 -2.013489495552047e7 0.0
0.0 0.0 0.0

-1.9172136270031878e6 2.1512658966422934e7 0.0
2.1512658966422934e7 8.863984540070388e6 0.0
0.0 0.0 0.0

3.212229869192654e6 2.1314807937614206e7 0.0
2.1314807937614206e7 1.0604131661269085e7 0.0
0.0 0.0 0.0

-3.6390857694595866e6 9.292014677556666e6 0.0
9.292014677556666e6 7.428434795455633e7 0.0
0.0 0.0 0.0

-2.136556985366507e6 2.5990473917468075e7 0.0
2.5990473917468075e7 -610678.1331305782 0.0
0.0 0.0 0.0

3.4248491050852574e6 1.9207229106303358e6 0.0
1.9207229106303358e6 -3.1534455779749006e7 0.0
0.0 0.0 0.0

-3.2560174458958926e6 2.2273136947076544e7 0.0
2.2273136947076544e7 1.5759169908793563e7 0.0
0.0 0.0 0.0

2.0749591721194172e6 2.1292618905879557e7 0.0
2.1292618905879557e7 1.220846736140573e7 0.0
0.0 0.0 0.0

1.2627446942973794e7 2.568983275621069e7 0.0
2.568983275621069e7 -4.1217871450472903e6 0.0
0.0 0.0 0.0

617893.4226948274 2.5161700435892284e7 0.0
2.5161700435892284e7 -8.078410107578099e6 0.0
0.0 0.0 0.0

-4.0784354258114337e6 3.536432420722523e7 0.0
3.536432420722523e7 1.8357365478884967e6 0.0
0.0 0.0 0.0

-2.7693698709598035e6 7.844157038266912e6 0.0
7.844157038266912e6 -853424.289211849 0.0
0.0 0.0 0.0

-1.202807840124768e7 3.2983258743374933e7 0.0
3.2983258743374933e7 5.311896430561487e6 0.0
0.0 0.0 0.0

-2.113443142001451e6 2.837823917768004e7 0.0
2.837823917768004e7 2.9627510161989424e6 0.0
0.0 0.0 0.0

-8.071371722899964e6 1.792577760703008e7 0.0
1.792577760703008e7 2.311461776752295e7 0.0
0.0 0.0 0.0

3.3793675391402416e7 2.4851526276351303e7 0.0
2.4851526276351303e7 574525.7590860222 0.0
0.0 0.0 0.0

771479.9516911516 1.9430781573238555e7 0.0
1.9430781573238555e7 -1.5116678576265462e7 0.0
0.0 0.0 0.0

-1.991207083189828e6 2.748773364701285e7 0.0
2.748773364701285e7 -371842.60478769476 0.0
0.0 0.0 0.0

-639197.21975382 1.2727428191592129e7 0.0
1.2727428191592129e7 -9.970174680679524e6 0.0
0.0 0.0 0.0

-1.245124872828303e6 2.1115559539815493e7 0.0
2.1115559539815493e7 1.3963980188783621e7 0.0
0.0 0.0 0.0

-1.0775697133844236e7 1.5539194430371586e7 0.0
1.5539194430371586e7 -2.0232641190399753e6 0.0
0.0 0.0 0.0

-1.2475038350615395e7 2.247336341162166e7 0.0
2.247336341162166e7 -5.52319361925643e6 0.0
0.0 0.0 0.0

258657.08490100084 2.022288294735473e7 0.0
2.022288294735473e7 -1.1686421128755806e7 0.0
0.0 0.0 0.0

1.0458159726671489e7 1.6101633171703571e7 0.0
1.6101633171703571e7 4.601865696363028e6 0.0
0.0 0.0 0.0

-22487.544647706673 1.884962749142721e7 0.0
1.884962749142721e7 -1.88594327186339e7 0.0
0.0 0.0 0.0

-3.5010711765559353e6 2.0064953711367417e7 0.0
2.0064953711367417e7 2.3383707321797475e7 0.0
0.0 0.0 0.0

-1.6717725429425538e7 2.1456182662089206e7 0.0
2.1456182662089206e7 140516.52336191665 0.0
0.0 0.0 0.0

-2.7590839995965054e6 2.1296656830284312e7 0.0
2.1296656830284312e7 3.671191270502327e6 0.0
0.0 0.0 0.0

-1.1956961914716473e7 8.0326421491407165e6 0.0
8.0326421491407165e6 2.505491340255364e7 0.0
0.0 0.0 0.0

2.6895190596499834e6 1.92038553928223e7 0.0
1.92038553928223e7 2.0304931360627584e7 0.0
0.0 0.0 0.0

1.5325420165112738e7 3.304534660823808e7 0.0
3.304534660823808e7 -6.815333517104594e6 0.0
0.0 0.0 0.0

-4.067674225007062e7 2.74700990863172e7 0.0
2.74700990863172e7 1.334783074530499e6 0.0
0.0 0.0 0.0

9.962805095694853e6 4.095486703020694e7 0.0
4.095486703020694e7 -3.5102246165247955e6 0.0
0.0 0.0 0.0

-1.4325620343324339e7 2.4759697361371506e7 0.0
2.4759697361371506e7 -175687.91620285902 0.0
0.0 0.0 0.0

5.888825578088199e6 3.7230812752790555e7 0.0
3.7230812752790555e7 -2.1651527835413804e6 0.0
0.0 0.0 0.0

-1.1551764826467069e7 4.1107407406525877e6 0.0
4.1107407406525877e6 2.4541024848978005e7 0.0
0.0 0.0 0.0

1.5651074788358867e7 2.4553848896049816e7 0.0
2.4553848896049816e7 -2.3383623890549354e6 0.0
0.0 0.0 0.0

-3.9601441348715955e6 3.3158302085541822e7 0.0
3.3158302085541822e7 3.5956112226921804e6 0.0
0.0 0.0 0.0

-5.124659324150964e6 2.222125495740043e7 0.0
2.222125495740043e7 1.0302638287084382e6 0.0
0.0 0.0 0.0

-404328.29233745206 1.7621300664822433e7 0.0
1.7621300664822433e7 -2.398430388617441e7 0.0
0.0 0.0 0.0

-6.400948094417267e6 2.9927940044632517e7 0.0
2.9927940044632517e7 5.861446144509925e6 0.0
0.0 0.0 0.0

-7.746836860353126e6 1.9389223486629706e7 0.0
1.9389223486629706e7 -6.21175074527402e6 0.0
0.0 0.0 0.0

5.092349603408521e6 3.651366338458841e7 0.0
3.651366338458841e7 -4.0626588509109328e6 0.0
0.0 0.0 0.0

-1.530642701641807e7 3.3410683580326166e7 0.0
3.3410683580326166e7 6.412916017719881e6 0.0
0.0 0.0 0.0

1.0770237492715137e7 2.486220817354967e7 0.0
2.486220817354967e7 -3.6808575604480873e6 0.0
0.0 0.0 0.0

3.443536114431114e6 5.748518083716683e6 0.0
5.748518083716683e6 -1.803911987945819e7 0.0
0.0 0.0 0.0

-6.155213600881202e6 1.8085610099310864e7 0.0
1.8085610099310864e7 -3.513986655625975e7 0.0
0.0 0.0 0.0

3.161739144620738e6 4.053084092581045e6 0.0
4.053084092581045e6 -1.5376585685067086e7 0.0
0.0 0.0 0.0

5.2165309654956125e6 1.858901895850832e7 0.0
1.858901895850832e7 2.9423435037232026e7 0.0
0.0 0.0 0.0

5.608880443296839e6 2.297989537885522e7 0.0
2.297989537885522e7 -3.814581944042394e6 0.0
0.0 0.0 0.0

9.750517198430805e6 3.0546114776596297e7 0.0
3.0546114776596297e7 -5.324227506258516e6 0.0
0.0 0.0 0.0

-8.053987875700543e6 1.792404643477265e7 0.0
1.792404643477265e7 2.6634742043478746e7 0.0
0.0 0.0 0.0

-75392.31668564584 1.4646489803382717e7 0.0
1.4646489803382717e7 -8.587655397987364e6 0.0
0.0 0.0 0.0

259586.728422157 9.349736051600471e6 0.0
9.349736051600471e6 4.352750537634482e6 0.0
0.0 0.0 0.0

-673607.2258250974 1.1095294426122934e7 0.0
1.1095294426122934e7 -5.977352998083776e7 0.0
0.0 0.0 0.0

2.288536951973971e6 1.6443942754805177e7 0.0
1.6443942754805177e7 6.863165472093092e6 0.0
0.0 0.0 0.0

-1.467096202594367e7 2.9896036251217045e7 0.0
2.9896036251217045e7 5.274928317038269e6 0.0
0.0 0.0 0.0

-1.368215135052367e6 1.8892026113145612e7 0.0
1.8892026113145612e7 -1.3363433238963649e7 0.0
0.0 0.0 0.0

2.5858290345350817e7 2.387479621764455e7 0.0
2.387479621764455e7 1.075741922831371e7 0.0
0.0 0.0 0.0

-1.0502380898353515e7 6.8312812512705475e6 0.0
6.8312812512705475e6 3.2521408736952484e7 0.0
0.0 0.0 0.0

-3.3410840256889075e7 3.105706428558053e7 0.0
3.105706428558053e7 1.4955024859344102e6 0.0
0.0 0.0 0.0

3.2465775043499444e7 3.461907815410954e7 0.0
3.461907815410954e7 -9.523830404319098e6 0.0
0.0 0.0 0.0

-4.85066729186488e6 2.7774387617490895e7 0.0
2.7774387617490895e7 7.7019812665469665e6 0.0
0.0 0.0 0.0

-13618.739935006131 1.7135320786012527e7 0.0
1.7135320786012527e7 2.6124151252720715e6 0.0
0.0 0.0 0.0

-6.570198880734533e6 1.6912986752855908e7 0.0
1.6912986752855908e7 3.3041731363577545e7 0.0
0.0 0.0 0.0

-9.581858801615834e6 -696382.1135217301 0.0
-696382.1135217301 3.2039523602995113e7 0.0
0.0 0.0 0.0

236486.09747847356 1.903349996967053e7 0.0
1.903349996967053e7 -1.647664244568922e7 0.0
0.0 0.0 0.0

-1.0348316498657545e7 2.557257606760389e7 0.0
2.557257606760389e7 -1.1796812672575656e7 0.0
0.0 0.0 0.0

-74833.20965088997 1.9416192186957683e7 0.0
1.9416192186957683e7 -1.0932979699520145e7 0.0
0.0 0.0 0.0

-5.632283915655825e6 1.1585366696387317e7 0.0
1.1585366696387317e7 5.157286035163788e7 0.0
0.0 0.0 0.0

419510.18050793186 1.4925932006838826e7 0.0
1.4925932006838826e7 -2.842505642523549e7 0.0
0.0 0.0 0.0

-1.020859172542407e7 2.539431295660057e7 0.0
2.539431295660057e7 -1.2005975412558496e7 0.0
0.0 0.0 0.0

-475049.3934550714 1.716367309619616e7 0.0
1.716367309619616e7 -2.3888836123847485e7 0.0
0.0 0.0 0.0

2.655662703029273e7 2.3488204083561342e7 0.0
2.3488204083561342e7 1.2902222206531808e7 0.0
0.0 0.0 0.0

-7.291328295391133e6 9.845299477529092e6 0.0
9.845299477529092e6 4.748004259187232e7 0.0
0.0 0.0 0.0

1.3670765931861536e6 2.1067567984699983e7 0.0
2.1067567984699983e7 -963643.7049881463 0.0
0.0 0.0 0.0

-1.9263319303164314e6 2.110237506938928e7 0.0
2.110237506938928e7 1.9146314055488102e7 0.0
0.0 0.0 0.0

3.8770279872071715e6 2.932861803816799e7 0.0
2.932861803816799e7 -4.982550523513377e6 0.0
0.0 0.0 0.0

2.466385729742646e6 1.017775624853038e7 0.0
1.017775624853038e7 -2.90276438790403e7 0.0
0.0 0.0 0.0

1.9436738245445024e6 9.588622986254074e6 0.0
9.588622986254074e6 -1.2164765888571031e7 0.0
0.0 0.0 0.0

-610494.325495977 1.1619325822892543e7 0.0
1.1619325822892543e7 -5.171773100811578e7 0.0
0.0 0.0 0.0

-1.0104182013172276e7 2.37625794477655e7 0.0
2.37625794477655e7 -4.595473002211135e6 0.0
0.0 0.0 0.0

-8.70755293968101e6 9.621214220257973e6 0.0
9.621214220257973e6 4.2769748189744316e7 0.0
0.0 0.0 0.0

-8.86209424841065e6 2.3535971214122087e7 0.0
2.3535971214122087e7 -8.403517829833096e6 0.0
0.0 0.0 0.0

9967.32209913386 1.8389364159920834e7 0.0
1.8389364159920834e7 -1.1340050972782917e7 0.0
0.0 0.0 0.0

756942.6902806126 9.022121183564074e6 0.0
9.022121183564074e6 -4.5427274452103555e7 0.0
0.0 0.0 0.0

-7.544776938977974e6 1.5768778353872811e7 0.0
1.5768778353872811e7 3.385070090071e7 0.0
0.0 0.0 0.0

3.478258059501687e6 1.817719320002632e7 0.0
1.817719320002632e7 1.32468834883529e7 0.0
0.0 0.0 0.0

-599702.9676744603 1.3293850376098605e7 0.0
1.3293850376098605e7 -3.776456067473419e7 0.0
0.0 0.0 0.0

2.9514322762915213e6 2.663550181774776e6 0.0
2.663550181774776e6 -3.517783833745343e7 0.0
0.0 0.0 0.0

-3.5691856319093257e6 2.1747385992506098e7 0.0
2.1747385992506098e7 1.5754664207895517e7 0.0
0.0 0.0 0.0

-8.344471443065159e6 2.4160980030336265e7 0.0
2.4160980030336265e7 -1.1384195429404853e7 0.0
0.0 0.0 0.0

1.1817678035924882e6 1.3633792104775742e7 0.0
1.3633792104775742e7 -1.4194411436381908e7 0.0
0.0 0.0 0.0

-9.16624496971649e6 3.087599867386374e6 0.0
3.087599867386374e6 3.932572257477619e7 0.0
0.0 0.0 0.0

-3.4351718451575213e6 1.4166701389177258e6 0.0
1.4166701389177258e6 6.222214549300698e6 0.0
0.0 0.0 0.0

-5.921155832458508e6 1.999049687973972e7 0.0
1.999049687973972e7 1.910791892403242e7 0.0
0.0 0.0 0.0

2.8205837985937398e7 2.611876381595338e7 0.0
2.611876381595338e7 1.6457285560079893e7 0.0
0.0 0.0 0.0

2.1473257557849586e7 2.3989136573574733e7 0.0
2.3989136573574733e7 1.2594969828590998e7 0.0
0.0 0.0 0.0

-1.5956212233621217e7 2.4575323602719568e7 0.0
2.4575323602719568e7 -1.0427319722695287e7 0.0
0.0 0.0 0.0

-4.0262927824071287e6 1.680415621027906e7 0.0
1.680415621027906e7 -1.268365217935374e7 0.0
0.0 0.0 0.0

-9.227275408107636e6 2.463322496036297e7 0.0
2.463322496036297e7 -9.744979851950964e6 0.0
0.0 0.0 0.0

-9.603519195498554e6 2.3077286959374085e7 0.0
2.3077286959374085e7 -1.0093292110932255e7 0.0
0.0 0.0 0.0

-420253.76686880924 1.2271726200123737e7 0.0
1.2271726200123737e7 -4.586966144614244e7 0.0
0.0 0.0 0.0

-1.1604864631440653e6 4.232514749253218e6 0.0
4.232514749253218e6 -1.5228170465841733e6 0.0
0.0 0.0 0.0

-892168.2863621773 7.113407742076845e6 0.0
7.113407742076845e6 298171.7522896487 0.0
0.0 0.0 0.0

1.2084761895843376e6 1.759390560320972e7 0.0
1.759390560320972e7 1.8609531117113808e6 0.0
0.0 0.0 0.0

1.913299790756274e7 2.4170949751832373e7 0.0
2.4170949751832373e7 1.197346999154179e7 0.0
0.0 0.0 0.0

1.3044839035013586e6 1.8390901564554717e7 0.0
1.8390901564554717e7 8.45135533744837e6 0.0
0.0 0.0 0.0

-4.384218499589779e6 2.092771889002114e7 0.0
2.092771889002114e7 1.6308351881143559e7 0.0
0.0 0.0 0.0

-2.4783872436262503e7 1.2496857387669703e7 0.0
1.2496857387669703e7 8.464238414902305e6 0.0
0.0 0.0 0.0

2.5601278218716886e6 1.8228646459708422e7 0.0
1.8228646459708422e7 1.037501829517945e7 0.0
0.0 0.0 0.0

2.573952559278556e6 6.303474826341011e6 0.0
6.303474826341011e6 -1.88836822680888e7 0.0
0.0 0.0 0.0

-1.4609831403791517e7 3.167520929527339e7 0.0
3.167520929527339e7 6.024411378292402e6 0.0
0.0 0.0 0.0

-8.63858716915861e6 1.0910469226898982e6 0.0
1.0910469226898982e6 4.160124232967779e7 0.0
0.0 0.0 0.0

-1.7069439973656877e6 2.058027502113028e7 0.0
2.058027502113028e7 -9.372657863849808e6 0.0
0.0 0.0 0.0

8.845673130936716e6 2.1905371222740922e7 0.0
2.1905371222740922e7 1.1824615055582304e7 0.0
0.0 0.0 0.0

-7.89621276552044e6 2.3889950844886582e7 0.0
2.3889950844886582e7 -1.1400497873850372e7 0.0
0.0 0.0 0.0

-3.1909733136214986e6 1.6887357860921353e7 0.0
1.6887357860921353e7 -2.954869823174777e7 0.0
0.0 0.0 0.0

2.2396026197653998e7 2.5158546958774295e7 0.0
2.5158546958774295e7 1.515849739997598e7 0.0
0.0 0.0 0.0

-3.1289219981533056e6 1.8769860015042998e7 0.0
1.8769860015042998e7 -2.1450467532669585e7 0.0
0.0 0.0 0.0

1.7777449014520855e6 1.92241447037168e7 0.0
1.92241447037168e7 1.2179353605591718e7 0.0
0.0 0.0 0.0

4.538325744527677e6 2.134510267302806e7 0.0
2.134510267302806e7 1.5045552353374222e7 0.0
0.0 0.0 0.0

-3.2824092720680917e6 2.153104185141187e7 0.0
2.153104185141187e7 1.6728790051737834e7 0.0
0.0 0.0 0.0

-2.5866558586424845e6 2.148896678128543e7 0.0
2.148896678128543e7 1.1206272162338076e7 0.0
0.0 0.0 0.0

2.549748694734782e6 5.496986476169581e6 0.0
5.496986476169581e6 -3.3815829516838536e7 0.0
0.0 0.0 0.0

955668.6910692215 3.1572931452863265e7 0.0
3.1572931452863265e7 -2.0320701576669547e6 0.0
0.0 0.0 0.0

-6.157860387754578e6 2.0420326539560974e7 0.0
2.0420326539560974e7 -1.5697187751945702e7 0.0
0.0 0.0 0.0

3.2255355116234545e7 2.2078667533528946e7 0.0
2.2078667533528946e7 1.2780498203592505e7 0.0
0.0 0.0 0.0

-8.680807664708152e6 2.9029072096984893e7 0.0
2.9029072096984893e7 6.4004629155568145e6 0.0
0.0 0.0 0.0

2.7181622278677747e6 4.520549419792625e6 0.0
4.520549419792625e6 -3.913552625989677e7 0.0
0.0 0.0 0.0

-2.855640979066996e6 1.9195238061799068e7 0.0
1.9195238061799068e7 6.700097268782576e6 0.0
0.0 0.0 0.0

1.6288441859473832e7 2.177669100681269e7 0.0
2.177669100681269e7 8.85632012957114e6 0.0
0.0 0.0 0.0

4.147921842565317e7 2.039127697030114e7 0.0
2.039127697030114e7 1.0187736916817825e7 0.0
0.0 0.0 0.0

-5.490438346212914e6 3.2985404998990204e7 0.0
3.2985404998990204e7 4.559023848336193e6 0.0
0.0 0.0 0.0

421344.64719905704 1.976017566242562e7 0.0
1.976017566242562e7 -1.7640314165388115e7 0.0
0.0 0.0 0.0

-1.074894907472027e7 1.1249791844881698e7 0.0
1.1249791844881698e7 2.1206805185353845e7 0.0
0.0 0.0 0.0

-9.098639836141663e6 1.2366848974983029e6 0.0
1.2366848974983029e6 3.994542881371026e7 0.0
0.0 0.0 0.0

2.0390738641675578e6 1.830631530504995e7 0.0
1.830631530504995e7 7.172232593390269e6 0.0
0.0 0.0 0.0

1.2833064686592856e7 1.8456100757952157e7 0.0
1.8456100757952157e7 1.0013409762045259e7 0.0
0.0 0.0 0.0

-1.0485231607604759e7 4.513961586854673e6 0.0
4.513961586854673e6 3.1138338241382398e7 0.0
0.0 0.0 0.0

-3.0849466786089116e6 1.3146620108877044e7 0.0
1.3146620108877044e7 -1.6904320937184729e6 0.0
0.0 0.0 0.0

-4.025713189288958e6 2.0593735438699495e7 0.0
2.0593735438699495e7 -1.4436067466168998e7 0.0
0.0 0.0 0.0

-4.310603119918809e6 1.7255804878449187e7 0.0
1.7255804878449187e7 -2.7473216889094476e7 0.0
0.0 0.0 0.0

-23153.20676321356 3.0882207856141992e7 0.0
3.0882207856141992e7 -1.6244701064513414e6 0.0
0.0 0.0 0.0

4.757780336248772e6 2.9930837249913957e7 0.0
2.9930837249913957e7 -5.206996163423225e6 0.0
0.0 0.0 0.0

4.591198226133332e6 3.991824233593941e7 0.0
3.991824233593941e7 -3.744832475160778e6 0.0
0.0 0.0 0.0

-1.4525716629465599e7 3.836497701765748e7 0.0
3.836497701765748e7 6.448264142967741e6 0.0
0.0 0.0 0.0

7.791835583575729e6 1.9191434427832782e7 0.0
1.9191434427832782e7 2.9376600533610918e7 0.0
0.0 0.0 0.0

-7.922878258489175e6 1.7519784810277324e7 0.0
1.7519784810277324e7 -7.59014043804099e7 0.0
0.0 0.0 0.0

-1.0563403615428176e7 -127467.10719787954 0.0
-127467.10719787954 2.2619635078759436e7 0.0
0.0 0.0 0.0

-9.627848076823907e6 1.6255395187569538e7 0.0
1.6255395187569538e7 -3.3095408718042344e7 0.0
0.0 0.0 0.0

-4.362677552495486e6 1.584614624052349e7 0.0
1.584614624052349e7 -1.4557109770104665e7 0.0
0.0 0.0 0.0

6.169948028347462e6 1.958780304570258e7 0.0
1.958780304570258e7 2.83836020457754e7 0.0
0.0 0.0 0.0

-9.244835168333596e6 1.8120306818463765e7 0.0
1.8120306818463765e7 -3.938135574068518e7 0.0
0.0 0.0 0.0

-7.077592645825571e6 1.663647134739514e7 0.0
1.663647134739514e7 -2.7806916304879095e7 0.0
0.0 0.0 0.0

1.8644097003673784e7 2.385404316769208e7 0.0
2.385404316769208e7 1.0419184996736972e7 0.0
0.0 0.0 0.0

-5.567872567206468e6 2.0959541425213706e7 0.0
2.0959541425213706e7 -1.4015604059242098e7 0.0
0.0 0.0 0.0

2.3351796096919235e6 9.359281656075114e6 0.0
9.359281656075114e6 -3.2673993099015795e7 0.0
0.0 0.0 0.0

1.3024453020443e6 1.8411400407437403e7 0.0
1.8411400407437403e7 3.9481877137885494e6 0.0
0.0 0.0 0.0

-9.546392278525973e6 2.4646219376656026e7 0.0
2.4646219376656026e7 -1.1999486673390487e7 0.0
0.0 0.0 0.0

4.622212960788077e6 1.7906866264807306e7 0.0
1.7906866264807306e7 1.8018285530254558e7 0.0
0.0 0.0 0.0

3.237860730321943e6 4.059657541379552e6 0.0
4.059657541379552e6 -1.5812159221361682e7 0.0
0.0 0.0 0.0

-2.22952065670006e6 2.723738033112977e7 0.0
2.723738033112977e7 504181.0616095818 0.0
0.0 0.0 0.0

-3.8036653460193817e6 3.1014512507108748e7 0.0
3.1014512507108748e7 2.6444142368018655e6 0.0
0.0 0.0 0.0

-7.976091103193993e6 1.5984584108117513e7 0.0
1.5984584108117513e7 3.2638580831499837e7 0.0
0.0 0.0 0.0

1.885283750524899e6 1.9709065423449907e7 0.0
1.9709065423449907e7 9.202791396257842e6 0.0
0.0 0.0 0.0

4.31719435310687e6 2.1626452068684485e7 0.0
2.1626452068684485e7 1.5915090235606901e7 0.0
0.0 0.0 0.0

-3.873863982593902e6 3.481899020607368e7 0.0
3.481899020607368e7 3.010827223222743e6 0.0
0.0 0.0 0.0

-4.141649131460745e6 2.07962584579116e7 0.0
2.07962584579116e7 1.69439571796541e7 0.0
0.0 0.0 0.0

-9.969756526580308e6 -1.4633735543486702e6 0.0
-1.4633735543486702e6 2.613447709953869e7 0.0
0.0 0.0 0.0

-3.36040425384396e6 3.085352972167707e7 0.0
3.085352972167707e7 4.0140319578143097e6 0.0
0.0 0.0 0.0

-701720.6527656047 2.6410758548509475e7 0.0
2.6410758548509475e7 -2.5680358144969265e6 0.0
0.0 0.0 0.0

-3.208581433411437e6 2.0899582572770044e7 0.0
2.0899582572770044e7 2.9444724911622982e6 0.0
0.0 0.0 0.0

665144.7916038408 3.1228265250322506e7 0.0
3.1228265250322506e7 -2.1402695472141104e6 0.0
0.0 0.0 0.0

607311.4672132852 3.0592566148835536e7 0.0
3.0592566148835536e7 -1.7374031846131254e6 0.0
0.0 0.0 0.0

-2.115393905134607e6 1.990776724223352e7 0.0
1.990776724223352e7 -1.0394643425269011e7 0.0
0.0 0.0 0.0

3.7402086109387875e6 1.991680030178745e7 0.0
1.991680030178745e7 1.2467362598182207e7 0.0
0.0 0.0 0.0

2.0254124294217099e6 9.203411862963434e6 0.0
9.203411862963434e6 -3.06370550922257e7 0.0
0.0 0.0 0.0

-1.265709336534664e7 1.71392824018794e7 0.0
1.71392824018794e7 -4.73846751157922e7 0.0
0.0 0.0 0.0

-4.558528483743997e6 2.2592966165715773e7 0.0
2.2592966165715773e7 3.4897569460958345e6 0.0
0.0 0.0 0.0

-3.6663948435874365e7 3.3852544937152505e7 0.0
3.3852544937152505e7 -1.3474318845082656e7 0.0
0.0 0.0 0.0

-7.446289813216595e6 1.772199463090294e7 0.0
1.772199463090294e7 -2.641760858077163e7 0.0
0.0 0.0 0.0

-4.105261359961355e7 3.3194236776202954e7 0.0
3.3194236776202954e7 -7.228856319694189e6 0.0
0.0 0.0 0.0

-3.68236488757604e6 2.3166158305033155e7 0.0
2.3166158305033155e7 1.1951568749868616e7 0.0
0.0 0.0 0.0

-7.940077982161241e6 -5467.470482232685 0.0
-5467.470482232685 4.614184479641456e7 0.0
0.0 0.0 0.0

3.142706727386019e6 2.918572068437002e7 0.0
2.918572068437002e7 -4.931539921375959e6 0.0
0.0 0.0 0.0

-1.6181290089750888e7 2.6599113804613583e7 0.0
2.6599113804613583e7 -1.0950290841034599e7 0.0
0.0 0.0 0.0

338749.88888995815 2.0384477414706483e7 0.0
2.0384477414706483e7 -1.602099396744302e7 0.0
0.0 0.0 0.0

-1.1744315526005693e7 3.1730441895855755e7 0.0
3.1730441895855755e7 5.822573856284383e6 0.0
0.0 0.0 0.0

-1.1439849363057716e7 7.817391615507623e6 0.0
7.817391615507623e6 2.4780982856582344e7 0.0
0.0 0.0 0.0

1.307608725749841e6 1.02768932761925e7 0.0
1.02768932761925e7 -3.845187714148268e7 0.0
0.0 0.0 0.0

-1.5333775189778704e7 3.1397560743177366e7 0.0
3.1397560743177366e7 5.59544535591593e6 0.0
0.0 0.0 0.0

1.4480773560201903e6 1.9124508385964908e7 0.0
1.9124508385964908e7 5.977747924997154e6 0.0
0.0 0.0 0.0

-1.2035923349576259e7 9.883809199589875e6 0.0
9.883809199589875e6 1.9529344863920182e7 0.0
0.0 0.0 0.0

-684536.7350281831 1.8684471010546785e7 0.0
1.8684471010546785e7 -1.1814483465563344e7 0.0
0.0 0.0 0.0

2.9518808900189307e6 2.7705594607377954e7 0.0
2.7705594607377954e7 -5.748571312438197e6 0.0
0.0 0.0 0.0

-2.6551657501827367e7 1.3022077359012978e7 0.0
1.3022077359012978e7 8.128508747271843e6 0.0
0.0 0.0 0.0

-6.295674443240186e6 2.9235038091629393e7 0.0
2.9235038091629393e7 6.6100667883725e6 0.0
0.0 0.0 0.0

-312687.32597720064 1.94431491898013e7 0.0
1.94431491898013e7 -1.8813479799552064e7 0.0
0.0 0.0 0.0

2.1359174323070906e6 9.466199892107515e6 0.0
9.466199892107515e6 -2.712333890286024e7 0.0
0.0 0.0 0.0

-98091.63521308359 4.930422202620833e6 0.0
4.930422202620833e6 -4.1328346000656835e6 0.0
0.0 0.0 0.0

934196.2672130531 1.742253957990297e7 0.0
1.742253957990297e7 -2.0688054994896777e7 0.0
0.0 0.0 0.0

-2.2454747224043768e7 2.655023133830153e7 0.0
2.655023133830153e7 -4.846065714185044e6 0.0
0.0 0.0 0.0

7.094982229691801e6 3.963535411616314e7 0.0
3.963535411616314e7 -2.9596260289919274e6 0.0
0.0 0.0 0.0

1.4894841376503725e6 1.89920741839792e7 0.0
1.89920741839792e7 3.291221681723008e7 0.0
0.0 0.0 0.0

2.9118506408937406e6 2.0087802947808374e7 0.0
2.0087802947808374e7 1.1309992514376616e7 0.0
0.0 0.0 0.0

8.0931056541742e6 1.714631779878362e7 0.0
1.714631779878362e7 2.863702178694036e7 0.0
0.0 0.0 0.0

-4.012525074011877e6 1.96583925541124e7 0.0
1.96583925541124e7 -1.3375083908849485e7 0.0
0.0 0.0 0.0

-8.09407112149138e6 1.5548279163633559e7 0.0
1.5548279163633559e7 3.350933226577632e7 0.0
0.0 0.0 0.0

-3.1619797856941875e6 1.802190193872607e7 0.0
1.802190193872607e7 -1.4306979958125897e7 0.0
0.0 0.0 0.0

-2.6873185707020707e7 3.4995247425666094e7 0.0
3.4995247425666094e7 7.643771266059782e6 0.0
0.0 0.0 0.0

-9.567399525418576e6 4.491106224408172e6 0.0
4.491106224408172e6 3.73172261353618e7 0.0
0.0 0.0 0.0

-7.884672695555905e6 -30884.05283436534 0.0
-30884.05283436534 4.680510616314692e7 0.0
0.0 0.0 0.0

628413.3929322176 1.3456292246670071e7 0.0
1.3456292246670071e7 -1.6141606764278172e7 0.0
0.0 0.0 0.0

945459.2680490912 3.5770781858082223e6 0.0
3.5770781858082223e6 -163598.01666708564 0.0
0.0 0.0 0.0

242163.44617330283 9.95272544154608e6 0.0
9.95272544154608e6 -4.827302375708312e7 0.0
0.0 0.0 0.0

-7.804805753360704e6 1.290686246852331e7 0.0
1.290686246852331e7 4.021042438301833e7 0.0
0.0 0.0 0.0

65404.57404924184 1.2516769432148913e7 0.0
1.2516769432148913e7 -3.7430543089651644e7 0.0
0.0 0.0 0.0

-9.496635393401433e6 489101.5541002169 0.0
489101.5541002169 3.0822448164911833e7 0.0
0.0 0.0 0.0

-3.1484090842302353e6 2.8235375000717163e7 0.0
2.8235375000717163e7 3.1730372446360635e6 0.0
0.0 0.0 0.0

3.778458498301701e6 2.822054016433988e7 0.0
2.822054016433988e7 -5.617412422724668e6 0.0
0.0 0.0 0.0

-3.741660894404527e6 3.2688265808260553e7 0.0
3.2688265808260553e7 1.9730359471096997e6 0.0
0.0 0.0 0.0

4.047841319288729e6 3.8521697177017465e7 0.0
3.8521697177017465e7 -2.250313498056947e6 0.0
0.0 0.0 0.0

1.5675427689293218e6 3.469269415045149e7 0.0
3.469269415045149e7 -2.4006579504516902e6 0.0
0.0 0.0 0.0

-9.139017992179539e6 1.174608164805328e6 0.0
1.174608164805328e6 3.837560410312225e7 0.0
0.0 0.0 0.0

2.2377400124872252e6 4.904345200372012e6 0.0
4.904345200372012e6 -4.198839456540465e7 0.0
0.0 0.0 0.0

657195.8181331726 2.1171231190729886e7 0.0
2.1171231190729886e7 -1.1700288182016857e7 0.0
0.0 0.0 0.0

225555.82440815168 2.26856373912398e7 0.0
2.26856373912398e7 -9.321007553107128e6 0.0
0.0 0.0 0.0

1.9914392779225772e6 1.2176853773353258e7 0.0
1.2176853773353258e7 -2.2484715431310333e7 0.0
0.0 0.0 0.0

-6.562110463794782e6 1.584535826612366e7 0.0
1.584535826612366e7 -2.163243260735384e7 0.0
0.0 0.0 0.0

1.5776997143306134e6 1.744653545659935e7 0.0
1.744653545659935e7 5.25899902048498e6 0.0
0.0 0.0 0.0

-3.5343813775515454e6 2.4871980540324043e7 0.0
2.4871980540324043e7 8.855363550172497e6 0.0
0.0 0.0 0.0

-9.37402327619331e6 3.003802232912105e7 0.0
3.003802232912105e7 5.943384100542335e6 0.0
0.0 0.0 0.0

-2.41906524205284e6 1.8030561194373887e7 0.0
1.8030561194373887e7 -7.787271899890334e6 0.0
0.0 0.0 0.0

-1.4188584896234325e6 1.3220904831989268e7 0.0
1.3220904831989268e7 -2.286086059941206e6 0.0
0.0 0.0 0.0

3.0111397036217097e6 3.285206752494972e6 0.0
3.285206752494972e6 -3.3657802472134024e7 0.0
0.0 0.0 0.0

2.5945449334428916e6 2.0870881211941514e7 0.0
2.0870881211941514e7 -6.0351584728883235e6 0.0
0.0 0.0 0.0

1.957735603622768e6 9.865477586594263e6 0.0
9.865477586594263e6 -2.912468922536458e7 0.0
0.0 0.0 0.0

-3.750959683231344e6 8.546773716802733e6 0.0
8.546773716802733e6 983848.4817869642 0.0
0.0 0.0 0.0

-1.7773544121376069e6 1.1874518794822065e7 0.0
1.1874518794822065e7 -4.975829751210994e6 0.0
0.0 0.0 0.0

-3.159488340458783e6 3.0939357041097665e6 0.0
3.0939357041097665e6 1.5466058827958056e6 0.0
0.0 0.0 0.0

-2.2038477080887314e6 2.5736666414273553e7 0.0
2.5736666414273553e7 3.613654027326011e6 0.0
0.0 0.0 0.0

-194979.77945923712 1.8029495495605282e7 0.0
1.8029495495605282e7 -2.2124005318262007e7 0.0
0.0 0.0 0.0

-580451.8577017598 9.605139684148133e6 0.0
9.605139684148133e6 -5.5824420673607826e7 0.0
0.0 0.0 0.0

-7.70472992721045e6 2.284233442522031e7 0.0
2.284233442522031e7 -6.608442495030956e6 0.0
0.0 0.0 0.0

-2.696306195359288e7 3.0496420390516784e7 0.0
3.0496420390516784e7 -1.3047081386725698e7 0.0
0.0 0.0 0.0

-1.9740059781642932e7 3.0583720912500527e7 0.0
3.0583720912500527e7 4.938552961032705e6 0.0
0.0 0.0 0.0

-1.1167496727311468e7 2.552870864913265e7 0.0
2.552870864913265e7 -1.1342068378997255e7 0.0
0.0 0.0 0.0

-4.806947297266868e6 1.6300222440804515e7 0.0
1.6300222440804515e7 -3.7170297042971335e7 0.0
0.0 0.0 0.0

-8.254781354437368e6 1.7109293446722478e7 0.0
1.7109293446722478e7 -2.751593879946853e7 0.0
0.0 0.0 0.0

-2.091568000532917e7 2.8060863196008816e7 0.0
2.8060863196008816e7 -1.1356473078243945e7 0.0
0.0 0.0 0.0

-1.1943585627649393e7 1.7867543241644826e7 0.0
1.7867543241644826e7 -3.98119532917713e7 0.0
0.0 0.0 0.0

-6.321936326261778e6 1.9744020841843765e7 0.0
1.9744020841843765e7 2.2551888641484722e7 0.0
0.0 0.0 0.0

-1.0850636565321932e7 671729.6380961007 0.0
671729.6380961007 2.089882155338088e7 0.0
0.0 0.0 0.0

-688498.9093263025 2.6040259270702273e7 0.0
2.6040259270702273e7 -4.1561203643181566e6 0.0
0.0 0.0 0.0

-4.080056235451053e6 2.2235832713357057e7 0.0
2.2235832713357057e7 1.4014227238246504e7 0.0
0.0 0.0 0.0

-1.0299011298512658e7 -232369.42702087527 0.0
-232369.42702087527 2.678487648962374e7 0.0
0.0 0.0 0.0

764580.8704590052 1.4638488794057222e7 0.0
1.4638488794057222e7 -2.801950702111814e7 0.0
0.0 0.0 0.0

-2.060506833662007e6 2.6730206007043604e7 0.0
2.6730206007043604e7 -490101.4745633721 0.0
0.0 0.0 0.0

521317.92560838687 1.8136110859989785e7 0.0
1.8136110859989785e7 -1.5967075645916979e6 0.0
0.0 0.0 0.0

-4.276506744283086e6 2.769639798029188e7 0.0
2.769639798029188e7 6.146414330225544e6 0.0
0.0 0.0 0.0

-1.9210830621168718e7 2.835325466331947e7 0.0
2.835325466331947e7 -1.241795725851481e7 0.0
0.0 0.0 0.0

-9.346308182668885e6 1.7373028076853495e7 0.0
1.7373028076853495e7 -3.1154361060140602e7 0.0
0.0 0.0 0.0

4.569788516789582e6 2.123710555951065e7 0.0
2.123710555951065e7 1.71126565801767e7 0.0
0.0 0.0 0.0

-3.025051704109304e7 3.1007182142499894e7 0.0
3.1007182142499894e7 3.771185098405279e6 0.0
0.0 0.0 0.0

-1.049359885215556e7 1.0082123604964605e7 0.0
1.0082123604964605e7 2.049561906904612e7 0.0
0.0 0.0 0.0

-7.147334657625947e6 1.0315147807168003e7 0.0
1.0315147807168003e7 4.999550417464947e7 0.0
0.0 0.0 0.0

-2.3246694688680796e6 1.9988023725425433e7 0.0
1.9988023725425433e7 -1.0330731605706476e7 0.0
0.0 0.0 0.0

3.3654513973713988e6 3.442182997105651e7 0.0
3.442182997105651e7 -3.367020294586543e6 0.0
0.0 0.0 0.0

8.071971186474811e6 1.8070381877960447e7 0.0
1.8070381877960447e7 2.690657092145626e7 0.0
0.0 0.0 0.0

2.4766849438701056e7 2.065747257671472e7 0.0
2.065747257671472e7 5.427369770832165e6 0.0
0.0 0.0 0.0

-1.4868094666593704e7 2.6784422987732094e7 0.0
2.6784422987732094e7 -1.190608995604815e7 0.0
0.0 0.0 0.0

5.028065285357146e6 3.1871929737263042e7 0.0
3.1871929737263042e7 -4.741363552776616e6 0.0
0.0 0.0 0.0

1.0984093540482659e7 1.787251410216239e7 0.0
1.787251410216239e7 4.1638860558259055e7 0.0
0.0 0.0 0.0

1.6403911435591504e6 6.9308363204981405e6 0.0
6.9308363204981405e6 -5.3940025449983664e7 0.0
0.0 0.0 0.0

-5.992413033277068e6 2.832187168161867e7 0.0
2.832187168161867e7 7.257221344453633e6 0.0
0.0 0.0 0.0

782453.6647253397 1.6805620863266658e7 0.0
1.6805620863266658e7 289817.9945287861 0.0
0.0 0.0 0.0

-1.3487770924180273e7 1.8508701642281983e7 0.0
1.8508701642281983e7 -4.495923810517626e7 0.0
0.0 0.0 0.0

-6.252077237573697e6 2.3108601499083497e7 0.0
2.3108601499083497e7 -2.4296662785979104e6 0.0
0.0 0.0 0.0

2.5541462476538997e6 3.0541184256034554e6 0.0
3.0541184256034554e6 -4.630198297023313e7 0.0
0.0 0.0 0.0

-716211.6178322653 2.143918028041873e7 0.0
2.143918028041873e7 -9.710118520156462e6 0.0
0.0 0.0 0.0

3.907605834070258e6 2.370217128503281e7 0.0
2.370217128503281e7 -7.916682110341837e6 0.0
0.0 0.0 0.0

2.3945433208336364e7 2.4152964191330448e7 0.0
2.4152964191330448e7 1.086251721830328e6 0.0
0.0 0.0 0.0

-7.661999653330358e6 1.8356882648111872e7 0.0
1.8356882648111872e7 2.3121747757573314e7 0.0
0.0 0.0 0.0

-2.2307325538297743e6 1.6033992613800414e7 0.0
1.6033992613800414e7 -7.378689319079255e6 0.0
0.0 0.0 0.0

-9.213102056720408e6 2.407866697776191e7 0.0
2.407866697776191e7 -1.1389817722241526e7 0.0
0.0 0.0 0.0

-1.0538474599380966e6 2.6253548690754544e7 0.0
2.6253548690754544e7 -3.653830184347455e6 0.0
0.0 0.0 0.0

-7.752559712169051e6 2.603581468960381e6 0.0
2.603581468960381e6 4.963538373787303e7 0.0
0.0 0.0 0.0

-2.0173082294150458e6 1.8218736052741192e7 0.0
1.8218736052741192e7 -9.333617525234243e6 0.0
0.0 0.0 0.0

-1.0788335141701408e7 3.0451636748220503e7 0.0
3.0451636748220503e7 6.042152731633825e6 0.0
0.0 0.0 0.0

1.2964411554404646e6 8.79988352631705e6 0.0
8.79988352631705e6 -1.3356207685001796e7 0.0
0.0 0.0 0.0

1.033588767522543e7 2.1004954076699253e7 0.0
2.1004954076699253e7 1.2877983491671944e7 0.0
0.0 0.0 0.0

-4.622197334231225e7 3.2596085546616383e7 0.0
3.2596085546616383e7 4.010317733002417e6 0.0
0.0 0.0 0.0

2.9759746678154706e6 1.6416812848919783e7 0.0
1.6416812848919783e7 9.975882588421572e6 0.0
0.0 0.0 0.0

3.188688004914876e6 7.126164926477317e6 0.0
7.126164926477317e6 -1.7594319234286796e7 0.0
0.0 0.0 0.0

4.284968596126131e6 2.038929026359067e7 0.0
2.038929026359067e7 1.997617090694693e7 0.0
0.0 0.0 0.0

1.4689903285738188e6 2.562156601413244e7 0.0
2.562156601413244e7 -7.319473680076971e6 0.0
0.0 0.0 0.0

2.099251499754162e7 3.227042141140054e7 0.0
3.227042141140054e7 -6.073024861953067e6 0.0
0.0 0.0 0.0

-3.809775113429586e6 1.690118911269372e7 0.0
1.690118911269372e7 -1.2699250738302562e7 0.0
0.0 0.0 0.0

-3.3877328172861002e6 1.7411781595268704e7 0.0
1.7411781595268704e7 8.675697296448585e6 0.0
0.0 0.0 0.0

706542.9735791078 8.919047963114778e6 0.0
8.919047963114778e6 -1.1260275756286588e7 0.0
0.0 0.0 0.0

-4.994058421382537e6 1.8527702266879935e7 0.0
1.8527702266879935e7 -2.586094439489066e7 0.0
0.0 0.0 0.0

147625.8099402818 2.1759618468999103e7 0.0
2.1759618468999103e7 -1.0083525632945864e7 0.0
0.0 0.0 0.0

1.742614504693616e7 2.447474689064851e7 0.0
2.447474689064851e7 1.3464368179977879e7 0.0
0.0 0.0 0.0

-7.446767406246603e6 2.324608263831389e7 0.0
2.324608263831389e7 -1.1831738541170286e7 0.0
0.0 0.0 0.0

3.371559296849492e6 2.3542850566886347e7 0.0
2.3542850566886347e7 -7.326743461701211e6 0.0
0.0 0.0 0.0

-8.112883216527781e6 3.8941915644010734e6 0.0
3.8941915644010734e6 1.1396756206869092e7 0.0
0.0 0.0 0.0

-247146.8623705663 7.512721501475502e6 0.0
7.512721501475502e6 -685926.9507179413 0.0
0.0 0.0 0.0

1.0401508125076544e7 2.3053452156728767e7 0.0
2.3053452156728767e7 -1.6628102402823758e6 0.0
0.0 0.0 0.0

2.4897282287633307e6 1.7368143992221102e7 0.0
1.7368143992221102e7 8.474591363172647e6 0.0
0.0 0.0 0.0

5.644485089984596e7 2.325445249675707e7 0.0
2.325445249675707e7 1.5014545816265393e7 0.0
0.0 0.0 0.0

-1.0038062140139922e7 -51109.034791322636 0.0
-51109.034791322636 2.9901126929294787e7 0.0
0.0 0.0 0.0

-1.835174171987017e7 2.6568429958684757e7 0.0
2.6568429958684757e7 -8.690986317488654e6 0.0
0.0 0.0 0.0

-1.4853561536543053e7 2.462286470761372e7 0.0
2.462286470761372e7 -6.14594058146539e6 0.0
0.0 0.0 0.0

-3.449611613929339e7 2.8136135153063823e7 0.0
2.8136135153063823e7 -1.2680234271747325e7 0.0
0.0 0.0 0.0

3.7769988435940064e7 6.038250828475688e6 0.0
6.038250828475688e6 -1.7437134193995092e6 0.0
0.0 0.0 0.0

-5.846553254402e6 9.165336662537672e6 0.0
9.165336662537672e6 5.801191615184955e7 0.0
0.0 0.0 0.0

-1.7004556087308526e6 1.2548759994017016e7 0.0
1.2548759994017016e7 -734162.0975445124 0.0
0.0 0.0 0.0

-1.7428514661709204e7 2.5886965531011466e7 0.0
2.5886965531011466e7 -1.1817421719799519e7 0.0
0.0 0.0 0.0

-4.310528053720724e6 2.7868783636379145e7 0.0
2.7868783636379145e7 7.285004487714934e6 0.0
0.0 0.0 0.0

-343230.18037442677 2.1334311291050885e7 0.0
2.1334311291050885e7 -1.1473653652082784e7 0.0
0.0 0.0 0.0

997111.5461027967 1.4284625674441634e7 0.0
1.4284625674441634e7 -1.725948570577026e7 0.0
0.0 0.0 0.0

-99953.71106901905 1.8090675209098086e7 0.0
1.8090675209098086e7 -6.225856926665752e6 0.0
0.0 0.0 0.0

-8.052391424959986e6 1.59699101267854e7 0.0
1.59699101267854e7 -2.9125124929056052e7 0.0
0.0 0.0 0.0

-1.0318910660194734e7 1.867067440063301e7 0.0
1.867067440063301e7 -6.4416813670339726e7 0.0
0.0 0.0 0.0

1.3787128191382835e7 5.8309850552020585e6 0.0
5.8309850552020585e6 -2.326399787505674e6 0.0
0.0 0.0 0.0

9.811445348326987e6 3.265560713892903e7 0.0
3.265560713892903e7 -5.425751709905428e6 0.0
0.0 0.0 0.0

-6.061467626010457e6 1.7004085014240015e7 0.0
1.7004085014240015e7 -2.0204892880365446e7 0.0
0.0 0.0 0.0

1.8715763571201988e7 1.7605628641931575e7 0.0
1.7605628641931575e7 4.5473474868639605e6 0.0
0.0 0.0 0.0

-529826.8986421039 1.9083844954125445e7 0.0
1.9083844954125445e7 -7.431010008070732e6 0.0
0.0 0.0 0.0

-580556.6698746412 2.5585616465231802e7 0.0
2.5585616465231802e7 -3.8735602530809552e6 0.0
0.0 0.0 0.0

-4.61865200279421e6 1.8238314818525128e7 0.0
1.8238314818525128e7 -1.7020150805505794e7 0.0
0.0 0.0 0.0

-1.987683652320279e7 2.0174715020747945e7 0.0
2.0174715020747945e7 2.928484275764902e6 0.0
0.0 0.0 0.0

-8.682224894019514e6 -3.341410271192207e6 0.0
-3.341410271192207e6 1.5897723464552982e7 0.0
0.0 0.0 0.0

-6.103710670377102e6 1.924961595269686e7 0.0
1.924961595269686e7 2.2221775402043916e7 0.0
0.0 0.0 0.0

-451215.6002210517 1.7935281143425316e7 0.0
1.7935281143425316e7 2.2939671748992e6 0.0
0.0 0.0 0.0

-6.473823220789049e6 1.8704185723783836e7 0.0
1.8704185723783836e7 -1.7945198982842628e7 0.0
0.0 0.0 0.0

-660503.6207323952 1.921261111885266e7 0.0
1.921261111885266e7 -8.049237004281139e6 0.0
0.0 0.0 0.0

-2.71260321587583e6 1.3760836039265808e7 0.0
1.3760836039265808e7 -3.1487791601769384e6 0.0
0.0 0.0 0.0

2.787830386411385e7 2.377454953039299e7 0.0
2.377454953039299e7 323557.3581301607 0.0
0.0 0.0 0.0

-1.080844156068633e7 3.3456482374925476e7 0.0
3.3456482374925476e7 5.983812441289917e6 0.0
0.0 0.0 0.0

6.628597288867479e6 2.4514083399601445e7 0.0
2.4514083399601445e7 -5.523888200352434e6 0.0
0.0 0.0 0.0

-5.0117001782649e6 2.1888436757421084e7 0.0
2.1888436757421084e7 -3.9881346426093876e6 0.0
0.0 0.0 0.0

-2.680085323965011e6 3.3091083892192654e7 0.0
3.3091083892192654e7 2.604034490856529e6 0.0
0.0 0.0 0.0

-5.6034860801697355e6 2.0510166081807654e7 0.0
2.0510166081807654e7 1.915602575983107e7 0.0
0.0 0.0 0.0

1.2305213907498247e6 8.179526046928491e6 0.0
8.179526046928491e6 -8.649436971742403e6 0.0
0.0 0.0 0.0

-1.8481473410484903e6 7.769774694531166e6 0.0
7.769774694531166e6 2.2149552662924663e6 0.0
0.0 0.0 0.0

-1.1222591231415622e7 1.6677068809927218e7 0.0
1.6677068809927218e7 -4.216555084848668e7 0.0
0.0 0.0 0.0

-3.3514889528308185e6 2.1862222096961778e7 0.0
2.1862222096961778e7 6.137187078762787e6 0.0
0.0 0.0 0.0

1.5572814269983275e6 5.396199329460849e6 0.0
5.396199329460849e6 -8.78812969238675e6 0.0
0.0 0.0 0.0

-5.577670380989312e7 3.370255455223563e7 0.0
3.370255455223563e7 -5.804313432626458e6 0.0
0.0 0.0 0.0

-898010.9058008902 8.991564828648105e6 0.0
8.991564828648105e6 -6.4777139864224814e7 0.0
0.0 0.0 0.0

-1.5842810063953376e6 1.0542444551579712e7 0.0
1.0542444551579712e7 -4.994068098541228e6 0.0
0.0 0.0 0.0

-1.0149422135531299e7 1.7354408488070965e7 0.0
1.7354408488070965e7 -4.50186921813655e7 0.0
0.0 0.0 0.0

2.5315908504942413e6 4.570855008379549e6 0.0
4.570855008379549e6 -4.099218416406968e7 0.0
0.0 0.0 0.0

2.5843154099304616e7 3.6361067167847514e7 0.0
3.6361067167847514e7 -8.52573269221545e6 0.0
0.0 0.0 0.0

2.5891747106818054e6 1.0153579834335119e7 0.0
1.0153579834335119e7 -2.7252408873742875e7 0.0
0.0 0.0 0.0

-5.63739246701852e6 1.3682188667260403e7 0.0
1.3682188667260403e7 4.619970014055602e7 0.0
0.0 0.0 0.0

-7.386715478848031e6 1.857928768160464e7 0.0
1.857928768160464e7 2.3526676956430838e7 0.0
0.0 0.0 0.0

-3.886281062073459e6 2.396723601674695e7 0.0
2.396723601674695e7 1.130436095506686e7 0.0
0.0 0.0 0.0

-8.977753788637985e6 2.2415511248818774e7 0.0
2.2415511248818774e7 -9.842592383659918e6 0.0
0.0 0.0 0.0

-6.363950043266209e6 1.9246813036786407e7 0.0
1.9246813036786407e7 2.421557564174947e7 0.0
0.0 0.0 0.0

-2.6364682741897423e6 2.5733171515923265e7 0.0
2.5733171515923265e7 2.0354994973857705e6 0.0
0.0 0.0 0.0

1.1805024476021385e7 1.925694930709295e7 0.0
1.925694930709295e7 3.9350083128694326e7 0.0
0.0 0.0 0.0

-1.0484375195477273e7 -59467.00144783225 0.0
-59467.00144783225 1.803792600020455e7 0.0
0.0 0.0 0.0

870973.9178518467 2.0885543025103316e7 0.0
2.0885543025103316e7 -1.4337557496215913e7 0.0
0.0 0.0 0.0

-3.7368189792121574e6 1.2789046554110423e7 0.0
1.2789046554110423e7 -7.271809455644396e7 0.0
0.0 0.0 0.0

-9.417548727783334e6 3.524069383880393e7 0.0
3.524069383880393e7 5.788555230815647e6 0.0
0.0 0.0 0.0

3.5156178458171687e6 2.7306945420006882e7 0.0
2.7306945420006882e7 -6.5364257526133815e6 0.0
0.0 0.0 0.0

3.261895307941131e6 2.145552606978277e7 0.0
2.145552606978277e7 2.767128236263648e6 0.0
0.0 0.0 0.0

-7.281449913766764e6 1.8508192633118737e7 0.0
1.8508192633118737e7 2.4962670523534246e7 0.0
0.0 0.0 0.0

-2.1223904983623933e7 3.5533570889894634e7 0.0
3.5533570889894634e7 6.780263329467498e6 0.0
0.0 0.0 0.0

1.4650122248127582e6 2.3440518316693757e7 0.0
2.3440518316693757e7 -1.0237798202416528e7 0.0
0.0 0.0 0.0

-5.01586270362115e6 1.69266595289629e7 0.0
1.69266595289629e7 -3.3350632220896542e7 0.0
0.0 0.0 0.0

-1.619439084093158e7 3.785015186903024e7 0.0
3.785015186903024e7 5.705691884678036e6 0.0
0.0 0.0 0.0

3.614993211859371e7 3.3569510298330955e7 0.0
3.3569510298330955e7 -9.330481322191877e6 0.0
0.0 0.0 0.0

2.5046944602904003e6 2.0424635794741765e7 0.0
2.0424635794741765e7 4.043223177202408e6 0.0
0.0 0.0 0.0

1.8614906791475154e6 1.2043467174286878e7 0.0
1.2043467174286878e7 -2.4269809796641655e7 0.0
0.0 0.0 0.0

-1.2644823684843061e7 1.9244944282857228e7 0.0
1.9244944282857228e7 -4.91555832985957e7 0.0
0.0 0.0 0.0

1.6743524837131692e7 3.2485248092780393e7 0.0
3.2485248092780393e7 -5.952294205710524e6 0.0
0.0 0.0 0.0

-619071.6507466892 1.943003696859305e7 0.0
1.943003696859305e7 -1.4807481159830272e7 0.0
0.0 0.0 0.0

595230.1368045977 2.9918212586784884e7 0.0
2.9918212586784884e7 -3.265962896461342e6 0.0
0.0 0.0 0.0

-2.4586039560321085e6 1.1838025257422222e7 0.0
1.1838025257422222e7 -6.088249216043442e7 0.0
0.0 0.0 0.0

1.3030962179970506e6 1.959008360969704e7 0.0
1.959008360969704e7 8.39758193542879e6 0.0
0.0 0.0 0.0

-2.5450557435442608e7 3.232394644622691e7 0.0
3.232394644622691e7 6.182337166011188e6 0.0
0.0 0.0 0.0

-2.0364300961896118e6 2.6208881890426923e7 0.0
2.6208881890426923e7 2.721669031887869e6 0.0
0.0 0.0 0.0

2.508101249562894e7 2.1380137625433013e7 0.0
2.1380137625433013e7 9.575498703912886e6 0.0
0.0 0.0 0.0

-3.528334868644916e6 3.3915620654915564e7 0.0
3.3915620654915564e7 1.4227276042494804e6 0.0
0.0 0.0 0.0

3.4405318115493683e6 1.94246581431973e7 0.0
1.94246581431973e7 1.348386046865073e7 0.0
0.0 0.0 0.0

-1.5522770051196758e6 3.1245964712290275e6 0.0
3.1245964712290275e6 -494424.01272091834 0.0
0.0 0.0 0.0

1.0279680304148331e7 3.463377329262157e7 0.0
3.463377329262157e7 -4.610901847700221e6 0.0
0.0 0.0 0.0

-183493.75290863123 1.879414890567104e7 0.0
1.879414890567104e7 -2.055903772388948e7 0.0
0.0 0.0 0.0

2.260575445913039e6 3.7095044709699824e6 0.0
3.7095044709699824e6 -5.1225985487903744e7 0.0
0.0 0.0 0.0

-325758.62726422516 1.156174114724021e7 0.0
1.156174114724021e7 -7.40140335919081e6 0.0
0.0 0.0 0.0

1.7064180560244313e6 6.7170168934685625e6 0.0
6.7170168934685625e6 -9.005816945105966e6 0.0
0.0 0.0 0.0

1.085939766141655e6 1.5188864362299062e7 0.0
1.5188864362299062e7 -1.710393014268245e7 0.0
0.0 0.0 0.0

-2.2216407705028113e7 3.042330702664787e7 0.0
3.042330702664787e7 5.162825667360949e6 0.0
0.0 0.0 0.0

-3.0167779312891294e6 2.1953027702399306e7 0.0
2.1953027702399306e7 3.381753015463875e6 0.0
0.0 0.0 0.0

5.3900220189883895e6 2.4929141857328456e7 0.0
2.4929141857328456e7 -6.162263080233679e6 0.0
0.0 0.0 0.0

2.724990643230954e6 5.941292436091194e6 0.0
5.941292436091194e6 -4.0133418940603375e7 0.0
0.0 0.0 0.0

-153969.91005418915 2.1277177466204893e7 0.0
2.1277177466204893e7 -9.758907234221987e6 0.0
0.0 0.0 0.0

-79376.19907190744 1.7869590650713652e7 0.0
1.7869590650713652e7 -1.4807043707748882e7 0.0
0.0 0.0 0.0

-1.375679149067202e7 2.4848186484646592e7 0.0
2.4848186484646592e7 -1.1341583734854378e7 0.0
0.0 0.0 0.0

1.4868837297621682e7 2.997335052008242e7 0.0
2.997335052008242e7 -5.823680959164729e6 0.0
0.0 0.0 0.0

-4.741785727808742e6 2.5301264918466445e7 0.0
2.5301264918466445e7 1.054861576587858e7 0.0
0.0 0.0 0.0

3.044949520883223e6 2.0372723221714273e7 0.0
2.0372723221714273e7 1.3355196692269102e7 0.0
0.0 0.0 0.0

4.344147558377132e6 1.8291482746108986e7 0.0
1.8291482746108986e7 7.567139457390976e7 0.0
0.0 0.0 0.0

-4.130229168370927e6 3.7638889733385354e7 0.0
3.7638889733385354e7 3.5098912802552627e6 0.0
0.0 0.0 0.0

1.2158106448783367e6 2.152139126664259e7 0.0
2.152139126664259e7 -9.494985732173912e6 0.0
0.0 0.0 0.0

2.078705019696055e6 1.0861190468978293e7 0.0
1.0861190468978293e7 -3.16820341412384e7 0.0
0.0 0.0 0.0

2.1260472052236013e6 9.982176727097558e6 0.0
9.982176727097558e6 -3.3424881050178625e7 0.0
0.0 0.0 0.0

3.730177720633881e6 3.149738890373666e6 0.0
3.149738890373666e6 -2.8568983696028933e7 0.0
0.0 0.0 0.0

-3.1942091551357144e6 2.4565204325155783e7 0.0
2.4565204325155783e7 1.0454876611189812e7 0.0
0.0 0.0 0.0

3.3706724933097158e6 3.415881224135131e6 0.0
3.415881224135131e6 -2.845781707195332e7 0.0
0.0 0.0 0.0

-9.923191557068119e6 3.1321076646199822e6 0.0
3.1321076646199822e6 3.603783748625159e7 0.0
0.0 0.0 0.0

-3.6163756354529876e6 2.226365900592428e7 0.0
2.226365900592428e7 1.6620887670559632e7 0.0
0.0 0.0 0.0

-2.2428021524992897e6 1.114154040232442e7 0.0
1.114154040232442e7 -3.4553954546594964e6 0.0
0.0 0.0 0.0

2.5965275347282733e6 2.7907507312919263e7 0.0
2.7907507312919263e7 -6.098819306467019e6 0.0
0.0 0.0 0.0

6.444309905686812e6 3.136374123726674e7 0.0
3.136374123726674e7 -4.268392966282478e6 0.0
0.0 0.0 0.0

1.5602625901321494e6 1.6581569790745655e7 0.0
1.6581569790745655e7 3.6404862655794723e6 0.0
0.0 0.0 0.0

-1.5866004664061181e6 1.1981116287053872e7 0.0
1.1981116287053872e7 -5.2281337484482475e7 0.0
0.0 0.0 0.0

2.816145315139128e6 4.243379868543934e6 0.0
4.243379868543934e6 -4.4146262403744325e7 0.0
0.0 0.0 0.0

-5.1133057416831166e7 3.843108717420264e7 0.0
3.843108717420264e7 -1.2424478968269683e7 0.0
0.0 0.0 0.0

2.479806300302801e7 2.513083759842946e7 0.0
2.513083759842946e7 1.198051327350697e7 0.0
0.0 0.0 0.0

5.162554408948243e6 3.088086723726313e7 0.0
3.088086723726313e7 -4.24475238809618e6 0.0
0.0 0.0 0.0

-132912.53419034276 1.9766669543950584e7 0.0
1.9766669543950584e7 1.9774220850003287e7 0.0
0.0 0.0 0.0

1.2308446882032184e6 1.8223228012533437e7 0.0
1.8223228012533437e7 3.8837983437825283e6 0.0
0.0 0.0 0.0

-9.205488762498304e6 8.091121253968539e6 0.0
8.091121253968539e6 4.207797253046919e7 0.0
0.0 0.0 0.0

-1.1744203324655695e7 3.1673175037079338e7 0.0
3.1673175037079338e7 5.71546759268548e6 0.0
0.0 0.0 0.0

-1.1831577326518712e6 1.5082635151839105e7 0.0
1.5082635151839105e7 -9.274145492136192e6 0.0
0.0 0.0 0.0

-1.0709003461292855e7 1.935974405976163e6 0.0
1.935974405976163e6 2.8340499410306208e7 0.0
0.0 0.0 0.0

-31646.05733684823 1.286982405024019e7 0.0
1.286982405024019e7 9.066606641801408e7 0.0
0.0 0.0 0.0

893715.1098351805 2.1529110739974447e7 0.0
2.1529110739974447e7 -1.3234152699718168e7 0.0
0.0 0.0 0.0

2.534029181658738e6 4.452288591136706e6 0.0
4.452288591136706e6 -9.527220921063626e6 0.0
0.0 0.0 0.0

-5.957637410063617e6 9.006092917022604e6 0.0
9.006092917022604e6 6.026983621310801e7 0.0
0.0 0.0 0.0

3.2418459946811795e6 3.354515765776993e6 0.0
3.354515765776993e6 -3.6167055866684385e7 0.0
0.0 0.0 0.0

-6.724555808287991e6 2.215728229124216e7 0.0
2.215728229124216e7 -1.2777838951261466e7 0.0
0.0 0.0 0.0

-2.260917276450121e7 2.6980473403067846e7 0.0
2.6980473403067846e7 -1.2369815171852633e7 0.0
0.0 0.0 0.0

100843.95464563463 1.9471009769460417e7 0.0
1.9471009769460417e7 -1.7193961066278048e7 0.0
0.0 0.0 0.0

-2.803194816544607e6 1.2009634079998901e7 0.0
1.2009634079998901e7 2.834142272105949e6 0.0
0.0 0.0 0.0

-5.442774713940552e6 2.286510834341862e7 0.0
2.286510834341862e7 857425.3796468328 0.0
0.0 0.0 0.0

1.8790753279311113e7 2.901382170515438e7 0.0
2.901382170515438e7 -5.485168747502734e6 0.0
0.0 0.0 0.0

-8.600476094120378e6 -3.472683448027963e6 0.0
-3.472683448027963e6 1.828681501339033e7 0.0
0.0 0.0 0.0

1.149261918350537e7 2.123440170691344e7 0.0
2.123440170691344e7 7.014052781651149e6 0.0
0.0 0.0 0.0

1.809849892673324e7 3.775406028619652e7 0.0
3.775406028619652e7 -8.09561122515724e6 0.0
0.0 0.0 0.0

3.515094839265989e6 3.398505845996843e6 0.0
3.398505845996843e6 -3.202192942563495e7 0.0
0.0 0.0 0.0

-3.5322117151209777e6 1.9280208396630872e7 0.0
1.9280208396630872e7 4.437815888042941e6 0.0
0.0 0.0 0.0

1.1144937082736723e7 2.0550372064107675e7 0.0
2.0550372064107675e7 4.433966716514856e7 0.0
0.0 0.0 0.0

6.1848205885385215e7 7.376436454777344e6 0.0
7.376436454777344e6 -729729.1074414141 0.0
0.0 0.0 0.0

-2.9376010099875093e7 2.9250884395287e7 0.0
2.9250884395287e7 -1.1500372663258184e7 0.0
0.0 0.0 0.0

-2.7929382813191237e6 2.530672195181168e7 0.0
2.530672195181168e7 3.0195598826919245e6 0.0
0.0 0.0 0.0

-1.0838289586173557e6 1.2222884856375188e7 0.0
1.2222884856375188e7 -4.562781432377729e7 0.0
0.0 0.0 0.0

-1.6594590386535063e7 2.9872731172758255e7 0.0
2.9872731172758255e7 5.375914156537182e6 0.0
0.0 0.0 0.0

9.863306831973188e6 2.166713457499016e7 0.0
2.166713457499016e7 8.910288919219619e6 0.0
0.0 0.0 0.0

-3.356358713749118e6 8.614268852073086e6 0.0
8.614268852073086e6 7.289907247289027e7 0.0
0.0 0.0 0.0

-4.654788892422949e6 2.3743447345020216e7 0.0
2.3743447345020216e7 1.1443514344595995e7 0.0
0.0 0.0 0.0

3.646991456185883e6 1.8320146464698497e7 0.0
1.8320146464698497e7 1.7614602509337105e7 0.0
0.0 0.0 0.0

-777072.5397337745 1.963652856331514e7 0.0
1.963652856331514e7 -1.1135229691923482e7 0.0
0.0 0.0 0.0

8.182767492357181e6 2.28166409462198e7 0.0
2.28166409462198e7 -1.3418698898473047e6 0.0
0.0 0.0 0.0

2.4084101912740883e6 2.2157599741308626e7 0.0
2.2157599741308626e7 -6.6366060441208575e6 0.0
0.0 0.0 0.0

-2.853235935465872e6 1.5008149936455993e7 0.0
1.5008149936455993e7 -2.9028976023377012e6 0.0
0.0 0.0 0.0

1.8958804624554599e6 1.9448292602803934e7 0.0
1.9448292602803934e7 2.2946007074647177e7 0.0
0.0 0.0 0.0

1.0529324274513593e6 1.9216579550489247e7 0.0
1.9216579550489247e7 2.7476752473889887e6 0.0
0.0 0.0 0.0

220242.32703573792 1.8728619623521604e7 0.0
1.8728619623521604e7 -3.7729846215084167e6 0.0
0.0 0.0 0.0

-5.175856856418835e6 1.7213579098573327e7 0.0
1.7213579098573327e7 -2.927131911401997e7 0.0
0.0 0.0 0.0

-2.764368062452935e6 2.8093848369676728e7 0.0
2.8093848369676728e7 4.616397865931424e6 0.0
0.0 0.0 0.0

-1.9963859989583254e7 2.553805731184512e7 0.0
2.553805731184512e7 -1.1526762731735418e7 0.0
0.0 0.0 0.0

-9.741478832008172e6 3.26530356180307e7 0.0
3.26530356180307e7 5.141568258287856e6 0.0
0.0 0.0 0.0

-861889.7335179998 2.0714008668958046e7 0.0
2.0714008668958046e7 1.4191415808342919e7 0.0
0.0 0.0 0.0

3.065096466654051e6 6.440892646837374e6 0.0
6.440892646837374e6 -3.2208681461001083e7 0.0
0.0 0.0 0.0

722194.3576456886 2.0920717671052802e7 0.0
2.0920717671052802e7 -1.4260376853211444e7 0.0
0.0 0.0 0.0

1.559336049698431e7 2.969939240821985e7 0.0
2.969939240821985e7 -5.39355854547857e6 0.0
0.0 0.0 0.0

-1.0075803936928473e7 2.117783573227868e6 0.0
2.117783573227868e6 3.315775802733294e7 0.0
0.0 0.0 0.0

-4.386778414271395e6 2.301814257959468e7 0.0
2.301814257959468e7 8.163586336651335e6 0.0
0.0 0.0 0.0

1.7182006075583287e6 2.1264275815537713e7 0.0
2.1264275815537713e7 2.300590487013011e6 0.0
0.0 0.0 0.0

8.894157442728601e6 2.3870899406763963e7 0.0
2.3870899406763963e7 -3.1613016609083726e6 0.0
0.0 0.0 0.0

-1.0685887116795473e7 8.328066883401883e6 0.0
8.328066883401883e6 3.111255459977691e7 0.0
0.0 0.0 0.0

5.852868345088272e6 1.7844095651702803e7 0.0
1.7844095651702803e7 2.404536536856719e7 0.0
0.0 0.0 0.0

-8.383241371841988e6 2.1772278678551354e7 0.0
2.1772278678551354e7 -1.2214233089162046e7 0.0
0.0 0.0 0.0

-451428.1799566075 1.6989379489935007e7 0.0
1.6989379489935007e7 -2.6479487444870796e7 0.0
0.0 0.0 0.0

9.125856899503399e6 3.6812946617681794e7 0.0
3.6812946617681794e7 -3.6848679736499256e6 0.0
0.0 0.0 0.0

-9.3761348177852e6 3.387882691743944e7 0.0
3.387882691743944e7 4.535311932106453e6 0.0
0.0 0.0 0.0

-1.110324095256599e7 9.50856018588401e6 0.0
9.50856018588401e6 2.702306992888903e7 0.0
0.0 0.0 0.0

-8.682577780148348e6 2.3547403579386085e7 0.0
2.3547403579386085e7 -6.809434414633904e6 0.0
0.0 0.0 0.0

-7.004544839022655e6 3.4295354513498574e7 0.0
3.4295354513498574e7 3.5135979960346213e6 0.0
0.0 0.0 0.0

-7.690163489442211e6 3.3245231048691787e7 0.0
3.3245231048691787e7 4.256138889032461e6 0.0
0.0 0.0 0.0

3.6488943181699477e6 1.7433827739103414e7 0.0
1.7433827739103414e7 1.4644704106253253e7 0.0
0.0 0.0 0.0

1.9011744623366436e6 1.3562365800051123e7 0.0
1.3562365800051123e7 -2.1975512644356616e7 0.0
0.0 0.0 0.0

5.592492491781007e7 3.413910940054145e7 0.0
3.413910940054145e7 2.390609791173239e7 0.0
0.0 0.0 0.0

-3.864353624601497e7 3.258835542016091e6 0.0
3.258835542016091e6 7.03798939909298e6 0.0
0.0 0.0 0.0

-1.842386364947393e7 2.9061062149709355e7 0.0
2.9061062149709355e7 4.060893459979563e6 0.0
0.0 0.0 0.0

2.7832858588805236e6 3.138062406397643e6 0.0
3.138062406397643e6 -3.60000124445e7 0.0
0.0 0.0 0.0

-212575.83190665534 2.064729392884411e7 0.0
2.064729392884411e7 -1.2710020469329258e7 0.0
0.0 0.0 0.0

-1.3657234361520829e7 3.0273557872525815e7 0.0
3.0273557872525815e7 5.86598847635633e6 0.0
0.0 0.0 0.0

-1.0502183636761421e7 5.696667759009024e6 0.0
5.696667759009024e6 3.4764919809493296e7 0.0
0.0 0.0 0.0

1.6820645421032608e6 1.0571268327954324e7 0.0
1.0571268327954324e7 -2.966501337712652e7 0.0
0.0 0.0 0.0

-6.497891785830864e6 1.6711176482495887e7 0.0
1.6711176482495887e7 -2.384938214185273e7 0.0
0.0 0.0 0.0

1.003202366993247e7 2.2697211722054627e7 0.0
2.2697211722054627e7 9.128575941205114e6 0.0
0.0 0.0 0.0

-3.93040755045515e7 3.1574916057082776e7 0.0
3.1574916057082776e7 -9.38635731963358e6 0.0
0.0 0.0 0.0

-4.042039554548447e6 1.3231155110899584e7 0.0
1.3231155110899584e7 1.5879779739586029e6 0.0
0.0 0.0 0.0

-1.031622582491298e7 2.917269787306274e7 0.0
2.917269787306274e7 6.144536393612115e6 0.0
0.0 0.0 0.0

-2.2269589499172075e6 2.916045320937564e7 0.0
2.916045320937564e7 2.998490209348724e6 0.0
0.0 0.0 0.0

-7.736500539028904e6 6.4418754137778925e6 0.0
6.4418754137778925e6 1.9198088438211117e7 0.0
0.0 0.0 0.0

-9.025981471921647e6 -812077.2304011689 0.0
-812077.2304011689 1.9367860281908005e7 0.0
0.0 0.0 0.0

1.1553095885172086e6 1.3944197230059516e7 0.0
1.3944197230059516e7 -2.2594862664452292e7 0.0
0.0 0.0 0.0

-1.0011653491154123e7 4.412179677152275e6 0.0
4.412179677152275e6 3.459809192232129e7 0.0
0.0 0.0 0.0

465229.68487653695 1.7417805070948847e7 0.0
1.7417805070948847e7 -2.064131880230572e7 0.0
0.0 0.0 0.0

8.392846905266942e6 2.1523306128617167e7 0.0
2.1523306128617167e7 93234.985167759 0.0
0.0 0.0 0.0

804174.7881995076 9.522091839386579e6 0.0
9.522091839386579e6 -1.214237359961054e7 0.0
0.0 0.0 0.0

-1.957524173646506e7 2.904401582110655e7 0.0
2.904401582110655e7 4.05715741145081e6 0.0
0.0 0.0 0.0

-1.216186174618331e7 2.4994324606992196e7 0.0
2.4994324606992196e7 -1.151778675496153e7 0.0
0.0 0.0 0.0

561141.7799872116 1.787301696578324e7 0.0
1.787301696578324e7 1.8704735996543246e6 0.0
0.0 0.0 0.0

-448779.575659827 1.7972550179259837e7 0.0
1.7972550179259837e7 -1.4959326901565292e6 0.0
0.0 0.0 0.0

1.7328329747395944e6 1.4276428251625033e7 0.0
1.4276428251625033e7 -2.076418378329153e7 0.0
0.0 0.0 0.0

-5.877240768826392e6 1.7457374885144133e7 0.0
1.7457374885144133e7 -2.3353574493325464e7 0.0
0.0 0.0 0.0

-1.0751800373016164e7 1.208037044331416e6 0.0
1.208037044331416e6 2.5327211691286214e7 0.0
0.0 0.0 0.0

-3.8704935713615012e6 1.4460395960271308e7 0.0
1.4460395960271308e7 7.760527457518719e6 0.0
0.0 0.0 0.0

1.5177140081362515e6 2.3116815177619424e7 0.0
2.3116815177619424e7 -1.0433809012582894e7 0.0
0.0 0.0 0.0

2.578028661663577e6 7.357954070651912e6 0.0
7.357954070651912e6 -2.2693622042470485e7 0.0
0.0 0.0 0.0

-4.206284538205429e7 2.7838090187054988e7 0.0
2.7838090187054988e7 -5.294711787532286e6 0.0
0.0 0.0 0.0

6.420450870188159e6 2.2575797694315888e7 0.0
2.2575797694315888e7 -1.6267717819451233e6 0.0
0.0 0.0 0.0

2.4690684292835575e7 2.1147139200905416e7 0.0
2.1147139200905416e7 4.568159888763133e6 0.0
0.0 0.0 0.0

-1.0214179855719486e7 3.784643396979509e7 0.0
3.784643396979509e7 5.786002204560547e6 0.0
0.0 0.0 0.0

-1.0758231515221354e7 4.267098423737215e6 0.0
4.267098423737215e6 2.2392079154802628e7 0.0
0.0 0.0 0.0

-324214.0023466898 1.851716031217067e7 0.0
1.851716031217067e7 -1.357470357960474e7 0.0
0.0 0.0 0.0

-1.0526858602262199e7 2.3377413370554704e7 0.0
2.3377413370554704e7 -6.25218157697065e6 0.0
0.0 0.0 0.0

-2.099939768193511e7 3.2661032048798777e7 0.0
3.2661032048798777e7 5.839289647698254e6 0.0
0.0 0.0 0.0

-7.621106938787803e6 1.8123432700840548e7 0.0
1.8123432700840548e7 -3.7046742149831004e7 0.0
0.0 0.0 0.0

2.00586678891022e6 1.897856241479985e7 0.0
1.897856241479985e7 9.481370640445478e6 0.0
0.0 0.0 0.0

-5.015825091562051e6 1.7256557404314164e7 0.0
1.7256557404314164e7 -2.5526707030038275e7 0.0
0.0 0.0 0.0

-1.5568750829520926e7 3.576074897796345e7 0.0
3.576074897796345e7 6.432267281714895e6 0.0
0.0 0.0 0.0

1.1889823568152748e6 2.5815587356649373e7 0.0
2.5815587356649373e7 -7.609853802924814e6 0.0
0.0 0.0 0.0

-7.641152678071611e6 2.382911698685902e7 0.0
2.382911698685902e7 -759020.3631879291 0.0
0.0 0.0 0.0

1.7150940382643025e6 1.1639902662169557e7 0.0
1.1639902662169557e7 -3.2212782533327952e7 0.0
0.0 0.0 0.0

-9.435730748557365e6 8.114756516500924e6 0.0
8.114756516500924e6 3.953679448540589e7 0.0
0.0 0.0 0.0

-1.4594156786405805e6 1.860832853042891e7 0.0
1.860832853042891e7 -9.022265861167077e6 0.0
0.0 0.0 0.0

8.960401837904137e6 2.2473478637066998e7 0.0
2.2473478637066998e7 -1.7748507101280414e6 0.0
0.0 0.0 0.0

-6.356435240850814e6 1.827379880902721e7 0.0
1.827379880902721e7 -3.093062032594006e7 0.0
0.0 0.0 0.0

-1.1259023882149782e7 2.895225708537311e7 0.0
2.895225708537311e7 5.78472023214837e6 0.0
0.0 0.0 0.0

2.820730379456073e7 3.561665333791922e7 0.0
3.561665333791922e7 -7.383481785869641e6 0.0
0.0 0.0 0.0

-7.241618031103673e6 2.3250868862659205e7 0.0
2.3250868862659205e7 -4.694560519555994e6 0.0
0.0 0.0 0.0

-1.174660334708219e7 3.0285760899633583e7 0.0
3.0285760899633583e7 5.744165622016269e6 0.0
0.0 0.0 0.0

-6.555777173607251e6 1.9558339123915028e7 0.0
1.9558339123915028e7 2.057609865369968e7 0.0
0.0 0.0 0.0

3.5429076252791057e6 2.1433110906215522e7 0.0
2.1433110906215522e7 -5.402026306689661e6 0.0
0.0 0.0 0.0

-3.3357064682108318e6 2.8166739824866172e7 0.0
2.8166739824866172e7 5.425916640565342e6 0.0
0.0 0.0 0.0

-6.256987989490119e6 1.698980746549015e7 0.0
1.698980746549015e7 -3.5480088243643194e7 0.0
0.0 0.0 0.0

2.8012834879255537e6 4.99795029165617e6 0.0
4.99795029165617e6 -3.0732314250935297e7 0.0
0.0 0.0 0.0

-6.275266338660417e6 1.833590171799771e7 0.0
1.833590171799771e7 -2.7160225918795254e7 0.0
0.0 0.0 0.0

-4.692873779614625e6 3.118590759577719e7 0.0
3.118590759577719e7 3.5078719067145744e6 0.0
0.0 0.0 0.0

-3.3055930769036897e6 1.9283855530279778e7 0.0
1.9283855530279778e7 -1.1018643600765005e7 0.0
0.0 0.0 0.0

2.986678238166666e6 1.9339233961255945e7 0.0
1.9339233961255945e7 9.955594664105425e6 0.0
0.0 0.0 0.0

-7.813731487701677e6 1.7170157839791294e7 0.0
1.7170157839791294e7 2.9326642952752873e7 0.0
0.0 0.0 0.0

-1.667058749545275e6 1.4488619885643084e7 0.0
1.4488619885643084e7 -2.0669480757637972e6 0.0
0.0 0.0 0.0

1.241862428061407e7 1.8401546552262202e7 0.0
1.8401546552262202e7 4.786797336488613e7 0.0
0.0 0.0 0.0

-9.572220405136162e6 3.0353162532305247e6 0.0
3.0353162532305247e6 3.910336772263704e7 0.0
0.0 0.0 0.0

2.24375925920815e6 4.349631956043764e6 0.0
4.349631956043764e6 -4.373576571759368e7 0.0
0.0 0.0 0.0

-4.1766699681265587e6 1.8344867653676286e7 0.0
1.8344867653676286e7 -2.788515626505652e7 0.0
0.0 0.0 0.0

-1.001171096011671e7 3.041706314001418e7 0.0
3.041706314001418e7 5.772063676483546e6 0.0
0.0 0.0 0.0

2.9708639178569734e7 1.4260791957281101e7 0.0
1.4260791957281101e7 1.075417712947078e6 0.0
0.0 0.0 0.0

-1.1326204998381723e7 6.771562977224368e6 0.0
6.771562977224368e6 2.928524048606885e7 0.0
0.0 0.0 0.0

-2.5094289326822005e7 3.0552089775594804e7 0.0
3.0552089775594804e7 -1.2470466116061702e7 0.0
0.0 0.0 0.0

-3.7885976099085175e6 2.2432002112991787e7 0.0
2.2432002112991787e7 8.513593063395098e6 0.0
0.0 0.0 0.0

-2.0756515912199095e7 3.560724425826265e7 0.0
3.560724425826265e7 6.870251247017249e6 0.0
0.0 0.0 0.0

2.0074000034569018e6 4.883151968483501e6 0.0
4.883151968483501e6 -4.510777228278769e7 0.0
0.0 0.0 0.0

6.33171064141933e6 3.014411535872722e7 0.0
3.014411535872722e7 -4.901779472176353e6 0.0
0.0 0.0 0.0

-4.232046299484592e6 1.3174228855314517e7 0.0
1.3174228855314517e7 5.521125230402547e7 0.0
0.0 0.0 0.0

-3.5828448328595953e6 2.7210926139693514e7 0.0
2.7210926139693514e7 7.547779199295035e6 0.0
0.0 0.0 0.0

-1.616699465628432e6 1.7992949042183176e7 0.0
1.7992949042183176e7 -6.6925755168318525e6 0.0
0.0 0.0 0.0

-7.393023354051255e6 2.1150286631615036e6 0.0
2.1150286631615036e6 1.2664034545017706e7 0.0
0.0 0.0 0.0

4.683850812148409e6 1.963510603393821e7 0.0
1.963510603393821e7 1.5834671074863309e7 0.0
0.0 0.0 0.0

-4.704766596037352e6 2.3462844273134176e7 0.0
2.3462844273134176e7 1.0019386599010857e7 0.0
0.0 0.0 0.0

1.50023356878065e6 1.032044236329993e7 0.0
1.032044236329993e7 -1.0908861543702897e7 0.0
0.0 0.0 0.0

-3.480953354523104e6 2.147706484518661e7 0.0
2.147706484518661e7 995365.6878533431 0.0
0.0 0.0 0.0

7.30441596863079e6 2.208820154648106e7 0.0
2.208820154648106e7 -2.334839011321054e6 0.0
0.0 0.0 0.0

-2.4095726012986857e6 1.457650905735755e7 0.0
1.457650905735755e7 1.0675044999424992e6 0.0
0.0 0.0 0.0

-4.013569913320048e6 1.687103080165939e7 0.0
1.687103080165939e7 -3.132648482557045e7 0.0
0.0 0.0 0.0

-4.203169405557783e6 1.8092769403956946e7 0.0
1.8092769403956946e7 7.518093539311524e6 0.0
0.0 0.0 0.0

-5.923399659172248e6 1.9416907767731108e7 0.0
1.9416907767731108e7 2.4202073338480473e7 0.0
0.0 0.0 0.0

-9.869933954322755e6 1.0547822971926357e6 0.0
1.0547822971926357e6 2.8428788697867915e7 0.0
0.0 0.0 0.0

-1.2352789313488249e7 2.3918955312728606e7 0.0
2.3918955312728606e7 51375.882185515016 0.0
0.0 0.0 0.0

-7.2205377623034045e6 2.8664569596697357e7 0.0
2.8664569596697357e7 6.741170453687234e6 0.0
0.0 0.0 0.0

1.19318031039882e7 3.0448322243926346e7 0.0
3.0448322243926346e7 -5.646693826466316e6 0.0
0.0 0.0 0.0

-1.086826803178661e7 6.308423963395381e6 0.0
6.308423963395381e6 3.1926209023914874e7 0.0
0.0 0.0 0.0

-5.073420005157016e6 1.778215389760622e7 0.0
1.778215389760622e7 -3.2684544792515352e7 0.0
0.0 0.0 0.0

-4.671192880937293e6 2.8522306622960303e7 0.0
2.8522306622960303e7 6.714946828188401e6 0.0
0.0 0.0 0.0

634842.6085477606 1.994150144739349e7 0.0
1.994150144739349e7 -7.969919538593971e6 0.0
0.0 0.0 0.0

-1.647758264500321e6 1.5758674696321046e7 0.0
1.5758674696321046e7 -7.872081904273142e6 0.0
0.0 0.0 0.0

-1.0091006907952117e7 1.7843616394877206e6 0.0
1.7843616394877206e6 2.032034564407534e7 0.0
0.0 0.0 0.0

-9.640994331640832e6 3.1626581065351825e7 0.0
3.1626581065351825e7 5.750977406916276e6 0.0
0.0 0.0 0.0

-1.7075902249715254e6 2.3857136154098537e7 0.0
2.3857136154098537e7 -342525.0932751483 0.0
0.0 0.0 0.0

3.6950441008012583e6 2.099501591247259e7 0.0
2.099501591247259e7 1.4481699798860846e7 0.0
0.0 0.0 0.0

-2.17803985690368e6 2.547584225140133e6 0.0
2.547584225140133e6 4.813466364356095e6 0.0
0.0 0.0 0.0

4.492556330504381e6 2.118140222252254e7 0.0
2.118140222252254e7 4.937794542180386e6 0.0
0.0 0.0 0.0

-656292.0881153531 9.230803250656271e6 0.0
9.230803250656271e6 -5.970957792636664e7 0.0
0.0 0.0 0.0

6.740054281573883e6 3.452037970964489e7 0.0
3.452037970964489e7 -4.699127405729907e6 0.0
0.0 0.0 0.0

-5.169120404877972e6 2.448891237863951e7 0.0
2.448891237863951e7 1.0751560192074068e7 0.0
0.0 0.0 0.0

-1.049394826429876e7 1.0309163647800451e7 0.0
1.0309163647800451e7 1.4988829790458094e7 0.0
0.0 0.0 0.0

-1.3749602583555374e6 2.0780231493178014e7 0.0
2.0780231493178014e7 -3.3651513601121563e6 0.0
0.0 0.0 0.0

-846555.4117808975 1.1478743449274227e7 0.0
1.1478743449274227e7 -5.564012374277127e7 0.0
0.0 0.0 0.0

-972595.198143065 1.758432846789405e7 0.0
1.758432846789405e7 -2.385005595181265e7 0.0
0.0 0.0 0.0

-9.930051684811072e6 3.542047490615602e7 0.0
3.542047490615602e7 4.1642952018658156e6 0.0
0.0 0.0 0.0

-2.572839307698554e6 1.8997116823326215e7 0.0
1.8997116823326215e7 -8.576132090184161e6 0.0
0.0 0.0 0.0

-5.167153197802529e6 2.2809214003901508e7 0.0
2.2809214003901508e7 -1.2276865380983528e7 0.0
0.0 0.0 0.0

-2.4500206897384454e6 2.4655511453072898e7 0.0
2.4655511453072898e7 5.825612869693598e6 0.0
0.0 0.0 0.0

591714.6871342398 1.856794138275038e7 0.0
1.856794138275038e7 -1.3698084263513075e7 0.0
0.0 0.0 0.0

7.814666866664802e6 2.2501636237454973e7 0.0
2.2501636237454973e7 7.586870305796925e6 0.0
0.0 0.0 0.0

-8.343260120384862e6 2.3500572299122237e7 0.0
2.3500572299122237e7 -1.214988023766818e7 0.0
0.0 0.0 0.0

-2.423104344717815e6 2.1821987977284245e7 0.0
2.1821987977284245e7 6.033224481868907e6 0.0
0.0 0.0 0.0

-5.124631810246751e6 9.544129150380246e6 0.0
9.544129150380246e6 6.110203106533762e7 0.0
0.0 0.0 0.0

-547959.2196648165 1.531405890153894e7 0.0
1.531405890153894e7 -7.169490068035944e6 0.0
0.0 0.0 0.0

-7.335020716472816e6 1.595092123531183e7 0.0
1.595092123531183e7 -2.5367915437962443e7 0.0
0.0 0.0 0.0

596158.3348168563 2.0374548388967935e7 0.0
2.0374548388967935e7 -1.5683437874006394e7 0.0
0.0 0.0 0.0

-5.751148973741653e6 2.0479698218114063e7 0.0
2.0479698218114063e7 -1.5785161806456622e7 0.0
0.0 0.0 0.0

-3.7777729538000096e6 2.290384873963096e7 0.0
2.290384873963096e7 1.0462506786717892e7 0.0
0.0 0.0 0.0

564912.1003729902 1.766382162610652e7 0.0
1.766382162610652e7 1.883040377107428e6 0.0
0.0 0.0 0.0

-2.717011737956769e6 2.9384957607991118e7 0.0
2.9384957607991118e7 3.8706016383053446e6 0.0
0.0 0.0 0.0

-3.654261519187679e6 2.2180237337907188e7 0.0
2.2180237337907188e7 762122.4685483624 0.0
0.0 0.0 0.0

-6.849737327808663e6 2.921259345337153e6 0.0
2.921259345337153e6 5.9754956106012344e7 0.0
0.0 0.0 0.0

-1.186307141026347e7 1.063111377778046e7 0.0
1.063111377778046e7 2.4776847010907013e7 0.0
0.0 0.0 0.0

1.462731488572753e6 2.0387931664551027e7 0.0
2.0387931664551027e7 -6.947495737446634e6 0.0
0.0 0.0 0.0

-2.5677968095125772e7 2.8919431260451075e7 0.0
2.8919431260451075e7 2.7448796289675385e6 0.0
0.0 0.0 0.0

-1.1292851679710532e7 2.502161990427862e6 0.0
2.502161990427862e6 1.9818499239355378e7 0.0
0.0 0.0 0.0

-7.832543132109743e6 7.875274353022941e6 0.0
7.875274353022941e6 4.9645615915207535e7 0.0
0.0 0.0 0.0

-2.7442353559043244e6 1.5381272672849568e6 0.0
1.5381272672849568e6 5.670546384948958e6 0.0
0.0 0.0 0.0

-4.610193728251535e6 5.287256889261956e6 0.0
5.287256889261956e6 -314888.9751447821 0.0
0.0 0.0 0.0

1.5659281297700023e6 1.2250900152952418e7 0.0
1.2250900152952418e7 -2.2779610500066515e7 0.0
0.0 0.0 0.0

-2.3700433897610144e6 2.4243638242304806e7 0.0
2.4243638242304806e7 -1.0360075811819847e6 0.0
0.0 0.0 0.0

-6.773262508833316e6 2.0232461826635864e7 0.0
2.0232461826635864e7 -1.5411902766242601e7 0.0
0.0 0.0 0.0

-3.4143993069291823e6 2.2525950339025356e7 0.0
2.2525950339025356e7 1.382003420372621e7 0.0
0.0 0.0 0.0

-4.1692505049718665e6 1.7464083615012545e7 0.0
1.7464083615012545e7 -2.3721487229069635e7 0.0
0.0 0.0 0.0

2.2252354950826224e6 2.0557743885129392e7 0.0
2.0557743885129392e7 1.3029430683233831e7 0.0
0.0 0.0 0.0

-1.0493630687735412e7 1.6412805367894283e7 0.0
1.6412805367894283e7 -3.746301544316553e7 0.0
0.0 0.0 0.0

-4.1552771687200144e6 2.209312154664548e7 0.0
2.209312154664548e7 3.6758776796806497e6 0.0
0.0 0.0 0.0

-2.6594775572386645e6 1.199315036651833e7 0.0
1.199315036651833e7 -6.584612928484472e7 0.0
0.0 0.0 0.0

-468726.401107708 1.1977094764375154e7 0.0
1.1977094764375154e7 -4.8541154166760854e7 0.0
0.0 0.0 0.0

-4.068285803790384e6 2.192425266495558e7 0.0
2.192425266495558e7 -1.1676915056100978e7 0.0
0.0 0.0 0.0

-1.581662368786953e7 2.62679432197652e7 0.0
2.62679432197652e7 -1.135314827377166e7 0.0
0.0 0.0 0.0

-1.2415940649905669e7 2.8998222427629497e7 0.0
2.8998222427629497e7 5.7749703192054685e6 0.0
0.0 0.0 0.0

-4.845609944654919e6 1.5110866528657924e7 0.0
1.5110866528657924e7 6.58682422168697e6 0.0
0.0 0.0 0.0

-2.484223849914958e6 6.845248922294917e6 0.0
6.845248922294917e6 8.028778005534715e6 0.0
0.0 0.0 0.0

307861.68360136636 1.954511025406965e7 0.0
1.954511025406965e7 -6.351387543485411e6 0.0
0.0 0.0 0.0

1.015966636126612e7 2.3283010931036536e7 0.0
2.3283010931036536e7 -1.5094261222892916e6 0.0
0.0 0.0 0.0

-3.19447639642749e6 1.3808042630556172e7 0.0
1.3808042630556172e7 5.610929435616933e7 0.0
0.0 0.0 0.0

-1.4373210890200743e6 2.134656560408221e7 0.0
2.134656560408221e7 1.1403956047792038e7 0.0
0.0 0.0 0.0

-7.336429023709785e6 2.8700863763469763e7 0.0
2.8700863763469763e7 6.816210330925981e6 0.0
0.0 0.0 0.0

-4.175286118521009e6 1.771156677720772e7 0.0
1.771156677720772e7 -1.4942704753305553e7 0.0
0.0 0.0 0.0

-7.194908477851192e6 1.1208292925812077e7 0.0
1.1208292925812077e7 4.651099529322952e7 0.0
0.0 0.0 0.0

-2.1059397083802954e6 2.107649999687061e7 0.0
2.107649999687061e7 6.470987663207571e6 0.0
0.0 0.0 0.0

376179.7042560419 2.0245956705952104e7 0.0
2.0245956705952104e7 -1.5564546113330778e7 0.0
0.0 0.0 0.0

-1.0872759519317644e6 1.6387431238375556e7 0.0
1.6387431238375556e7 -2.8162161352276746e7 0.0
0.0 0.0 0.0

-76160.474820517 1.0727881071942873e7 0.0
1.0727881071942873e7 -4.61163759430751e7 0.0
0.0 0.0 0.0

609680.8341144603 1.160279542866749e7 0.0
1.160279542866749e7 -3.695320857356703e7 0.0
0.0 0.0 0.0

-1.0699304776217619e7 1.8996581911724567e7 0.0
1.8996581911724567e7 -5.3021800374858774e7 0.0
0.0 0.0 0.0

-3.0601745601507123e6 2.8773780939080596e7 0.0
2.8773780939080596e7 4.644272272931012e6 0.0
0.0 0.0 0.0

-5.600520122115533e6 2.2647960846757833e7 0.0
2.2647960846757833e7 -1.2332205304228108e7 0.0
0.0 0.0 0.0

-1.309021795952336e6 2.0108841961833887e7 0.0
2.0108841961833887e7 -1.309813837539702e7 0.0
0.0 0.0 0.0

2.274261442906138e7 2.3380355719750192e7 0.0
2.3380355719750192e7 23079.06758536026 0.0
0.0 0.0 0.0

-6.983740229940545e6 5.756286145941267e6 0.0
5.756286145941267e6 5.374699529424314e7 0.0
0.0 0.0 0.0

-1.9863487242436595e6 1.1864725746166773e7 0.0
1.1864725746166773e7 -5.6242605916861266e7 0.0
0.0 0.0 0.0

972493.9470541365 1.1948324582364865e7 0.0
1.1948324582364865e7 -3.679149623856396e7 0.0
0.0 0.0 0.0

-3.826741816181455e6 9.499213015621588e6 0.0
9.499213015621588e6 6.716147192062527e7 0.0
0.0 0.0 0.0

2.0888172700423576e7 2.3732057113429435e7 0.0
2.3732057113429435e7 1.326804896051654e7 0.0
0.0 0.0 0.0

-6.718392222637221e6 9.071827795203563e6 0.0
9.071827795203563e6 5.109866258640808e7 0.0
0.0 0.0 0.0

-6.805193125273522e6 -882101.7487100111 0.0
-882101.7487100111 8.83743025422307e6 0.0
0.0 0.0 0.0

-3.442101018309647e6 3.0249005295621667e7 0.0
3.0249005295621667e7 2.5299672063687183e6 0.0
0.0 0.0 0.0

1.6254243830126282e6 1.1306543481011253e7 0.0
1.1306543481011253e7 -2.8160697505252272e7 0.0
0.0 0.0 0.0

-7.328834754492832e6 3.2495252155285604e7 0.0
3.2495252155285604e7 5.453303512823763e6 0.0
0.0 0.0 0.0

-6.79468282448093e6 1.3844103732155113e7 0.0
1.3844103732155113e7 4.1446344323478684e7 0.0
0.0 0.0 0.0

-1.215142501341679e7 8.590930556794107e6 0.0
8.590930556794107e6 2.2984860681856256e7 0.0
0.0 0.0 0.0

7.829970273498304e6 3.0434895774416704e7 0.0
3.0434895774416704e7 -5.094388426673904e6 0.0
0.0 0.0 0.0

-4.0277004225441013e6 2.321765587049125e7 0.0
2.321765587049125e7 1.3365193555292942e7 0.0
0.0 0.0 0.0

2.0511876366738598e6 2.621804887886109e7 0.0
2.621804887886109e7 -6.965831735296967e6 0.0
0.0 0.0 0.0

-6.711378182342822e6 2.6043151710126866e7 0.0
2.6043151710126866e7 7.388558665861068e6 0.0
0.0 0.0 0.0

-3.845949318770426e6 1.8566946878011253e7 0.0
1.8566946878011253e7 -2.520950686801693e7 0.0
0.0 0.0 0.0

4.926194301646423e6 2.3384816041616317e7 0.0
2.3384816041616317e7 -6.83038924673092e6 0.0
0.0 0.0 0.0

8.212650952267379e6 1.8958255300978415e7 0.0
1.8958255300978415e7 4.565659733838911e7 0.0
0.0 0.0 0.0

-5.492205628979484e6 5.538515006303038e6 0.0
5.538515006303038e6 1.6942490494558148e7 0.0
0.0 0.0 0.0

-2.261755188634518e6 8.77682559992283e6 0.0
8.77682559992283e6 -7.188653370685237e6 0.0
0.0 0.0 0.0

-4.535522624169391e6 1.9880061748961877e7 0.0
1.9880061748961877e7 -1.511840850631175e7 0.0
0.0 0.0 0.0

4.451075769618597e6 2.0215600839916535e7 0.0
2.0215600839916535e7 1.4836919443277711e7 0.0
0.0 0.0 0.0

8.421901737663638e6 3.527917006555149e7 0.0
3.527917006555149e7 -5.585556489439733e6 0.0
0.0 0.0 0.0

3.5725583199239196e6 5.281970205412946e6 0.0
5.281970205412946e6 -1.7279993260027155e7 0.0
0.0 0.0 0.0

-4.556057294301007e6 3.399417498548277e7 0.0
3.399417498548277e7 3.926355548301273e6 0.0
0.0 0.0 0.0

-4.202189827628791e7 1.5701498292087121e7 0.0
1.5701498292087121e7 7.706421272594258e6 0.0
0.0 0.0 0.0

693568.545870888 2.0723442151096936e7 0.0
2.0723442151096936e7 -1.4191645358221788e7 0.0
0.0 0.0 0.0

-6.429605301333301e6 1.5550657179074239e7 0.0
1.5550657179074239e7 3.7299979348107874e7 0.0
0.0 0.0 0.0

282018.25936455885 2.078983636790848e7 0.0
2.078983636790848e7 -6.717930374725878e6 0.0
0.0 0.0 0.0

-4.263744377755629e6 2.3787105107142348e7 0.0
2.3787105107142348e7 1.0164001877393488e7 0.0
0.0 0.0 0.0

-2.241626694111365e6 2.3708492963798475e7 0.0
2.3708492963798475e7 -2.0928270803870778e6 0.0
0.0 0.0 0.0

753015.6559465891 2.1126893074000183e7 0.0
2.1126893074000183e7 -8.19655782898452e6 0.0
0.0 0.0 0.0

1.9572079150257949e6 4.0283327764229416e6 0.0
4.0283327764229416e6 -4.721212041723361e7 0.0
0.0 0.0 0.0

-813302.1897766576 1.727760289188945e7 0.0
1.727760289188945e7 -2.7110077149173957e6 0.0
0.0 0.0 0.0

1.1265537728138424e7 2.4511105878800683e7 0.0
2.4511105878800683e7 -3.4684694617740954e6 0.0
0.0 0.0 0.0

-1.5054039626599252e6 1.9690389974289313e7 0.0
1.9690389974289313e7 -1.5180824122055639e7 0.0
0.0 0.0 0.0

6.160832358857383e6 2.2353363872581635e7 0.0
2.2353363872581635e7 1.077194034626846e7 0.0
0.0 0.0 0.0

-1.3100658046265356e6 1.2141482621954922e7 0.0
1.2141482621954922e7 -4.880334890444475e7 0.0
0.0 0.0 0.0

-434530.0177861769 2.304335985457966e7 0.0
2.304335985457966e7 -8.800948468508603e6 0.0
0.0 0.0 0.0

4.598647500799734e6 2.2268051759533424e7 0.0
2.2268051759533424e7 1.4967027954010036e7 0.0
0.0 0.0 0.0

2.7066267617121365e7 2.9418545215703785e7 0.0
2.9418545215703785e7 -4.550717757119108e6 0.0
0.0 0.0 0.0

-98983.92181095667 1.2276702308102999e7 0.0
1.2276702308102999e7 -4.233116991679662e7 0.0
0.0 0.0 0.0

-3.4306518505729266e7 1.435727398698811e7 0.0
1.435727398698811e7 8.015387694796147e6 0.0
0.0 0.0 0.0

2.1332921356689255e6 1.9176556368388683e7 0.0
1.9176556368388683e7 1.770647061401628e7 0.0
0.0 0.0 0.0

-6.544461308299523e6 3.368693784376971e7 0.0
3.368693784376971e7 4.951034489487281e6 0.0
0.0 0.0 0.0

303629.72337866714 2.1104164074711803e7 0.0
2.1104164074711803e7 -1.1120832574203055e7 0.0
0.0 0.0 0.0

-6.184727888745581e6 2.912277665665994e7 0.0
2.912277665665994e7 6.356769971922319e6 0.0
0.0 0.0 0.0

-4.0663190894121714e6 1.2844083238999262e7 0.0
1.2844083238999262e7 5.991156624358308e7 0.0
0.0 0.0 0.0

1.3511998328613546e6 1.557537946796177e7 0.0
1.557537946796177e7 -1.8179292814146213e7 0.0
0.0 0.0 0.0

5.906283718720159e6 3.0371602047307495e7 0.0
3.0371602047307495e7 -5.279769264272562e6 0.0
0.0 0.0 0.0

-2.6878611214199224e6 1.2559634076543601e7 0.0
1.2559634076543601e7 2.6833917246950585e6 0.0
0.0 0.0 0.0

-3.1206543884691752e7 1.3639848672920186e7 0.0
1.3639848672920186e7 7.8031311302334815e6 0.0
0.0 0.0 0.0

-3.471449897156033e6 1.6380092964325873e7 0.0
1.6380092964325873e7 241196.72492022952 0.0
0.0 0.0 0.0

-1.0738852621029228e7 4.51945204917197e6 0.0
4.51945204917197e6 3.2191998857134443e7 0.0
0.0 0.0 0.0

-5.593923576583624e6 1.619553186119861e7 0.0
1.619553186119861e7 3.8198252689351484e7 0.0
0.0 0.0 0.0

-5.445748464004977e6 3.1864595136920817e7 0.0
3.1864595136920817e7 3.674823906431692e6 0.0
0.0 0.0 0.0

-5.746555805035612e6 3.477142994823388e7 0.0
3.477142994823388e7 4.261506653282406e6 0.0
0.0 0.0 0.0

-6.10457432631349e6 1.221091078510193e7 0.0
1.221091078510193e7 4.776147353999899e7 0.0
0.0 0.0 0.0

1.1761548174075363e6 1.4049368359420976e7 0.0
1.4049368359420976e7 -1.498028142574712e7 0.0
0.0 0.0 0.0

6.870089823307904e6 2.226293828201591e7 0.0
2.226293828201591e7 1.0734170425414655e6 0.0
0.0 0.0 0.0

-3.4375398836582066e6 1.5842204604944104e7 0.0
1.5842204604944104e7 -1.0913256363716524e7 0.0
0.0 0.0 0.0

1.1109348105473812e6 1.0116295711251544e7 0.0
1.0116295711251544e7 -1.2379470945617411e7 0.0
0.0 0.0 0.0

-3.9131563212374966e6 3.1566211652731765e7 0.0
3.1566211652731765e7 4.069331170877449e6 0.0
0.0 0.0 0.0

-7.253274738495449e6 1.8465842715116534e7 0.0
1.8465842715116534e7 2.671032816767686e7 0.0
0.0 0.0 0.0

-824021.4111603759 1.2603290026948623e7 0.0
1.2603290026948623e7 -4.283370663073672e7 0.0
0.0 0.0 0.0

-2.241301743064113e7 2.7823129537497185e7 0.0
2.7823129537497185e7 2.099263867749445e6 0.0
0.0 0.0 0.0

2.1947474099445925e6 2.710210106427754e7 0.0
2.710210106427754e7 -6.074167360062416e6 0.0
0.0 0.0 0.0

901624.3212565631 5.67044613576557e6 0.0
5.67044613576557e6 -5.6474175565240696e7 0.0
0.0 0.0 0.0

-1.775415522691261e6 2.034748542831909e7 0.0
2.034748542831909e7 2.005307896476097e7 0.0
0.0 0.0 0.0

-2.0347525118816553e6 2.405580473650712e7 0.0
2.405580473650712e7 1.5173104997597714e6 0.0
0.0 0.0 0.0

554804.7668256108 2.0914479487980917e7 0.0
2.0914479487980917e7 -1.4462210178011313e7 0.0
0.0 0.0 0.0

-8.954167356358867e6 3.297854305899909e7 0.0
3.297854305899909e7 5.6604290964447055e6 0.0
0.0 0.0 0.0

-1.5060799230615064e6 2.4196471188539274e7 0.0
2.4196471188539274e7 -1.2983525745966306e6 0.0
0.0 0.0 0.0

-6.501494919955478e6 3.2579603281495534e7 0.0
3.2579603281495534e7 3.9231894344114405e6 0.0
0.0 0.0 0.0

-2.802139584947779e6 8.438985681816384e6 0.0
8.438985681816384e6 4.1427122086187475e6 0.0
0.0 0.0 0.0

6.128813463866201e6 1.8710910685990866e7 0.0
1.8710910685990866e7 2.2807666372703154e7 0.0
0.0 0.0 0.0

-1.1097975936377263e6 1.8260553097359255e7 0.0
1.8260553097359255e7 -2.1343565173945796e7 0.0
0.0 0.0 0.0

-2.4730803623492094e6 1.583740673264314e7 0.0
1.583740673264314e7 1.1467078878399818e6 0.0
0.0 0.0 0.0

-27826.55234186165 1.9560424121712808e7 0.0
1.9560424121712808e7 -1.6839983373195637e7 0.0
0.0 0.0 0.0

2.299833798793494e6 8.119058069189755e6 0.0
8.119058069189755e6 -2.144999909758586e7 0.0
0.0 0.0 0.0

1.3741439249664161e7 2.3399294167180832e7 0.0
2.3399294167180832e7 1.0700257306349322e7 0.0
0.0 0.0 0.0

-8.543279069255738e6 532046.80621082 0.0
532046.80621082 4.013759205092099e7 0.0
0.0 0.0 0.0

6.910726151086987e6 1.889919025090835e7 0.0
1.889919025090835e7 2.595246655237204e7 0.0
0.0 0.0 0.0

-3.77874844387407e6 2.9720533079654377e7 0.0
2.9720533079654377e7 3.376003922517725e6 0.0
0.0 0.0 0.0

-809056.333742761 1.790127022257534e7 0.0
1.790127022257534e7 -2.431877520392192e7 0.0
0.0 0.0 0.0

5.071746858477725e6 2.975046654354591e7 0.0
2.975046654354591e7 -4.933489955695128e6 0.0
0.0 0.0 0.0

-765443.127611759 1.982025063409136e7 0.0
1.982025063409136e7 -2.656140094846558e6 0.0
0.0 0.0 0.0

2.355782825430259e6 1.0886460288551012e7 0.0
1.0886460288551012e7 -2.7489110723682806e7 0.0
0.0 0.0 0.0

1.8287557453370206e6 2.6383132679994278e7 0.0
2.6383132679994278e7 -7.2198136795536475e6 0.0
0.0 0.0 0.0

-771931.0899273446 1.863636539472445e7 0.0
1.863636539472445e7 -1.9777078716143426e7 0.0
0.0 0.0 0.0

-1.1183348563383594e7 7.045958634290934e6 0.0
7.045958634290934e6 1.774969927781184e7 0.0
0.0 0.0 0.0

4.473784109461766e6 2.079660428904714e7 0.0
2.079660428904714e7 1.7421436160131007e7 0.0
0.0 0.0 0.0

-5.502993077512443e6 2.426073843416148e7 0.0
2.426073843416148e7 9.660975865417551e6 0.0
0.0 0.0 0.0

-4.216003275815098e6 3.046684696243484e7 0.0
3.046684696243484e7 3.4020162123354804e6 0.0
0.0 0.0 0.0

-333106.84614767507 2.023534256669662e7 0.0
2.023534256669662e7 1.1979486628045022e7 0.0
0.0 0.0 0.0

-6.682430299104551e6 4.1506525990651054e6 0.0
4.1506525990651054e6 1.1748264375128355e7 0.0
0.0 0.0 0.0

-8.79760882478892e6 1.0907225792208819e7 0.0
1.0907225792208819e7 4.0030208854849674e7 0.0
0.0 0.0 0.0

339148.2182788979 2.0082953242156208e7 0.0
2.0082953242156208e7 -1.5522215850334479e7 0.0
0.0 0.0 0.0

-3.7064048160945475e6 1.4966878624556761e7 0.0
1.4966878624556761e7 -6.5246455987257905e7 0.0
0.0 0.0 0.0

-5.492677107704231e6 5.980846793228467e6 0.0
5.980846793228467e6 1.0041490129282357e7 0.0
0.0 0.0 0.0

-1.105195218934715e7 2.512752799800248e6 0.0
2.512752799800248e6 2.4030280850174498e7 0.0
0.0 0.0 0.0

-4.256824028994656e6 1.850271985612353e7 0.0
1.850271985612353e7 8.872734108450873e6 0.0
0.0 0.0 0.0

1.6358655638684812e6 2.7351066845122095e7 0.0
2.7351066845122095e7 -5.434224959144204e6 0.0
0.0 0.0 0.0

-4.582402245393328e6 1.6554547527634496e7 0.0
1.6554547527634496e7 -4.173093025083897e7 0.0
0.0 0.0 0.0

3.0424526642961614e6 7.747214866459149e6 0.0
7.747214866459149e6 -1.8532340061612796e7 0.0
0.0 0.0 0.0

-2.4068297948553767e6 2.9917544853173826e7 0.0
2.9917544853173826e7 3.034663882821396e6 0.0
0.0 0.0 0.0

2.6994236188133047e6 2.6754688444230534e7 0.0
2.6754688444230534e7 -6.626870886516923e6 0.0
0.0 0.0 0.0

-9.882003784960965e6 4.017499143161755e7 0.0
4.017499143161755e7 3.818301157747946e6 0.0
0.0 0.0 0.0

-3.022990876702169e6 3.0098399466533605e7 0.0
3.0098399466533605e7 3.9513120722952853e6 0.0
0.0 0.0 0.0

-2.6564875210473947e7 2.9391751261744726e7 0.0
2.9391751261744726e7 -1.0075443604150975e7 0.0
0.0 0.0 0.0

-4.368714632396222e6 2.240869830468458e7 0.0
2.240869830468458e7 -1.764330331667858e6 0.0
0.0 0.0 0.0

-3.974077333755808e6 1.48782642238291e7 0.0
1.48782642238291e7 -5.998982025379022e7 0.0
0.0 0.0 0.0

-3.5444829748646473e6 1.5156408577323293e7 0.0
1.5156408577323293e7 110225.27508864948 0.0
0.0 0.0 0.0

-8.791096983358447e6 2.7161553711175104e6 0.0
2.7161553711175104e6 4.5893695888953686e7 0.0
0.0 0.0 0.0

-7.346737623784266e6 6.469111175586231e6 0.0
6.469111175586231e6 5.336160800882479e7 0.0
0.0 0.0 0.0

1.871831883835299e6 6.673553107127949e6 0.0
6.673553107127949e6 -4.117281468358392e7 0.0
0.0 0.0 0.0

-4.824519246702142e6 2.5528642542516712e7 0.0
2.5528642542516712e7 9.347630928747367e6 0.0
0.0 0.0 0.0

-3.9476394701950066e6 1.4184310956168551e7 0.0
1.4184310956168551e7 5.158366502566677e7 0.0
0.0 0.0 0.0

-399896.93740961514 1.9088685882546876e7 0.0
1.9088685882546876e7 -1.826851925947425e7 0.0
0.0 0.0 0.0

-1.7620850118815154e6 1.6201699562103366e7 0.0
1.6201699562103366e7 4.907136170672364e7 0.0
0.0 0.0 0.0

1.199989847260117e6 2.670876243991751e7 0.0
2.670876243991751e7 -6.695494140770759e6 0.0
0.0 0.0 0.0

3.683753471631596e6 3.2328211820193868e7 0.0
3.2328211820193868e7 -3.932200404016207e6 0.0
0.0 0.0 0.0

-415014.67603318184 1.9669126756142743e7 0.0
1.9669126756142743e7 -4.658108165993787e6 0.0
0.0 0.0 0.0

-1.130145313347946e7 5.458438412616025e6 0.0
5.458438412616025e6 2.3320134610633977e7 0.0
0.0 0.0 0.0

882561.660585193 1.967123950878555e7 0.0
1.967123950878555e7 1.4857553315467002e7 0.0
0.0 0.0 0.0

-3.468875647792575e6 1.7853458818367813e7 0.0
1.7853458818367813e7 1.0016047946667124e7 0.0
0.0 0.0 0.0

2.5387580011157244e6 4.710531517311985e6 0.0
4.710531517311985e6 -3.7585540619921185e7 0.0
0.0 0.0 0.0

4.6570883970241025e6 2.316437020043921e7 0.0
2.316437020043921e7 -5.576060937635145e6 0.0
0.0 0.0 0.0

-1.4732914078179417e7 2.1991067866937812e7 0.0
2.1991067866937812e7 1.0127336058628345e6 0.0
0.0 0.0 0.0

-2.45451413217021e7 2.5250626995604374e7 0.0
2.5250626995604374e7 -7.900887384083599e6 0.0
0.0 0.0 0.0

-2.4198667646843786e6 3.048384710955553e7 0.0
3.048384710955553e7 899458.2871637647 0.0
0.0 0.0 0.0

234235.84452482592 1.3572995253872126e7 0.0
1.3572995253872126e7 -1.412135819518878e7 0.0
0.0 0.0 0.0

-6.515252804563026e6 2.212356450368301e7 0.0
2.212356450368301e7 -1.5441360787480692e6 0.0
0.0 0.0 0.0

2.2178068214147803e6 3.2479403754384145e7 0.0
3.2479403754384145e7 -1.9614291058123987e6 0.0
0.0 0.0 0.0

-2.5868958259285446e6 2.0426821359614607e7 0.0
2.0426821359614607e7 2.1167189975563064e7 0.0
0.0 0.0 0.0

-1.2546463800244937e6 2.0701114195415314e7 0.0
2.0701114195415314e7 1.1800902727329198e7 0.0
0.0 0.0 0.0

1.1835235348250782e6 1.3105305289225424e7 0.0
1.3105305289225424e7 -1.3363895296502788e7 0.0
0.0 0.0 0.0

-2.0653747858668268e6 3.452639706701228e7 0.0
3.452639706701228e7 1.6837390930962635e6 0.0
0.0 0.0 0.0

-9.99606818638599e6 2.098557179610266e6 0.0
2.098557179610266e6 3.505843427181984e7 0.0
0.0 0.0 0.0

3.3080351531613655e6 5.878491584824155e6 0.0
5.878491584824155e6 -2.933147582502819e7 0.0
0.0 0.0 0.0

586215.222928853 2.950610442019997e7 0.0
2.950610442019997e7 -2.164451473773481e6 0.0
0.0 0.0 0.0

-1.1076463903886573e6 1.8608234326710198e7 0.0
1.8608234326710198e7 -2.1890709656758327e7 0.0
0.0 0.0 0.0

-5.219027004655673e6 -32448.551010941024 0.0
-32448.551010941024 9.13248219428594e6 0.0
0.0 0.0 0.0

833688.6537674358 1.0128132624206228e7 0.0
1.0128132624206228e7 -1.3041821039933737e7 0.0
0.0 0.0 0.0

-1.05874240040505e7 2.497190339947098e7 0.0
2.497190339947098e7 -9.96307184576703e6 0.0
0.0 0.0 0.0

2.0602393391094804e6 1.2208953239352634e7 0.0
1.2208953239352634e7 -2.6618348826221857e7 0.0
0.0 0.0 0.0

1.3141653886215119e7 2.4099704236506313e7 0.0
2.4099704236506313e7 1.254549861970624e7 0.0
0.0 0.0 0.0

-4.69717486825437e6 9.232863820762359e6 0.0
9.232863820762359e6 2.8762036179347695e6 0.0
0.0 0.0 0.0

-7.7075008739445e6 4.534230190615983e6 0.0
4.534230190615983e6 7.879329845157307e6 0.0
0.0 0.0 0.0

9.734091581031155e6 3.05233274272238e7 0.0
3.05233274272238e7 -5.266486223064695e6 0.0
0.0 0.0 0.0

-9.908570561695568e6 2.510249582245801e6 0.0
2.510249582245801e6 3.413347243776941e7 0.0
0.0 0.0 0.0

942434.7699724939 1.6891723028938185e7 0.0
1.6891723028938185e7 -1.5563492222847546e7 0.0
0.0 0.0 0.0

1.4621582237392995e6 2.0015538654336326e7 0.0
2.0015538654336326e7 2.727621881654033e6 0.0
0.0 0.0 0.0

1.785011742896201e7 2.582682156011457e7 0.0
2.582682156011457e7 -2.939773122844563e6 0.0
0.0 0.0 0.0

910250.4642216116 1.7932323783665627e7 0.0
1.7932323783665627e7 -1.911657303443065e7 0.0
0.0 0.0 0.0

9.07007266638011e6 1.9624133052575503e7 0.0
1.9624133052575503e7 3.426509039743783e7 0.0
0.0 0.0 0.0

-8.622795818140829e6 2.9019797851344872e7 0.0
2.9019797851344872e7 6.377560854893688e6 0.0
0.0 0.0 0.0

-8.481262419882586e6 2.6623574827004564e6 0.0
2.6623574827004564e6 4.268055909480458e7 0.0
0.0 0.0 0.0

1.287589415215257e6 2.9598272090264652e7 0.0
2.9598272090264652e7 -2.7441915223770067e6 0.0
0.0 0.0 0.0

642915.5179557092 2.0530285251120575e7 0.0
2.0530285251120575e7 2.070933712540753e7 0.0
0.0 0.0 0.0

1.6374487946247542e6 1.166395784344468e7 0.0
1.166395784344468e7 -2.2154733066039972e7 0.0
0.0 0.0 0.0

2.7446625042669177e6 4.980422649082047e6 0.0
4.980422649082047e6 -4.218233701263187e7 0.0
0.0 0.0 0.0

-2.031689848783775e6 2.3996043391537644e7 0.0
2.3996043391537644e7 -3.0004156830195016e6 0.0
0.0 0.0 0.0

-8.438303662017956e6 1.2366367629246255e7 0.0
1.2366367629246255e7 1.7521504133514512e7 0.0
0.0 0.0 0.0

-7.114881303232752e6 1.717844938833254e7 0.0
1.717844938833254e7 3.1996167153478477e7 0.0
0.0 0.0 0.0

-1.1752179982425822e6 1.7531905981657e7 0.0
1.7531905981657e7 -2.6045576133315783e7 0.0
0.0 0.0 0.0

-3.3214505496962927e6 1.435610026704389e7 0.0
1.435610026704389e7 -5.577818336495091e7 0.0
0.0 0.0 0.0

1.7476173595498262e6 3.0274638201067854e7 0.0
3.0274638201067854e7 -2.717136507518117e6 0.0
0.0 0.0 0.0

-653946.4477399606 2.039794348975079e7 0.0
2.039794348975079e7 9.32013650390019e6 0.0
0.0 0.0 0.0

-3.8413612332774125e7 1.4683482383804152e7 0.0
1.4683482383804152e7 7.4367125193200875e6 0.0
0.0 0.0 0.0

9.896342326743195e6 2.006321959480193e7 0.0
2.006321959480193e7 3.85059227908167e7 0.0
0.0 0.0 0.0

-3.5174338389769e7 3.47605396136052e7 0.0
3.47605396136052e7 6.527053925318139e6 0.0
0.0 0.0 0.0

1.3319590249872487e6 1.1266233604477169e7 0.0
1.1266233604477169e7 -3.2291170148704514e7 0.0
0.0 0.0 0.0

8.204631757074343e6 5.800405537376733e6 0.0
5.800405537376733e6 -1.5025465553689408e6 0.0
0.0 0.0 0.0

-1.8980603586913187e7 1.14115289661148e6 0.0
1.14115289661148e6 6.5387541850853e6 0.0
0.0 0.0 0.0

-8.12576391510601e6 1.1083179329571897e7 0.0
1.1083179329571897e7 1.5609437246437766e7 0.0
0.0 0.0 0.0

-9.056127316985052e6 3.989384144866206e6 0.0
3.989384144866206e6 4.056681623369528e7 0.0
0.0 0.0 0.0

-1.049239432581174e7 4.614519724080019e6 0.0
4.614519724080019e6 3.383635386261977e7 0.0
0.0 0.0 0.0

25700.265848007053 1.9877309241886247e7 0.0
1.9877309241886247e7 -1.7380734792686388e7 0.0
0.0 0.0 0.0

-2.7126246537349187e6 1.6974663265461363e7 0.0
1.6974663265461363e7 -9.042082232196268e6 0.0
0.0 0.0 0.0

2.522968592116291e6 1.7344353928478204e7 0.0
1.7344353928478204e7 8.409895395749558e6 0.0
0.0 0.0 0.0

1.1519514577872409e6 1.9753638131370176e7 0.0
1.9753638131370176e7 -284171.7439878974 0.0
0.0 0.0 0.0

2.2652617179205655e6 3.0946699250763237e7 0.0
3.0946699250763237e7 -2.634175154867029e6 0.0
0.0 0.0 0.0

-1.076157188684915e7 1.2018425016814334e7 0.0
1.2018425016814334e7 2.2060582607551955e7 0.0
0.0 0.0 0.0

401188.74410310853 1.861198697490669e7 0.0
1.861198697490669e7 -1.790871236366079e7 0.0
0.0 0.0 0.0

-2.8334163420606065e6 2.6051611271056164e7 0.0
2.6051611271056164e7 3.0950564929463156e6 0.0
0.0 0.0 0.0

1.3972135593768172e6 9.127511167744117e6 0.0
9.127511167744117e6 -3.8049282827555984e7 0.0
0.0 0.0 0.0

-9.61582026177767e6 3.394606192658616e6 0.0
3.394606192658616e6 3.64562010946332e7 0.0
0.0 0.0 0.0

1.500305829688134e6 2.8876277256409664e7 0.0
2.8876277256409664e7 -3.661942627831427e6 0.0
0.0 0.0 0.0

-1.0262848687848323e6 2.0451145865835592e7 0.0
2.0451145865835592e7 6.625390263095112e6 0.0
0.0 0.0 0.0

-1.4477877758049627e6 2.0648636733941894e7 0.0
2.0648636733941894e7 3.965494991911168e6 0.0
0.0 0.0 0.0

-7.181280018441612e6 2.407604491881774e7 0.0
2.407604491881774e7 -1.2335795755328387e7 0.0
0.0 0.0 0.0

7.085873624192512e6 1.6993887207208876e7 0.0
1.6993887207208876e7 2.5256194381552648e7 0.0
0.0 0.0 0.0

-8.163277927864304e6 2.3071242720113628e7 0.0
2.3071242720113628e7 -1.0347874933507193e7 0.0
0.0 0.0 0.0

-6.184428457415113e6 1.4975233821860248e7 0.0
1.4975233821860248e7 4.003873302119954e7 0.0
0.0 0.0 0.0

-9.078142203820758e6 2.580492351244867e6 0.0
2.580492351244867e6 4.246712547082344e7 0.0
0.0 0.0 0.0

2.327959090058144e6 1.119744157796615e7 0.0
1.119744157796615e7 -2.138248635873236e7 0.0
0.0 0.0 0.0

1.8721736330356468e6 5.801268860121256e6 0.0
5.801268860121256e6 -4.3226277697923705e7 0.0
0.0 0.0 0.0

923529.1240478633 1.9124258830275893e7 0.0
1.9124258830275893e7 -1.6541256371409167e7 0.0
0.0 0.0 0.0

8.044866326386863e6 2.309109629506386e7 0.0
2.309109629506386e7 1.0314130767604861e7 0.0
0.0 0.0 0.0

2.517310641105488e6 6.954896389522025e6 0.0
6.954896389522025e6 -1.980763152657724e7 0.0
0.0 0.0 0.0

-7.642477334042845e6 1.808710184922001e7 0.0
1.808710184922001e7 -3.2546147433444563e7 0.0
0.0 0.0 0.0

-2.785923440820528e6 1.4038872013699917e7 0.0
1.4038872013699917e7 -5.18286323081608e7 0.0
0.0 0.0 0.0

-4.1328126239978564e6 1.7581020436881308e7 0.0
1.7581020436881308e7 6.162364906444189e6 0.0
0.0 0.0 0.0

-6.303488673603037e6 2.590668512050028e7 0.0
2.590668512050028e7 8.860447711584158e6 0.0
0.0 0.0 0.0

-1.0802055174081737e7 2.3911075829774e7 0.0
2.3911075829774e7 -1.0852808772461157e7 0.0
0.0 0.0 0.0

-7.312999668172266e6 3.421257434131417e6 0.0
3.421257434131417e6 5.246491116652584e7 0.0
0.0 0.0 0.0

-2.2395715547714382e6 1.3901157702173993e7 0.0
1.3901157702173993e7 -4.841635487183375e7 0.0
0.0 0.0 0.0

-5.888007885273848e6 1.4282693645794725e7 0.0
1.4282693645794725e7 4.289162996345125e7 0.0
0.0 0.0 0.0

-2.0352182699077087e6 2.0830847170393858e7 0.0
2.0830847170393858e7 1.288069665781751e6 0.0
0.0 0.0 0.0

975690.9233287903 3.058236865451672e7 0.0
3.058236865451672e7 -3.20445385396259e6 0.0
0.0 0.0 0.0

-1.3777826133268673e7 2.851369232340064e7 0.0
2.851369232340064e7 5.017563585882192e6 0.0
0.0 0.0 0.0

-7.981937060875932e6 1.6388779445844332e7 0.0
1.6388779445844332e7 3.1647928906776454e7 0.0
0.0 0.0 0.0

-5.247957261879106e6 1.5813217859632373e7 0.0
1.5813217859632373e7 -1.8217191761314936e7 0.0
0.0 0.0 0.0

4.650601717563718e6 1.8260653246552113e7 0.0
1.8260653246552113e7 1.5584183331200965e7 0.0
0.0 0.0 0.0

1.7386229007911421e6 7.339882187920174e6 0.0
7.339882187920174e6 -3.936153317693757e7 0.0
0.0 0.0 0.0

1.2865396119129714e6 9.405008324922405e6 0.0
9.405008324922405e6 -1.4274892852581073e7 0.0
0.0 0.0 0.0

-7.921502562070295e6 1.2035808010376273e7 0.0
1.2035808010376273e7 4.1422795067954406e7 0.0
0.0 0.0 0.0

-3.3164807940497184e6 2.240521264675295e7 0.0
2.240521264675295e7 1.2489566382310309e7 0.0
0.0 0.0 0.0

-3.442492775872894e7 2.9147292605900444e7 0.0
2.9147292605900444e7 831735.3498392664 0.0
0.0 0.0 0.0

-556814.9304011539 1.5796124761330385e7 0.0
1.5796124761330385e7 -2.8646463171173103e7 0.0
0.0 0.0 0.0

1.0097546703548022e6 1.0686629090398867e7 0.0
1.0686629090398867e7 -3.660774543585569e7 0.0
0.0 0.0 0.0

-1.6956614941603914e6 1.3906870935933143e7 0.0
1.3906870935933143e7 -4.523685470277772e7 0.0
0.0 0.0 0.0

2.717312156796891e6 4.379714419466829e6 0.0
4.379714419466829e6 -1.0475928412568573e7 0.0
0.0 0.0 0.0

517497.2756313463 2.1303361051306933e7 0.0
2.1303361051306933e7 -1.1669060090405528e7 0.0
0.0 0.0 0.0

2.1571278819766855e6 2.30456314762795e7 0.0
2.30456314762795e7 -9.471883862500025e6 0.0
0.0 0.0 0.0

-2.1145578611797262e7 3.8192790031757884e7 0.0
3.8192790031757884e7 6.828436284298685e6 0.0
0.0 0.0 0.0

1.534518632031321e6 4.472592516328492e6 0.0
4.472592516328492e6 -5.701888487531575e6 0.0
0.0 0.0 0.0

-694284.1377161713 1.899874603221217e7 0.0
1.899874603221217e7 -2.0250241236700032e7 0.0
0.0 0.0 0.0

-6.526681407447793e6 1.858946927438265e7 0.0
1.858946927438265e7 2.694189304753129e7 0.0
0.0 0.0 0.0

-1.0227209451872101e7 3.368657602323944e6 0.0
3.368657602323944e6 3.015516863076795e7 0.0
0.0 0.0 0.0

2.4356194164305404e6 5.3827999908132665e6 0.0
5.3827999908132665e6 -3.600048767343782e7 0.0
0.0 0.0 0.0

-1.0727950510115169e7 6.161025802925222e6 0.0
6.161025802925222e6 2.9626352660666574e7 0.0
0.0 0.0 0.0

-9.882175949623736e6 6.103707467621703e6 0.0
6.103707467621703e6 3.554786556726697e7 0.0
0.0 0.0 0.0

-9.64343506513704e6 1.1258924126631623e7 0.0
1.1258924126631623e7 1.9069026105563e7 0.0
0.0 0.0 0.0

-4.427755949155351e6 2.384397032253241e7 0.0
2.384397032253241e7 1.2439820445712887e7 0.0
0.0 0.0 0.0

-2.2836372291944027e6 1.3250102246550076e7 0.0
1.3250102246550076e7 992147.1429563274 0.0
0.0 0.0 0.0

2.2703555791036062e7 6.076664050373008e6 0.0
6.076664050373008e6 -2.2874647357018143e6 0.0
0.0 0.0 0.0

-3.483450246735043e7 3.1029634366208324e6 0.0
3.1029634366208324e6 6.688784811844831e6 0.0
0.0 0.0 0.0

2.609687282184683e6 8.713965847020354e6 0.0
8.713965847020354e6 -1.5329026224273732e7 0.0
0.0 0.0 0.0

1.7973474086810127e6 1.023690005929733e7 0.0
1.023690005929733e7 -3.592801028995937e7 0.0
0.0 0.0 0.0

2.234366599848833e6 8.517985316955782e6 0.0
8.517985316955782e6 -3.712918301822417e7 0.0
0.0 0.0 0.0

544386.6624147508 2.118998012281696e6 0.0
2.118998012281696e6 1.8526847533211925e6 0.0
0.0 0.0 0.0

-4.336241166737277e6 -1.0178803811222287e6 0.0
-1.0178803811222287e6 3.9053174404526744e6 0.0
0.0 0.0 0.0

-5.1378139056430645e6 1.821460229213367e7 0.0
1.821460229213367e7 -2.9202751830926035e7 0.0
0.0 0.0 0.0

2.0917271683325656e6 5.7556911363891205e6 0.0
5.7556911363891205e6 -4.052226403656808e7 0.0
0.0 0.0 0.0

-2.816420187062945e7 2.66998651197114e7 0.0
2.66998651197114e7 -1.1391423831548844e7 0.0
0.0 0.0 0.0

-5.003981348325056e6 2.108268810756731e7 0.0
2.108268810756731e7 1.740621983049306e7 0.0
0.0 0.0 0.0

1.612166011581813e6 2.8121915479944196e7 0.0
2.8121915479944196e7 -4.529443475726856e6 0.0
0.0 0.0 0.0

6.15774861206298e6 1.6831016456008434e7 0.0
1.6831016456008434e7 2.2088992887856323e7 0.0
0.0 0.0 0.0

1.3257910740858627e7 1.1688214373999704e7 0.0
1.1688214373999704e7 1.4174365698687541e6 0.0
0.0 0.0 0.0

-1.3658263100434802e7 2.645123159150931e7 0.0
2.645123159150931e7 -1.1171948325472385e7 0.0
0.0 0.0 0.0

-8.266172707603235e6 6.48446015387038e6 0.0
6.48446015387038e6 4.570551106563323e7 0.0
0.0 0.0 0.0

-6.052450829232721e6 2.5062670135515563e7 0.0
2.5062670135515563e7 9.306755713776452e6 0.0
0.0 0.0 0.0

2.817291172300583e6 2.317639579917764e7 0.0
2.317639579917764e7 -8.203535448290889e6 0.0
0.0 0.0 0.0

-6.2555859134869445e6 1.9028985846285474e7 0.0
1.9028985846285474e7 2.559459869542005e7 0.0
0.0 0.0 0.0

-9.422236457701294e6 -443893.37296435883 0.0
-443893.37296435883 3.0053912018922962e7 0.0
0.0 0.0 0.0

159354.68236936466 2.9208938637352254e7 0.0
2.9208938637352254e7 -3.3517108509594114e6 0.0
0.0 0.0 0.0

1.35109588150784e6 1.05633380378833e7 0.0
1.05633380378833e7 -3.422541489662593e7 0.0
0.0 0.0 0.0

3.5081524070403343e6 2.7213646371485204e7 0.0
2.7213646371485204e7 -6.387995584550909e6 0.0
0.0 0.0 0.0

2.599086336945208e6 6.871172241702245e6 0.0
6.871172241702245e6 -3.861561961111478e7 0.0
0.0 0.0 0.0

6.109601980835215e6 1.9117101793882295e7 0.0
1.9117101793882295e7 1.882944695126087e7 0.0
0.0 0.0 0.0

-511842.64305309486 2.195887675765213e7 0.0
2.195887675765213e7 -1.0164653163263991e7 0.0
0.0 0.0 0.0

-1.1355782223994637e7 3.1174925098170475e6 0.0
3.1174925098170475e6 1.7997622934736174e7 0.0
0.0 0.0 0.0

-2.866602489759354e6 1.6793364558700256e7 0.0
1.6793364558700256e7 -9.351986284406722e6 0.0
0.0 0.0 0.0

2.923345389060719e6 5.024928225087645e6 0.0
5.024928225087645e6 -3.940285992200956e7 0.0
0.0 0.0 0.0

1.4857467147362094e7 2.7318500739382382e7 0.0
2.7318500739382382e7 -4.313874838011346e6 0.0
0.0 0.0 0.0

2.2382492803630047e6 7.753088530646789e6 0.0
7.753088530646789e6 -1.859475245239041e7 0.0
0.0 0.0 0.0

-1.2192739584534995e7 7.770553563508759e6 0.0
7.770553563508759e6 2.195148653681252e7 0.0
0.0 0.0 0.0

-3.4080583737144233e6 2.8970330030936696e7 0.0
2.8970330030936696e7 3.2462585533126015e6 0.0
0.0 0.0 0.0

-1.4712842362969462e6 1.3937551509368947e7 0.0
1.3937551509368947e7 -4.217224313058373e7 0.0
0.0 0.0 0.0

-4.879728900292575e6 1.6903214516090285e7 0.0
1.6903214516090285e7 -1.6265762951335112e7 0.0
0.0 0.0 0.0

4.356154027817685e6 1.743355237513287e7 0.0
1.743355237513287e7 1.4520513775887914e7 0.0
0.0 0.0 0.0

-2.7434605445835544e6 1.3945507063142791e7 0.0
1.3945507063142791e7 2.7037859501530975e6 0.0
0.0 0.0 0.0

-5.380441692620913e6 1.6095374967040282e7 0.0
1.6095374967040282e7 9.634823970207397e6 0.0
0.0 0.0 0.0

2.5751288755761166e6 1.982642076072237e7 0.0
1.982642076072237e7 1.998586198024009e7 0.0
0.0 0.0 0.0

-1.0021341623615762e7 1.03805606134942e6 0.0
1.03805606134942e6 2.6269926336544834e7 0.0
0.0 0.0 0.0

2.1980408903617077e6 2.1592446173039082e7 0.0
2.1592446173039082e7 5.174263797983301e6 0.0
0.0 0.0 0.0

-3.9445606071388945e6 2.3198110592680227e7 0.0
2.3198110592680227e7 1.3045231909265177e7 0.0
0.0 0.0 0.0

2.0347394613596303e6 7.944779422179955e6 0.0
7.944779422179955e6 -1.6539955850215347e7 0.0
0.0 0.0 0.0

-1.131936700367847e7 4.634018724077065e6 0.0
4.634018724077065e6 2.7591495413648963e7 0.0
0.0 0.0 0.0

-6.656819212255104e6 2.2594839883327387e7 0.0
2.2594839883327387e7 -8.643363208125114e6 0.0
0.0 0.0 0.0

-6.649599018053094e6 1.9425281072885584e7 0.0
1.9425281072885584e7 2.4270082301719416e7 0.0
0.0 0.0 0.0

-25982.464827429503 2.0639587450807597e7 0.0
2.0639587450807597e7 1.6705446467199877e7 0.0
0.0 0.0 0.0

-1.0944631260484872e7 8.92309154382236e6 0.0
8.92309154382236e6 2.905724037254335e7 0.0
0.0 0.0 0.0

2.120458099068864e6 2.268939119951587e7 0.0
2.268939119951587e7 -1.0412637680352401e7 0.0
0.0 0.0 0.0

-6.075345331803894e6 2.8205578098236643e7 0.0
2.8205578098236643e7 7.038535817544417e6 0.0
0.0 0.0 0.0

-8.561412512990154e6 1.0318637207174124e7 0.0
1.0318637207174124e7 4.097703688410999e7 0.0
0.0 0.0 0.0

-9.407023310110383e6 1.334544392537677e7 0.0
1.334544392537677e7 1.5605536065399546e7 0.0
0.0 0.0 0.0

-9.462099549891137e6 3.9609041350168893e6 0.0
3.9609041350168893e6 3.998732137111938e7 0.0
0.0 0.0 0.0

447511.49533664994 1.8027722331182e7 0.0
1.8027722331182e7 -1.9267790218730655e7 0.0
0.0 0.0 0.0

-5.453535081889724e6 2.524265743254761e7 0.0
2.524265743254761e7 1.0087218053038865e7 0.0
0.0 0.0 0.0

-2.666238296255e6 2.102322087581709e7 0.0
2.102322087581709e7 -1.3057490101072076e6 0.0
0.0 0.0 0.0

2.866404767122795e6 8.84471461890529e6 0.0
8.84471461890529e6 -2.0206519658116207e7 0.0
0.0 0.0 0.0

-9.306454438664263e6 411234.96044490486 0.0
411234.96044490486 3.342288827781103e7 0.0
0.0 0.0 0.0

-2.6863211987559423e6 1.6501233018095566e7 0.0
1.6501233018095566e7 4.54247960306494e7 0.0
0.0 0.0 0.0

-6.594221150767777e6 1.3046725905321427e7 0.0
1.3046725905321427e7 4.428215488424432e7 0.0
0.0 0.0 0.0

2.0455006301451197e6 2.0206687378331456e7 0.0
2.0206687378331456e7 1.1498532868413564e7 0.0
0.0 0.0 0.0

-1.165566577045833e7 7.421630098945219e6 0.0
7.421630098945219e6 2.7043666038494527e7 0.0
0.0 0.0 0.0

-4.378004290313482e6 1.540299501419213e7 0.0
1.540299501419213e7 1.0898810375856478e7 0.0
0.0 0.0 0.0

-969307.9054601784 2.084517029889101e7 0.0
2.084517029889101e7 -6.3611933718220135e6 0.0
0.0 0.0 0.0

387488.4374364354 1.6279153378146907e7 0.0
1.6279153378146907e7 -1.6535377423352722e7 0.0
0.0 0.0 0.0

-3.988694203760109e6 2.320501291407122e7 0.0
2.320501291407122e7 1.4261810123678248e7 0.0
0.0 0.0 0.0

-4.584549255601671e6 3.224756013218883e7 0.0
3.224756013218883e7 4.2722960895955125e6 0.0
0.0 0.0 0.0

-9.139413639234751e6 1.3846477294365939e7 0.0
1.3846477294365939e7 3.373260029874151e7 0.0
0.0 0.0 0.0

8.929201615535708e6 1.7345776236818753e7 0.0
1.7345776236818753e7 3.2311906687957842e7 0.0
0.0 0.0 0.0

-54688.453924722504 2.072039939151885e7 0.0
2.072039939151885e7 -9.297681765282122e6 0.0
0.0 0.0 0.0

2.243040925416069e6 1.1610517115946522e7 0.0
1.1610517115946522e7 -2.614548767012872e7 0.0
0.0 0.0 0.0

2.6396491512902062e6 3.0102980057047866e6 0.0
3.0102980057047866e6 -4.244552369407342e7 0.0
0.0 0.0 0.0

-9.171829565983474e6 670392.6147084634 0.0
670392.6147084634 3.732859038050911e7 0.0
0.0 0.0 0.0

-3.486892361940924e6 2.315440342848505e7 0.0
2.315440342848505e7 1.3035829073487734e7 0.0
0.0 0.0 0.0

-1.6422472614363162e6 1.7029045548497118e7 0.0
1.7029045548497118e7 1.6572897596814545e7 0.0
0.0 0.0 0.0

1.4271227777309716e6 1.7022412136983946e7 0.0
1.7022412136983946e7 6.5528017619457565e7 0.0
0.0 0.0 0.0

166530.04514750745 1.5475154718714707e7 0.0
1.5475154718714707e7 -1.526936631758108e7 0.0
0.0 0.0 0.0

7.1245523773004e6 1.7856445119768087e7 0.0
1.7856445119768087e7 2.374850842600976e7 0.0
0.0 0.0 0.0

-1.0437159489907341e7 750352.7419500485 0.0
750352.7419500485 2.7738898391975917e7 0.0
0.0 0.0 0.0

-2.344572483352944e7 1.7245742791150704e6 0.0
1.7245742791150704e6 8.099008520019371e6 0.0
0.0 0.0 0.0

1.8168074576527756e6 9.892996535542347e6 0.0
9.892996535542347e6 -3.1196644034187276e7 0.0
0.0 0.0 0.0

-1.1759514007561255e7 5.318195367417639e6 0.0
5.318195367417639e6 2.3915680543580875e7 0.0
0.0 0.0 0.0

1.0153098288872745e6 1.1323985133038195e7 0.0
1.1323985133038195e7 -3.460187625291662e7 0.0
0.0 0.0 0.0

-5.971051771858789e6 1.7245507887600966e7 0.0
1.7245507887600966e7 3.353320466539564e7 0.0
0.0 0.0 0.0

3.642919641688671e6 3.443727032520334e6 0.0
3.443727032520334e6 -2.660936823656793e7 0.0
0.0 0.0 0.0

1.2049721035763016e7 2.8317518724796146e7 0.0
2.8317518724796146e7 -4.9141911743295975e6 0.0
0.0 0.0 0.0

-2.107773522309077e6 1.5166702073846059e7 0.0
1.5166702073846059e7 -447347.16581714933 0.0
0.0 0.0 0.0

934977.0646452813 6.831948335034577e6 0.0
6.831948335034577e6 -4.1834793531544274e6 0.0
0.0 0.0 0.0

3.234687124836656e7 6.218041949341178e6 0.0
6.218041949341178e6 -1.8575872888984084e6 0.0
0.0 0.0 0.0

-4.342652339328112e6 1.768998529513216e7 0.0
1.768998529513216e7 3.441256078101117e7 0.0
0.0 0.0 0.0

-1.1879682295772736e6 1.1087060022342768e7 0.0
1.1087060022342768e7 -6.286535319032651e6 0.0
0.0 0.0 0.0

-1.0136844470190108e7 5.363276820679575e6 0.0
5.363276820679575e6 3.751408505599132e7 0.0
0.0 0.0 0.0

1.8515266210137014e6 5.632326350891629e6 0.0
5.632326350891629e6 -1.0272882395117603e7 0.0
0.0 0.0 0.0

-5.830520789226012e6 2.2163488262010407e7 0.0
2.2163488262010407e7 -6.42203968463753e6 0.0
0.0 0.0 0.0

-3.94372363247688e6 2.1181900161677092e7 0.0
2.1181900161677092e7 1.748461505820154e7 0.0
0.0 0.0 0.0

-1.13652230099801e7 9.303720662249463e6 0.0
9.303720662249463e6 2.3970859309669856e7 0.0
0.0 0.0 0.0

2.0577984130855817e6 8.450262219141021e6 0.0
8.450262219141021e6 -3.217867005901133e7 0.0
0.0 0.0 0.0

-6.503149760438612e6 1.6817052759174958e7 0.0
1.6817052759174958e7 -3.9716422395928e7 0.0
0.0 0.0 0.0

-7.68847037866052e6 7.053849214825117e6 0.0
7.053849214825117e6 8.276857238124406e6 0.0
0.0 0.0 0.0

3.204783730348869e6 3.693963049480432e6 0.0
3.693963049480432e6 -2.4328329616590463e7 0.0
0.0 0.0 0.0

-201380.36069589853 1.883146900236806e7 0.0
1.883146900236806e7 -1.409898402923306e7 0.0
0.0 0.0 0.0

2.0279744801725578e7 2.2847155843017694e7 0.0
2.2847155843017694e7 7.352504393348485e6 0.0
0.0 0.0 0.0

2.540705531816963e6 6.017646119151292e6 0.0
6.017646119151292e6 -4.297440875266961e7 0.0
0.0 0.0 0.0

-1.3322567098225098e7 92639.83285451465 0.0
92639.83285451465 6.616071721911327e6 0.0
0.0 0.0 0.0

-5.751708082616724e6 1.958037911222033e7 0.0
1.958037911222033e7 2.249126914254502e7 0.0
0.0 0.0 0.0

-2.2473867242374835e6 9.486600630266465e6 0.0
9.486600630266465e6 2.4364506828949284e6 0.0
0.0 0.0 0.0

-1.1261747369497411e7 8.450409997683363e6 0.0
8.450409997683363e6 2.612999702582288e7 0.0
0.0 0.0 0.0

2.0461335529525448e6 6.446017129498537e6 0.0
6.446017129498537e6 -4.9645132276472546e7 0.0
0.0 0.0 0.0

1.0357672043062797e7 1.8661831146248456e7 0.0
1.8661831146248456e7 3.452557405107409e7 0.0
0.0 0.0 0.0

9.862575873526206e6 2.3910690014239505e7 0.0
2.3910690014239505e7 1.2635855762087122e7 0.0
0.0 0.0 0.0

-5.595649772087287e6 1.8331687154678136e7 0.0
1.8331687154678136e7 -2.3716829020350534e7 0.0
0.0 0.0 0.0

-153207.83610203443 1.4206227767790252e7 0.0
1.4206227767790252e7 -1.290669439834831e7 0.0
0.0 0.0 0.0

-3.570922786119421e6 2.1936654585623063e7 0.0
2.1936654585623063e7 1.6210121512986096e7 0.0
0.0 0.0 0.0

1.0452964119945971e7 2.1662213334122952e7 0.0
2.1662213334122952e7 611251.9745050864 0.0
0.0 0.0 0.0

1.519850300895935e6 1.1244696258651992e7 0.0
1.1244696258651992e7 -3.0152558744829327e7 0.0
0.0 0.0 0.0

1.3947464322076032e6 3.1276485544067778e7 0.0
3.1276485544067778e7 -3.152102713286788e6 0.0
0.0 0.0 0.0

-74906.54943744233 1.8805483534127295e7 0.0
1.8805483534127295e7 4.24499003801219e6 0.0
0.0 0.0 0.0

-7.044595767522405e7 6.255368952359598e6 0.0
6.255368952359598e6 3.9690593956879377e6 0.0
0.0 0.0 0.0

5.793704351792969e7 7.501158762808491e6 0.0
7.501158762808491e6 -540914.7693176232 0.0
0.0 0.0 0.0

4.402686648015623e6 2.182589126029182e7 0.0
2.182589126029182e7 9.26907602279046e6 0.0
0.0 0.0 0.0

-4.890343981879242e6 8.39874598902206e6 0.0
8.39874598902206e6 2.8102973768642653e7 0.0
0.0 0.0 0.0

1.0893004259175872e6 2.0240444856175963e7 0.0
2.0240444856175963e7 1.6897729424774103e7 0.0
0.0 0.0 0.0

2.40796762626449e6 2.5958923861864083e7 0.0
2.5958923861864083e7 -7.654810068743346e6 0.0
0.0 0.0 0.0

5.068801488327912e6 2.0246560431455728e7 0.0
2.0246560431455728e7 1.689600565271253e7 0.0
0.0 0.0 0.0

-1.1325692758302128e7 8.267574626517145e6 0.0
8.267574626517145e6 2.3228322425668016e7 0.0
0.0 0.0 0.0

-2.917321605914221e6 2.1634382101488613e7 0.0
2.1634382101488613e7 1.097306364606768e7 0.0
0.0 0.0 0.0

-4.7726403274515994e7 3.608739022277004e7 0.0
3.608739022277004e7 -9.510514288252022e6 0.0
0.0 0.0 0.0

2.869812633488251e6 4.2605162356390925e6 0.0
4.2605162356390925e6 -3.0220875056524098e7 0.0
0.0 0.0 0.0

-3.332558314581977e6 2.1292494672525294e7 0.0
2.1292494672525294e7 -3.7745552696868256e6 0.0
0.0 0.0 0.0

9.678956713331154e6 1.7571448944730897e7 0.0
1.7571448944730897e7 3.64923472839018e7 0.0
0.0 0.0 0.0

-7.075204004529757e6 1.697537502127923e7 0.0
1.697537502127923e7 -2.3584013417968858e7 0.0
0.0 0.0 0.0

6.196388096838989e6 1.7644713284127694e7 0.0
1.7644713284127694e7 2.0654627764202368e7 0.0
0.0 0.0 0.0

-1.0785500154795572e6 1.4230248081223957e7 0.0
1.4230248081223957e7 -3.9667229164614044e7 0.0
0.0 0.0 0.0

-1.0004311627919806e7 2.0955553935132658e6 0.0
2.0955553935132658e6 2.9445288488179937e7 0.0
0.0 0.0 0.0

-1.818439687859255e7 3.1236154867767837e7 0.0
3.1236154867767837e7 5.983459737643712e6 0.0
0.0 0.0 0.0

2.166863536412266e6 8.334249610685151e6 0.0
8.334249610685151e6 -1.946295115245749e7 0.0
0.0 0.0 0.0

-4.498068637275979e6 1.8096183820245247e7 0.0
1.8096183820245247e7 3.2514464622880686e7 0.0
0.0 0.0 0.0

-1.1974415836621128e7 5.550492715867705e6 0.0
5.550492715867705e6 1.988408622228033e7 0.0
0.0 0.0 0.0

-5.101893955400811e6 3.141289023032111e7 0.0
3.141289023032111e7 4.91458386259284e6 0.0
0.0 0.0 0.0

-1.1842912132544674e7 3.561553007772323e7 0.0
3.561553007772323e7 5.855151197660832e6 0.0
0.0 0.0 0.0

-1.2763543575008577e7 -111121.29772835993 0.0
-111121.29772835993 6.928988936062994e6 0.0
0.0 0.0 0.0

-3.1433279318448594e6 1.78980721339529e7 0.0
1.78980721339529e7 -1.1421877677036256e7 0.0
0.0 0.0 0.0

1.8334514584802496e6 2.5339210714102708e7 0.0
2.5339210714102708e7 -7.907702849164773e6 0.0
0.0 0.0 0.0

-9.45973546340051e6 3.0197733075277265e6 0.0
3.0197733075277265e6 1.1227322408229794e7 0.0
0.0 0.0 0.0

9.536246991282545e6 2.888339681349824e7 0.0
2.888339681349824e7 -5.282404527302867e6 0.0
0.0 0.0 0.0

-1.2159113140009481e7 6.707216151267251e6 0.0
6.707216151267251e6 2.1015880301810376e7 0.0
0.0 0.0 0.0

2.5830757302701063e6 4.676565593859406e6 0.0
4.676565593859406e6 -3.535388713225482e7 0.0
0.0 0.0 0.0

2.651782286587078e6 5.629034281124064e6 0.0
5.629034281124064e6 -3.1603818135050412e7 0.0
0.0 0.0 0.0

679703.5226763422 1.391631975628105e7 0.0
1.391631975628105e7 -1.684090845627325e7 0.0
0.0 0.0 0.0

1.7139155951224165e6 2.2561190315372705e7 0.0
2.2561190315372705e7 -1.130630585236751e7 0.0
0.0 0.0 0.0

2.046806759127587e6 5.735949944231551e6 0.0
5.735949944231551e6 -5.264526845003541e7 0.0
0.0 0.0 0.0

-6.759610114702385e6 2.3403029942721944e7 0.0
2.3403029942721944e7 -1.2913120738176025e7 0.0
0.0 0.0 0.0

628733.5059431214 1.5931704088677296e7 0.0
1.5931704088677296e7 -2.3452288658578485e7 0.0
0.0 0.0 0.0

-7.739329895159941e6 1.844554176659107e7 0.0
1.844554176659107e7 2.5569639138502855e7 0.0
0.0 0.0 0.0

-6.071439800609885e6 2.306484769389063e7 0.0
2.306484769389063e7 -1.165734093098957e7 0.0
0.0 0.0 0.0

2.238774908843154e6 1.0861225378758088e7 0.0
1.0861225378758088e7 -2.9552308867322437e7 0.0
0.0 0.0 0.0

-3.240967886065655e7 2.4563994775414366e7 0.0
2.4563994775414366e7 4.626287732673781e6 0.0
0.0 0.0 0.0

2.5880512429907545e6 3.847101296166498e6 0.0
3.847101296166498e6 -3.695565780209111e7 0.0
0.0 0.0 0.0

3.2283576277661994e6 5.755268838095731e6 0.0
5.755268838095731e6 -3.148936282454327e7 0.0
0.0 0.0 0.0

884236.7621614141 2.0567142842357647e7 0.0
2.0567142842357647e7 -1.4492554317901326e7 0.0
0.0 0.0 0.0

-1.7303157223932665e7 171174.99908493325 0.0
171174.99908493325 8.1560607563978555e6 0.0
0.0 0.0 0.0

1.506147073192148e6 1.0895702576043632e7 0.0
1.0895702576043632e7 -1.1847495181779016e7 0.0
0.0 0.0 0.0

-416877.9718071008 1.8354247540171497e7 0.0
1.8354247540171497e7 2.1088549586607922e7 0.0
0.0 0.0 0.0

-3.8195066763935005e6 3.0101838899554446e7 0.0
3.0101838899554446e7 4.810833869660903e6 0.0
0.0 0.0 0.0

-6.141462822135504e6 3.1967880486531705e7 0.0
3.1967880486531705e7 5.160609635742128e6 0.0
0.0 0.0 0.0

-1.2169453106592838e7 9.37016113059531e6 0.0
9.37016113059531e6 2.119569831918107e7 0.0
0.0 0.0 0.0

-2.156416086166717e6 1.4004028097219681e7 0.0
1.4004028097219681e7 6.1439896170145735e7 0.0
0.0 0.0 0.0

-2.5961344417289137e6 3.0665539657234464e7 0.0
3.0665539657234464e7 3.200833470216661e6 0.0
0.0 0.0 0.0

-4.26713846664214e6 2.1655844144203622e7 0.0
2.1655844144203622e7 -1.5380709055251188e6 0.0
0.0 0.0 0.0

-93037.93549980246 2.048643877131787e7 0.0
2.048643877131787e7 -4.926369043423078e6 0.0
0.0 0.0 0.0

3.718821547154131e7 2.461113766498515e7 0.0
2.461113766498515e7 1.4573557067751177e7 0.0
0.0 0.0 0.0

-1.1162166897237407e7 1.0663603922723226e7 0.0
1.0663603922723226e7 2.3082878337385852e7 0.0
0.0 0.0 0.0

3.290346603852002e6 4.113012933074783e6 0.0
4.113012933074783e6 -3.452226104900837e7 0.0
0.0 0.0 0.0

464892.47681835014 1.951959570498123e7 0.0
1.951959570498123e7 -1.300907850044979e7 0.0
0.0 0.0 0.0

-2.7308741854205187e6 1.6472666727455042e7 0.0
1.6472666727455042e7 2.69274188134712e6 0.0
0.0 0.0 0.0

-1.2986226120465102e7 2.001800564892002e7 0.0
2.001800564892002e7 1.8706669049697584e6 0.0
0.0 0.0 0.0

-9.284659014393106e6 2.0172423279240108e6 0.0
2.0172423279240108e6 3.58275273815329e7 0.0
0.0 0.0 0.0

-7.644584907923183e7 4.666994874954012e7 0.0
4.666994874954012e7 -1.6094101980957035e7 0.0
0.0 0.0 0.0

-1.0572152351253772e7 1.751238260012878e7 0.0
1.751238260012878e7 -3.524050878999556e7 0.0
0.0 0.0 0.0

9.180665518564139e6 1.830734057219704e7 0.0
1.830734057219704e7 3.060221932280745e7 0.0
0.0 0.0 0.0

685653.0988476556 1.4855376434328003e7 0.0
1.4855376434328003e7 -2.6542253319431517e7 0.0
0.0 0.0 0.0

-1.3942288411830321e7 2.4750944898483906e7 0.0
2.4750944898483906e7 -5.861128739936247e6 0.0
0.0 0.0 0.0

2.7091364346263586e6 9.08883469158339e6 0.0
9.08883469158339e6 -1.822874782792788e7 0.0
0.0 0.0 0.0

2.5382158689555116e6 9.444838000367027e6 0.0
9.444838000367027e6 -3.0495183036576916e7 0.0
0.0 0.0 0.0

-4.478755656990259e6 2.056405503844698e7 0.0
2.056405503844698e7 1.9257459719459683e7 0.0
0.0 0.0 0.0

1.4535228951507602e6 1.1904142465256186e7 0.0
1.1904142465256186e7 -2.8611818878064133e7 0.0
0.0 0.0 0.0

-4.316071020538252e6 3.076784969003967e7 0.0
3.076784969003967e7 4.863749499719526e6 0.0
0.0 0.0 0.0

-1.0852458306980332e7 7.363644040076092e6 0.0
7.363644040076092e6 3.2859389765120186e7 0.0
0.0 0.0 0.0

-9.500133864700831e6 -135026.6551513089 0.0
-135026.6551513089 2.7724839627796087e7 0.0
0.0 0.0 0.0

2.258520054879982e6 7.729965942110875e6 0.0
7.729965942110875e6 -3.1509484233026043e7 0.0
0.0 0.0 0.0

-1.276114187283684e7 2.385103257059334e7 0.0
2.385103257059334e7 -9.984780156869248e6 0.0
0.0 0.0 0.0

5.382153859855306e6 3.383602311237296e7 0.0
3.383602311237296e7 -4.1595624508408457e6 0.0
0.0 0.0 0.0

-6.8435122300042305e6 1.8776382788002945e7 0.0
1.8776382788002945e7 2.3711652893547907e7 0.0
0.0 0.0 0.0

2.390755901346933e6 6.175515905005438e6 0.0
6.175515905005438e6 -3.454531376488195e7 0.0
0.0 0.0 0.0

2.141001955638198e6 6.375153867965281e6 0.0
6.375153867965281e6 -4.60576924471712e7 0.0
0.0 0.0 0.0

-5.260904990497544e6 1.2899544102060659e7 0.0
1.2899544102060659e7 5.0063937995963104e7 0.0
0.0 0.0 0.0

-1.0335643881687405e7 7.596187521864161e6 0.0
7.596187521864161e6 3.3757034336865544e7 0.0
0.0 0.0 0.0

7.629534679680513e6 2.902940896540387e7 0.0
2.902940896540387e7 -5.476185412132691e6 0.0
0.0 0.0 0.0

-1.398166817578563e6 2.3641464484767146e7 0.0
2.3641464484767146e7 -2.4101792186193825e6 0.0
0.0 0.0 0.0

-9.422108044655155e6 5.531197138794997e6 0.0
5.531197138794997e6 3.862537455324277e7 0.0
0.0 0.0 0.0

2.9179739706175495e6 4.965172446104475e6 0.0
4.965172446104475e6 -1.917078670829464e7 0.0
0.0 0.0 0.0

-2.6408857470868644e6 2.3677552109426543e7 0.0
2.3677552109426543e7 782800.5480049667 0.0
0.0 0.0 0.0

-1.859325486070063e7 2.4653056323447987e7 0.0
2.4653056323447987e7 -8.490872552819058e6 0.0
0.0 0.0 0.0

-1.0546283299472807e7 1.1436396702790093e7 0.0
1.1436396702790093e7 1.6112401262873892e7 0.0
0.0 0.0 0.0

3.089499377122462e6 5.63085313364058e6 0.0
5.63085313364058e6 -3.3728681573622e7 0.0
0.0 0.0 0.0

1.508261814016873e6 1.1931345942600233e7 0.0
1.1931345942600233e7 -2.66665918150945e7 0.0
0.0 0.0 0.0

-1.0992369473596446e7 1.220981525074719e6 0.0
1.220981525074719e6 1.8812710545265023e7 0.0
0.0 0.0 0.0

-1.0997688616032965e7 1.0458227688232098e7 0.0
1.0458227688232098e7 2.7785157103483316e7 0.0
0.0 0.0 0.0

-932181.9290526826 1.4479412994786005e7 0.0
1.4479412994786005e7 -3.695961899036531e7 0.0
0.0 0.0 0.0

3.3472846915024817e6 5.079539862357523e6 0.0
5.079539862357523e6 -3.0792166519282404e7 0.0
0.0 0.0 0.0

-1.93780051773385e6 2.339940635116032e7 0.0
2.339940635116032e7 -4.1431942535200613e6 0.0
0.0 0.0 0.0

2.8412196935984045e6 7.950227668494791e6 0.0
7.950227668494791e6 -3.139230470296506e7 0.0
0.0 0.0 0.0

-1.0388294763575621e7 3.029962260496724e6 0.0
3.029962260496724e6 2.1283672890859667e7 0.0
0.0 0.0 0.0

-1.5262203050464744e7 1.9227344130136043e7 0.0
1.9227344130136043e7 -5.0874013401881285e7 0.0
0.0 0.0 0.0

1.3526621620947696e7 1.9936326276382294e7 0.0
1.9936326276382294e7 4.50887411811109e7 0.0
0.0 0.0 0.0

772457.2948246886 2.0808825049529996e7 0.0
2.0808825049529996e7 1.242882055968387e6 0.0
0.0 0.0 0.0

-2.665548839691701e7 2.3103865155857224e6 0.0
2.3103865155857224e6 7.3488674831096865e6 0.0
0.0 0.0 0.0

-9.647330656497482e6 -75339.76225841355 0.0
-75339.76225841355 2.1102824950244285e7 0.0
0.0 0.0 0.0

6.151432280903358e6 2.0027381660616234e7 0.0
2.0027381660616234e7 2.050477129195173e7 0.0
0.0 0.0 0.0

-5.570740910959123e6 1.9115322606060293e7 0.0
1.9115322606060293e7 -1.8569133800156564e7 0.0
0.0 0.0 0.0

-1.4034507162132375e6 1.4249337492224703e7 0.0
1.4249337492224703e7 6.718075384103845e7 0.0
0.0 0.0 0.0

2.3348023282996695e6 6.980134183733482e6 0.0
6.980134183733482e6 -3.303109212488107e7 0.0
0.0 0.0 0.0

1.5625253219739255e6 2.462207139318762e7 0.0
2.462207139318762e7 -9.0691122034493e6 0.0
0.0 0.0 0.0

-7.93040366085592e6 1.71914640479575e7 0.0
1.71914640479575e7 -3.83896175502828e7 0.0
0.0 0.0 0.0

-3.9408870228358787e6 2.905201122021923e7 0.0
2.905201122021923e7 4.235123432407561e6 0.0
0.0 0.0 0.0

-4.551663078034918e6 2.3323431937447652e7 0.0
2.3323431937447652e7 8.513601637172733e6 0.0
0.0 0.0 0.0

834847.6998034522 2.9149750380777493e7 0.0
2.9149750380777493e7 -4.093794204455358e6 0.0
0.0 0.0 0.0

-1.3647402500209754e7 1.7600096843881965e7 0.0
1.7600096843881965e7 -5.344177711306781e7 0.0
0.0 0.0 0.0

6.048840044947755e6 2.897388449843621e7 0.0
2.897388449843621e7 -5.592959167804909e6 0.0
0.0 0.0 0.0

-6.562654212419705e6 1.749694479566357e7 0.0
1.749694479566357e7 3.14681985291634e7 0.0
0.0 0.0 0.0

1.8543047005029088e6 9.630997772586962e6 0.0
9.630997772586962e6 -1.9096298275370065e7 0.0
0.0 0.0 0.0

2.4922015371585507e6 6.290016706271524e6 0.0
6.290016706271524e6 -3.231836904217097e7 0.0
0.0 0.0 0.0

1.724208088762343e6 2.3501609405297015e7 0.0
2.3501609405297015e7 -1.0316842477419872e7 0.0
0.0 0.0 0.0

-2.0451482234291886e6 1.6443047380244825e7 0.0
1.6443047380244825e7 -6.4520300331674665e6 0.0
0.0 0.0 0.0

1.4318639178904407e6 9.745007188024987e6 0.0
9.745007188024987e6 -3.609115512544485e7 0.0
0.0 0.0 0.0

-3.3374108946689544e6 2.765041513524191e7 0.0
2.765041513524191e7 5.165557325947767e6 0.0
0.0 0.0 0.0

-2.259764887218085e6 1.861229042801135e7 0.0
1.861229042801135e7 -109.11045657156501 0.0
0.0 0.0 0.0

762530.6177229043 1.6163481153959217e7 0.0
1.6163481153959217e7 -1.4228122055996835e7 0.0
0.0 0.0 0.0

823753.5850088783 1.2753108633940615e7 0.0
1.2753108633940615e7 -3.470964443286808e7 0.0
0.0 0.0 0.0

3.724060540396076e6 2.837078326299658e7 0.0
2.837078326299658e7 -5.852277576243784e6 0.0
0.0 0.0 0.0

456405.71389456186 1.8214084138432037e7 0.0
1.8214084138432037e7 -1.3103260013270758e7 0.0
0.0 0.0 0.0

-2.0067873644037412e6 1.6998159128180087e7 0.0
1.6998159128180087e7 -5.91895175736613e6 0.0
0.0 0.0 0.0

2.8431605612503413e7 5.7861221997308815e6 0.0
5.7861221997308815e6 -2.2238460537449624e6 0.0
0.0 0.0 0.0

-2.884454458458033e6 1.9676849314116217e7 0.0
1.9676849314116217e7 7.929679190371568e6 0.0
0.0 0.0 0.0

-9.653865845955113e6 1.0520905476774996e7 0.0
1.0520905476774996e7 1.789049669749515e7 0.0
0.0 0.0 0.0

-9.699293366492726e6 1.7339407612378974e6 0.0
1.7339407612378974e6 3.1777531692929465e7 0.0
0.0 0.0 0.0

3.592068102751782e6 3.7237945165586616e6 0.0
3.7237945165586616e6 -2.934846417766341e7 0.0
0.0 0.0 0.0

3.088804124120619e6 6.440969154193647e6 0.0
6.440969154193647e6 -2.1754421100548577e7 0.0
0.0 0.0 0.0

3.430297123552352e6 5.2131549205437135e6 0.0
5.2131549205437135e6 -2.858343248484259e7 0.0
0.0 0.0 0.0

-4.745885510493113e6 1.871502793471755e7 0.0
1.871502793471755e7 -2.2350989092031136e7 0.0
0.0 0.0 0.0

4.777059808460861e6 2.872689520655974e7 0.0
2.872689520655974e7 -5.711929259405238e6 0.0
0.0 0.0 0.0

-6.628654830426544e6 1.779770791709589e7 0.0
1.779770791709589e7 2.9455406520885188e7 0.0
0.0 0.0 0.0

-3.5614860177729083e6 2.0238993498159353e7 0.0
2.0238993498159353e7 6.946252727326518e6 0.0
0.0 0.0 0.0

2.733441778881328e6 5.793090615813661e6 0.0
5.793090615813661e6 -2.9537832202441193e7 0.0
0.0 0.0 0.0

-1.1749623293261519e7 4.3026107657593805e6 0.0
4.3026107657593805e6 1.902459959571416e7 0.0
0.0 0.0 0.0

-7.011205732872713e6 1.8946563706025954e7 0.0
1.8946563706025954e7 2.544147942168046e7 0.0
0.0 0.0 0.0

786910.2353399349 2.0223229828332566e7 0.0
2.0223229828332566e7 -1.5604283256978584e7 0.0
0.0 0.0 0.0

1.2180829107478322e6 2.1185651201118823e7 0.0
2.1185651201118823e7 -5.814915930270042e6 0.0
0.0 0.0 0.0

-3.625341536295845e6 2.870798876188795e7 0.0
2.870798876188795e7 5.595143974306734e6 0.0
0.0 0.0 0.0

1.2065093482267e6 1.5792629832649825e7 0.0
1.5792629832649825e7 -2.325981621598579e7 0.0
0.0 0.0 0.0

3.149382619804617e6 6.556000085165158e6 0.0
6.556000085165158e6 -3.008615970939134e7 0.0
0.0 0.0 0.0

2.6085792267260235e6 6.42679838923528e6 0.0
6.42679838923528e6 -3.0202199117727146e7 0.0
0.0 0.0 0.0

1.6918881764178565e6 8.667249135573879e6 0.0
8.667249135573879e6 -1.5408661413707085e7 0.0
0.0 0.0 0.0

2.4310416209552474e6 7.05583379325853e6 0.0
7.05583379325853e6 -3.0891865903822526e7 0.0
0.0 0.0 0.0

3.5204711613036804e6 5.716677372487989e6 0.0
5.716677372487989e6 -2.5058550995521307e7 0.0
0.0 0.0 0.0

-8.008629661650874e6 3.43864645876076e7 0.0
3.43864645876076e7 5.3099342229164075e6 0.0
0.0 0.0 0.0

7.7545560444171205e6 3.056639581400767e7 0.0
3.056639581400767e7 -5.32684641644988e6 0.0
0.0 0.0 0.0

-5.167881582676621e6 2.4296524771386772e7 0.0
2.4296524771386772e7 8.553661614410674e6 0.0
0.0 0.0 0.0

2.688108139894232e6 6.327118338376239e6 0.0
6.327118338376239e6 -2.6041935491649307e7 0.0
0.0 0.0 0.0

-1.7794277495431285e6 2.025336681153386e7 0.0
2.025336681153386e7 -7.298673032171109e6 0.0
0.0 0.0 0.0

-1.292895239097619e6 1.76854237315797e7 0.0
1.76854237315797e7 -255588.08211596584 0.0
0.0 0.0 0.0

-2.0112007048263203e7 2.1602273579905026e7 0.0
2.1602273579905026e7 -6.704003844460744e7 0.0
0.0 0.0 0.0

1.911018309887209e7 2.3171926241512157e7 0.0
2.3171926241512157e7 6.3700628113926336e7 0.0
0.0 0.0 0.0

1.2564732962187959e7 2.202305649179497e7 0.0
2.202305649179497e7 719538.112698176 0.0
0.0 0.0 0.0

1.9076491237912014e7 2.3691636771139752e7 0.0
2.3691636771139752e7 534414.6557831895 0.0
0.0 0.0 0.0

402631.6990540959 6.933089238266632e6 0.0
6.933089238266632e6 -5.806927954490472e7 0.0
0.0 0.0 0.0

928651.4273015196 1.8542627231738634e7 0.0
1.8542627231738634e7 -1.7831716554405596e7 0.0
0.0 0.0 0.0

-264079.49108487647 2.0730493319500152e7 0.0
2.0730493319500152e7 1.4306613172461152e7 0.0
0.0 0.0 0.0

-1.0400083694926737e7 6.919894307966686e6 0.0
6.919894307966686e6 3.552442003496007e7 0.0
0.0 0.0 0.0

-5.7831942333346475e6 1.6763427451208543e7 0.0
1.6763427451208543e7 3.571791079357873e7 0.0
0.0 0.0 0.0

-3.06523561080537e6 2.2336233008989308e7 0.0
2.2336233008989308e7 8.310295645105955e6 0.0
0.0 0.0 0.0

-1.0064191147013322e6 1.5993003923520898e7 0.0
1.5993003923520898e7 -5.733127860693485e6 0.0
0.0 0.0 0.0

-1.3894851285596197e7 2.6812835748080898e7 0.0
2.6812835748080898e7 -1.1879542345886165e7 0.0
0.0 0.0 0.0

-3.4451234401144153e6 2.2619418741516653e7 0.0
2.2619418741516653e7 1.4602070714401402e7 0.0
0.0 0.0 0.0

-7.6676581136649195e6 1.4521936475935237e7 0.0
1.4521936475935237e7 1.4013218788469475e7 0.0
0.0 0.0 0.0

-2.725866127402323e6 2.327592424184073e7 0.0
2.327592424184073e7 5.365066667875373e6 0.0
0.0 0.0 0.0

2.424448502644688e6 6.937378307486228e6 0.0
6.937378307486228e6 -4.10626175826805e7 0.0
0.0 0.0 0.0

3.1819151976844016e6 7.531653291419883e6 0.0
7.531653291419883e6 -2.0545544498855744e7 0.0
0.0 0.0 0.0

263807.711723296 2.067132106050819e7 0.0
2.067132106050819e7 -1.381566390970849e7 0.0
0.0 0.0 0.0

1.40335942777225e6 1.2650603978379063e7 0.0
1.2650603978379063e7 -2.5334544289708376e7 0.0
0.0 0.0 0.0

-8.287159973693961e6 9.18572718134128e6 0.0
9.18572718134128e6 4.3370769293997236e7 0.0
0.0 0.0 0.0

-8.12128291762642e6 2.5018466474030656e6 0.0
2.5018466474030656e6 9.625958674584143e6 0.0
0.0 0.0 0.0

-6.133125441043511e6 8.1528931056285e6 0.0
8.1528931056285e6 5.531425847180138e7 0.0
0.0 0.0 0.0

-227600.3783280761 1.9762734780798495e7 0.0
1.9762734780798495e7 -1.3388097660293492e7 0.0
0.0 0.0 0.0

-4.65562629954852e6 2.4659364602837294e7 0.0
2.4659364602837294e7 9.804552070841746e6 0.0
0.0 0.0 0.0

-8.56776877610211e6 1.3221779608180055e7 0.0
1.3221779608180055e7 1.846976588892414e7 0.0
0.0 0.0 0.0

3.2600690920030503e6 2.633082763629986e7 0.0
2.633082763629986e7 -7.19996758320152e6 0.0
0.0 0.0 0.0

-1.0890019650567126e7 9.05835123163441e6 0.0
9.05835123163441e6 1.5849419804003617e7 0.0
0.0 0.0 0.0

-4.374116452967836e6 2.1918448706683896e7 0.0
2.1918448706683896e7 1.6186799921393102e7 0.0
0.0 0.0 0.0

2.6047532406468637e7 2.866564666691176e7 0.0
2.866564666691176e7 -5.704818282391319e6 0.0
0.0 0.0 0.0

-6.876745915593149e6 1.950087320060946e7 0.0
1.950087320060946e7 2.2315888178607106e7 0.0
0.0 0.0 0.0

-5.118733759315655e6 3.7394292961797337e6 0.0
3.7394292961797337e6 9.084143785059538e6 0.0
0.0 0.0 0.0

-3.0342525361605324e7 2.379843611743699e6 0.0
2.379843611743699e6 7.612177520979332e6 0.0
0.0 0.0 0.0

2.942227872861203e6 4.343886516624602e6 0.0
4.343886516624602e6 -3.205984660487934e7 0.0
0.0 0.0 0.0

-8.218821874574056e6 3.047418835004805e7 0.0
3.047418835004805e7 6.312936201285727e6 0.0
0.0 0.0 0.0

-1.1211579308702294e7 1.6797176599309715e6 0.0
1.6797176599309715e6 1.6595666848998383e7 0.0
0.0 0.0 0.0

-3.561085830019675e6 1.3868825992874337e7 0.0
1.3868825992874337e7 -11198.208808174124 0.0
0.0 0.0 0.0

-1.0729148966853987e7 3.02287400113418e6 0.0
3.02287400113418e6 2.9233973746155806e7 0.0
0.0 0.0 0.0

316731.4109433368 2.0219187782373525e7 0.0
2.0219187782373525e7 -1.5665333753045693e7 0.0
0.0 0.0 0.0

-1.0289674320652392e7 1.577154566209593e6 0.0
1.577154566209593e6 3.0956568398698896e7 0.0
0.0 0.0 0.0

419569.3840657044 1.653680075203071e7 0.0
1.653680075203071e7 -1.7402197116982155e7 0.0
0.0 0.0 0.0

-6.363514373802764e6 1.847751738478837e7 0.0
1.847751738478837e7 2.8018016037830867e7 0.0
0.0 0.0 0.0

-1.0533022708076391e7 1.2386329834937187e7 0.0
1.2386329834937187e7 1.7183991881513983e7 0.0
0.0 0.0 0.0

-4.1708207444326486e6 1.7264063892296374e7 0.0
1.7264063892296374e7 3.6541843936408095e7 0.0
0.0 0.0 0.0

-9.14179097660885e6 1.6372667085393542e7 0.0
1.6372667085393542e7 2.0855946102991357e7 0.0
0.0 0.0 0.0

-2.568261354418572e6 2.44950598870194e7 0.0
2.44950598870194e7 768817.008201698 0.0
0.0 0.0 0.0

2.3113548015268296e6 7.741185287592571e6 0.0
7.741185287592571e6 -3.9158751683825e7 0.0
0.0 0.0 0.0

-4.615676913468441e6 1.8458951558006443e7 0.0
1.8458951558006443e7 3.0859414284670435e7 0.0
0.0 0.0 0.0

1.3397918873332977e7 2.2051132997700553e7 0.0
2.2051132997700553e7 8.00183028883454e6 0.0
0.0 0.0 0.0

-2.0237573641518872e7 1.2437413706682317e7 0.0
1.2437413706682317e7 8.84070883808332e6 0.0
0.0 0.0 0.0

1.3142607136733197e6 1.184616444863138e7 0.0
1.184616444863138e7 -3.4398368996273905e7 0.0
0.0 0.0 0.0

-6.863987366015824e6 1.402129228561773e7 0.0
1.402129228561773e7 1.6708744622336272e7 0.0
0.0 0.0 0.0

2.4638580022245916e6 9.833037929694865e6 0.0
9.833037929694865e6 -1.708748652062369e7 0.0
0.0 0.0 0.0

-9.530512369045123e6 536307.1344762045 0.0
536307.1344762045 1.8612201840917647e7 0.0
0.0 0.0 0.0

-1.0390232148539996e7 -4694.726655840266 0.0
-4694.726655840266 2.470864749419669e7 0.0
0.0 0.0 0.0

967853.8463709475 1.4572409387153672e7 0.0
1.4572409387153672e7 -2.1225081414544046e7 0.0
0.0 0.0 0.0

-1.1136338663795972e7 7.268556155617998e6 0.0
7.268556155617998e6 2.2319984279817607e7 0.0
0.0 0.0 0.0

-5.509449453438086e6 2.527303132597847e7 0.0
2.527303132597847e7 8.541993039212976e6 0.0
0.0 0.0 0.0

6.346843709533747e6 1.704451975344679e7 0.0
1.704451975344679e7 7.521915836160857e6 0.0
0.0 0.0 0.0

-548922.3906205231 8.108321963381163e6 0.0
8.108321963381163e6 -1.183186794195806e6 0.0
0.0 0.0 0.0

422885.1555274967 2.041800605590779e7 0.0
2.041800605590779e7 -1.2352767231047554e7 0.0
0.0 0.0 0.0

2.4312440409639543e6 7.805992542613153e6 0.0
7.805992542613153e6 -2.355743327993496e7 0.0
0.0 0.0 0.0

1.0778448588073251e6 2.8363040034845494e7 0.0
2.8363040034845494e7 -4.921780126513205e6 0.0
0.0 0.0 0.0

-6.09483034810866e6 1.5796010148613608e7 0.0
1.5796010148613608e7 -6.6472724183178134e7 0.0
0.0 0.0 0.0

2.6644550266811484e6 5.669398785682841e6 0.0
5.669398785682841e6 -1.7892764370516483e7 0.0
0.0 0.0 0.0

2.8695343622391615e6 5.61504154790769e6 0.0
5.61504154790769e6 -2.542011553341374e7 0.0
0.0 0.0 0.0

-3.991120499896718e6 1.883882462791138e7 0.0
1.883882462791138e7 -2.0291250460629363e7 0.0
0.0 0.0 0.0

-1.3724967218717383e6 8.79723583976521e6 0.0
8.79723583976521e6 586699.6503058237 0.0
0.0 0.0 0.0

-1.5702625941175507e7 1.8363193619571578e7 0.0
1.8363193619571578e7 -6.153392798175525e7 0.0
0.0 0.0 0.0

1.9533206785490322e6 8.323100894027625e6 0.0
8.323100894027625e6 -1.0283038189663297e7 0.0
0.0 0.0 0.0

2.8046705523907095e6 8.526925342448985e6 0.0
8.526925342448985e6 -1.7360078927601516e7 0.0
0.0 0.0 0.0

-669096.4210593316 2.005459783131542e7 0.0
2.005459783131542e7 -2.709183238170576e6 0.0
0.0 0.0 0.0

-7.930860078293491e6 1.3829398432073582e7 0.0
1.3829398432073582e7 3.758970961725114e7 0.0
0.0 0.0 0.0

-2.7427802602004423e6 3.0046027198038876e7 0.0
3.0046027198038876e7 1.7100690173605036e6 0.0
0.0 0.0 0.0

-1.1410850026778372e7 9.74692780055021e6 0.0
9.74692780055021e6 8.446311402211804e6 0.0
0.0 0.0 0.0

1.3145381181030562e6 1.3240769440095037e7 0.0
1.3240769440095037e7 -2.3902115566507507e7 0.0
0.0 0.0 0.0

1.5475402083149794e6 2.0262658517430548e7 0.0
2.0262658517430548e7 1.9404120039947663e7 0.0
0.0 0.0 0.0

1.1547015240706345e6 2.7582352172125548e7 0.0
2.7582352172125548e7 -5.8065974294359535e6 0.0
0.0 0.0 0.0

-705087.4827293055 1.442475082531691e7 0.0
1.442475082531691e7 -1.0650073297931524e7 0.0
0.0 0.0 0.0

2.5849690999278296e6 2.6904354288216554e7 0.0
2.6904354288216554e7 -6.864062808963414e6 0.0
0.0 0.0 0.0

553138.6460423786 1.4885035676864512e7 0.0
1.4885035676864512e7 -1.1852006503306348e7 0.0
0.0 0.0 0.0

-9.830006299608648e6 -1.5464218865866691e6 0.0
-1.5464218865866691e6 1.9057644438629232e7 0.0
0.0 0.0 0.0

-71529.7624756284 1.9996272569334146e7 0.0
1.9996272569334146e7 -1.3898613683975697e7 0.0
0.0 0.0 0.0

1.4825411080889385e7 4.468071963482028e7 0.0
4.468071963482028e7 -7.33738362845267e6 0.0
0.0 0.0 0.0

6.39793751323403e6 2.361136217444672e7 0.0
2.361136217444672e7 -4.475180698012516e6 0.0
0.0 0.0 0.0

820137.2477195477 1.9420808410968002e7 0.0
1.9420808410968002e7 -1.6752003410192892e7 0.0
0.0 0.0 0.0

-3.59026586730424e6 1.5738627740886165e7 0.0
1.5738627740886165e7 7.532743932624293e6 0.0
0.0 0.0 0.0

-3.0572102812812277e6 1.908642136201735e7 0.0
1.908642136201735e7 -782297.7960768848 0.0
0.0 0.0 0.0

3.4674759123768453e6 3.2676130145470165e6 0.0
3.2676130145470165e6 -3.0958936934850477e7 0.0
0.0 0.0 0.0

3.07515878167284e6 4.214114051406921e6 0.0
4.214114051406921e6 -1.2653798773974225e7 0.0
0.0 0.0 0.0

-3.992973389602099e6 1.0226227728491511e7 0.0
1.0226227728491511e7 1.2581941519763889e6 0.0
0.0 0.0 0.0

-9.71470422791626e6 2.295613166181232e7 0.0
2.295613166181232e7 -2.0964696782202902e6 0.0
0.0 0.0 0.0

2.721386126769715e6 6.131595110668241e6 0.0
6.131595110668241e6 -2.110827338331617e7 0.0
0.0 0.0 0.0

47899.986938105896 1.685730688230055e7 0.0
1.685730688230055e7 -1.5410645207177086e7 0.0
0.0 0.0 0.0

-479484.973684744 2.085466089162592e7 0.0
2.085466089162592e7 1.1655425962320887e7 0.0
0.0 0.0 0.0

2.1047964216660988e6 1.2245385361945417e7 0.0
1.2245385361945417e7 -2.4684512873866618e7 0.0
0.0 0.0 0.0

-1.091784968254555e7 5.969128815918301e6 0.0
5.969128815918301e6 2.1419838396264397e7 0.0
0.0 0.0 0.0

-2.7404359871455334e7 3.118221891298008e7 0.0
3.118221891298008e7 4.1507791185506117e6 0.0
0.0 0.0 0.0

2.1361247721594665e6 1.1549440508167323e7 0.0
1.1549440508167323e7 -2.8043174203196812e7 0.0
0.0 0.0 0.0

-5.5489300289823644e7 4.848058182564407e6 0.0
4.848058182564407e6 5.044713903901383e6 0.0
0.0 0.0 0.0

2.394175172152996e6 7.547536729575089e6 0.0
7.547536729575089e6 -2.0665116933882896e7 0.0
0.0 0.0 0.0

-3.5254231784271477e6 2.0437029060449976e7 0.0
2.0437029060449976e7 2.1711467631935906e7 0.0
0.0 0.0 0.0

-742781.4282479677 1.4730664644265296e7 0.0
1.4730664644265296e7 -3.487994306219317e7 0.0
0.0 0.0 0.0

494122.4852255583 1.5870588741104905e7 0.0
1.5870588741104905e7 -2.6566873540235594e7 0.0
0.0 0.0 0.0

-8.474185483852938e6 2.891274603076447e6 0.0
2.891274603076447e6 1.4729616963437788e7 0.0
0.0 0.0 0.0

-1.169629300585876e7 1.0059257565715913e7 0.0
1.0059257565715913e7 2.6723451005846526e7 0.0
0.0 0.0 0.0

-2.9285936835738546e6 1.620072509520817e7 0.0
1.620072509520817e7 -2.6324014118323345e6 0.0
0.0 0.0 0.0

-4.1253630292109055e6 1.4950247541320194e7 0.0
1.4950247541320194e7 9.3107955065246e6 0.0
0.0 0.0 0.0

-1.1114880078236343e7 8.90931673289931e6 0.0
8.90931673289931e6 3.0916332302357808e7 0.0
0.0 0.0 0.0

-1.8647581483089866e6 1.5715349805479467e7 0.0
1.5715349805479467e7 -1.8467284349433044e6 0.0
0.0 0.0 0.0

-42039.90978345461 1.9104807392413966e7 0.0
1.9104807392413966e7 -1.4622142472869966e7 0.0
0.0 0.0 0.0

289102.5981198107 2.0177841643441867e7 0.0
2.0177841643441867e7 -1.1778033799525283e7 0.0
0.0 0.0 0.0

29825.429274554364 2.080816872756517e7 0.0
2.080816872756517e7 -1.3186902972577125e7 0.0
0.0 0.0 0.0

641797.2532982398 1.5856060344455883e7 0.0
1.5856060344455883e7 -1.862269575129755e7 0.0
0.0 0.0 0.0

1.6274535530386865e6 9.27701237654748e6 0.0
9.27701237654748e6 -1.626386900808694e7 0.0
0.0 0.0 0.0

-895151.0760037808 2.0064451361706816e7 0.0
2.0064451361706816e7 -6.011968716052666e6 0.0
0.0 0.0 0.0

-426670.9192138198 1.9499551689704448e7 0.0
1.9499551689704448e7 -1.2877159705510601e7 0.0
0.0 0.0 0.0

55980.96287393896 1.5109732800968738e7 0.0
1.5109732800968738e7 -9.60695232471374e6 0.0
0.0 0.0 0.0

-1.0446307315215359e7 4.773957336366815e6 0.0
4.773957336366815e6 2.043504112003828e7 0.0
0.0 0.0 0.0

792293.0705689993 1.5237270282193603e7 0.0
1.5237270282193603e7 -1.9932872991105646e7 0.0
0.0 0.0 0.0

-1.7384335255938984e7 2.0292493597954497e7 0.0
2.0292493597954497e7 -5.794778456270559e7 0.0
0.0 0.0 0.0

-7.815582140292012e6 4.754995683367996e6 0.0
4.754995683367996e6 1.3699579719882555e7 0.0
0.0 0.0 0.0

2.0931554322275873e6 8.882562221094519e6 0.0
8.882562221094519e6 -2.0269350879737653e7 0.0
0.0 0.0 0.0

-465515.750484857 7.554197946962267e6 0.0
7.554197946962267e6 -5.349257066557218e6 0.0
0.0 0.0 0.0

-4.698198640952243e6 1.48946388590923e7 0.0
1.48946388590923e7 -6.007493750117947e7 0.0
0.0 0.0 0.0

-4.6240133901488e6 1.5779969142525531e7 0.0
1.5779969142525531e7 1.25298314116296e7 0.0
0.0 0.0 0.0

3.2408799481218196e6 6.967382191771504e6 0.0
6.967382191771504e6 -1.973712255777767e7 0.0
0.0 0.0 0.0

-1.204953132881426e7 9.657843424748566e6 0.0
9.657843424748566e6 2.3839039460597213e7 0.0
0.0 0.0 0.0

-8.054886163711278e6 2.461742973779264e6 0.0
2.461742973779264e6 4.589582574389643e7 0.0
0.0 0.0 0.0

457923.59566607536 1.92871744037099e7 0.0
1.92871744037099e7 -1.9763903378070774e6 0.0
0.0 0.0 0.0

1.8555204778073602e6 1.741214257201526e7 0.0
1.741214257201526e7 5.28115631659812e6 0.0
0.0 0.0 0.0

-7.325886751633162e6 2.554237939480727e7 0.0
2.554237939480727e7 7.978590362983329e6 0.0
0.0 0.0 0.0

-3.186405213438237e6 2.1393169760092895e7 0.0
2.1393169760092895e7 4.150704234307407e6 0.0
0.0 0.0 0.0

3.1503103957159743e6 4.890733652861668e6 0.0
4.890733652861668e6 -3.524180612655724e7 0.0
0.0 0.0 0.0

3.1645762588259634e6 5.581865741606037e6 0.0
5.581865741606037e6 -3.573634919779446e7 0.0
0.0 0.0 0.0

-9.666342030325022e6 1.5265569098675119e7 0.0
1.5265569098675119e7 2.7492195740914926e7 0.0
0.0 0.0 0.0

62192.09592275228 1.8188304760355417e7 0.0
1.8188304760355417e7 -1.5374878011042312e7 0.0
0.0 0.0 0.0

8.781625527184663e6 2.241701984107737e7 0.0
2.241701984107737e7 1.3564821291189524e6 0.0
0.0 0.0 0.0

-7.967794964014906e6 4.717956911174333e6 0.0
4.717956911174333e6 5.240322431691255e7 0.0
0.0 0.0 0.0

-3.1360987336092815e6 1.896535354017636e7 0.0
1.896535354017636e7 9.583843792851957e6 0.0
0.0 0.0 0.0

-1.1176838723419858e6 1.7944832058907855e7 0.0
1.7944832058907855e7 -1.028834983124371e7 0.0
0.0 0.0 0.0

-921278.254615508 1.643877740193986e7 0.0
1.643877740193986e7 5.366158347330994e7 0.0
0.0 0.0 0.0

-198762.8756986511 5.274706951394017e6 0.0
5.274706951394017e6 -79832.42776586782 0.0
0.0 0.0 0.0

-595808.2165853782 2.3709705001394965e7 0.0
2.3709705001394965e7 -7.856468510395177e6 0.0
0.0 0.0 0.0

5.042090393168414e6 2.1051803397807978e7 0.0
2.1051803397807978e7 1.675757746608416e7 0.0
0.0 0.0 0.0

2.913706003790507e6 8.333391410634197e6 0.0
8.333391410634197e6 -1.9389416787864637e7 0.0
0.0 0.0 0.0

-3.190476980644851e6 1.4448895464826459e7 0.0
1.4448895464826459e7 -1.5216535199252912e6 0.0
0.0 0.0 0.0

-5.335404876011966e6 1.5671846934411446e7 0.0
1.5671846934411446e7 4.098293754026428e7 0.0
0.0 0.0 0.0

2.1337769176849145e6 9.384586297655491e6 0.0
9.384586297655491e6 -3.552885678142415e7 0.0
0.0 0.0 0.0

817977.9405662455 1.886974316503e7 0.0
1.886974316503e7 -1.8048382386108864e7 0.0
0.0 0.0 0.0

-9.103865655094752e6 1.0266677077663394e6 0.0
1.0266677077663394e6 3.716634205268982e7 0.0
0.0 0.0 0.0

1.773115010658197e6 1.092413076885364e7 0.0
1.092413076885364e7 -3.398397212842595e7 0.0
0.0 0.0 0.0

188667.29938037833 1.054553159463679e7 0.0
1.054553159463679e7 -6.505471633167711e6 0.0
0.0 0.0 0.0

2.7559301724796295e6 8.742453211105013e6 0.0
8.742453211105013e6 -2.988318914623705e7 0.0
0.0 0.0 0.0

79896.77275038417 1.5082859957119064e7 0.0
1.5082859957119064e7 -1.4530368965228017e7 0.0
0.0 0.0 0.0

179095.12855497003 1.7214623665158983e7 0.0
1.7214623665158983e7 -1.6075767859973894e7 0.0
0.0 0.0 0.0

-1.1240629764689185e7 7.6495359444831675e6 0.0
7.6495359444831675e6 3.02281828835223e7 0.0
0.0 0.0 0.0

3.634483171062791e6 2.1049378358100872e7 0.0
2.1049378358100872e7 4.739472341136756e6 0.0
0.0 0.0 0.0

-1.0558770480072323e7 3.4681083510803054e6 0.0
3.4681083510803054e6 1.935850111553696e7 0.0
0.0 0.0 0.0

1.2022954976893514e6 1.6379095400266271e7 0.0
1.6379095400266271e7 -2.199387170695341e7 0.0
0.0 0.0 0.0

-4.225457786766814e6 5.50614517938021e6 0.0
5.50614517938021e6 7.562592848180834e6 0.0
0.0 0.0 0.0

693015.7936956631 5.570148410301557e6 0.0
5.570148410301557e6 -6.586532371002258e6 0.0
0.0 0.0 0.0

-49717.27730781399 1.6506203573980387e7 0.0
1.6506203573980387e7 -1.4772464077040045e7 0.0
0.0 0.0 0.0

3.51999502933007e6 5.410579403081766e6 0.0
5.410579403081766e6 -2.002918115403909e7 0.0
0.0 0.0 0.0

-1.1208086310604438e7 3.4965972074421537e6 0.0
3.4965972074421537e6 2.6726716600740697e7 0.0
0.0 0.0 0.0

1.8900058081250824e6 3.414252800763357e6 0.0
3.414252800763357e6 -5.2210998643455274e7 0.0
0.0 0.0 0.0

-1.3185470438509881e6 1.8265777902696267e7 0.0
1.8265777902696267e7 -4.395156321686682e6 0.0
0.0 0.0 0.0

-1.1890533772470845e7 1.1628897819844816e7 0.0
1.1628897819844816e7 2.127624676631514e7 0.0
0.0 0.0 0.0

-8.366204029375678e6 2.453687450812078e7 0.0
2.453687450812078e7 5.637380452777454e6 0.0
0.0 0.0 0.0

3.2193717771861567e6 2.181642870982665e7 0.0
2.181642870982665e7 8.974495571994405e6 0.0
0.0 0.0 0.0

-6.180478319650218e6 1.8998827163353875e7 0.0
1.8998827163353875e7 2.6679515218264617e7 0.0
0.0 0.0 0.0

-5.075581134930398e6 2.0037306506132834e7 0.0
2.0037306506132834e7 2.090226127750606e7 0.0
0.0 0.0 0.0

-8.841050088382304e6 -1.070960159601116e6 0.0
-1.070960159601116e6 3.713237330891893e7 0.0
0.0 0.0 0.0

-3.1176943955480317e6 1.4608599282509388e7 0.0
1.4608599282509388e7 4.365027926168792e6 0.0
0.0 0.0 0.0

5.103074650070571e6 2.1121120366117317e7 0.0
2.1121120366117317e7 1.6265747801688626e7 0.0
0.0 0.0 0.0

-3.99408051455532e6 2.306566646776492e7 0.0
2.306566646776492e7 1.2044796753481861e7 0.0
0.0 0.0 0.0

-1.1858359434516158e7 9.068114773156688e6 0.0
9.068114773156688e6 2.5857014479337186e7 0.0
0.0 0.0 0.0

819040.8611764153 1.4840127006883347e7 0.0
1.4840127006883347e7 -2.4845255701578736e7 0.0
0.0 0.0 0.0

2.366017040743476e6 7.182853429789786e6 0.0
7.182853429789786e6 -1.767312973039064e7 0.0
0.0 0.0 0.0

780982.5143277571 1.7917594469225753e7 0.0
1.7917594469225753e7 -1.4949793636096882e7 0.0
0.0 0.0 0.0

-3.19320932147042e6 1.3262933757830134e7 0.0
1.3262933757830134e7 4.41819806014872e6 0.0
0.0 0.0 0.0

3.1745339375536917e6 5.4076905638053985e6 0.0
5.4076905638053985e6 -1.2787091113847438e7 0.0
0.0 0.0 0.0

-718860.5931953772 2.430144262462733e7 0.0
2.430144262462733e7 -6.722265202621487e6 0.0
0.0 0.0 0.0

-8.412809678067418e6 3.868342946274297e6 0.0
3.868342946274297e6 4.379918932501656e7 0.0
0.0 0.0 0.0

-9.163389800154999e6 2.0500175616131898e6 0.0
2.0500175616131898e6 3.838426386714659e7 0.0
0.0 0.0 0.0

-9.035858226789579e6 1.2025117307393143e7 0.0
1.2025117307393143e7 3.760364029169849e7 0.0
0.0 0.0 0.0

-274487.73979299236 2.219611613820379e7 0.0
2.219611613820379e7 -1.0814180610800436e7 0.0
0.0 0.0 0.0

-2.2508018135097045e6 8.836200988103477e6 0.0
8.836200988103477e6 -2.337915116365695e6 0.0
0.0 0.0 0.0

1.6645447665785229e7 2.369579608483713e7 0.0
2.369579608483713e7 1.339616532242715e7 0.0
0.0 0.0 0.0

1.2436211073053021e7 2.1651105262335908e7 0.0
2.1651105262335908e7 5.121148114811454e7 0.0
0.0 0.0 0.0

3.2548417824381897e6 6.499353579724348e6 0.0
6.499353579724348e6 -1.6579961391500719e7 0.0
0.0 0.0 0.0

-1.0993205761631202e7 5.543183866013174e6 0.0
5.543183866013174e6 2.3370896794782218e7 0.0
0.0 0.0 0.0

-3.008884452586061e6 1.5864738718456112e7 0.0
1.5864738718456112e7 4.275741307167412e6 0.0
0.0 0.0 0.0

-4.421554147222465e6 2.1667366635764003e7 0.0
2.1667366635764003e7 1.595162818752012e7 0.0
0.0 0.0 0.0

2.8072688616702966e6 6.050130981065769e6 0.0
6.050130981065769e6 -3.8332049617776275e7 0.0
0.0 0.0 0.0

2.891139076726813e6 7.124418656982124e6 0.0
7.124418656982124e6 -3.2907007679040328e7 0.0
0.0 0.0 0.0

-6.578548762295188e6 6.371023950242104e6 0.0
6.371023950242104e6 6.215613168960208e6 0.0
0.0 0.0 0.0

-2.9152122967147375e6 2.0024977201411165e7 0.0
2.0024977201411165e7 9.187210396106591e6 0.0
0.0 0.0 0.0

-1.3271317780276742e6 1.683510500338823e7 0.0
1.683510500338823e7 4.9812328329313084e7 0.0
0.0 0.0 0.0

674590.1163520012 1.887802043128175e7 0.0
1.887802043128175e7 -1.4271749214566689e7 0.0
0.0 0.0 0.0

-4.4997649722587615e6 7.632089793297735e6 0.0
7.632089793297735e6 8.127388508825481e6 0.0
0.0 0.0 0.0

2.962897933770325e6 6.310709778569942e6 0.0
6.310709778569942e6 -3.4381739989102975e7 0.0
0.0 0.0 0.0

-3.534765076694666e6 2.226164756547658e7 0.0
2.226164756547658e7 9.936452760863353e6 0.0
0.0 0.0 0.0

2.2099970578613468e6 8.616399206526162e6 0.0
8.616399206526162e6 -2.2416049688192412e7 0.0
0.0 0.0 0.0

-9.346702587623134e6 8.78947646328685e6 0.0
8.78947646328685e6 773350.5904030586 0.0
0.0 0.0 0.0

230035.86264690757 1.5840433902237061e7 0.0
1.5840433902237061e7 -1.602238130754897e7 0.0
0.0 0.0 0.0

-4.908518114944331e6 3.435777347891001e6 0.0
3.435777347891001e6 3.4206913856391115e6 0.0
0.0 0.0 0.0

-3.200078046098089e6 1.1811151301865993e7 0.0
1.1811151301865993e7 4.422007499119987e6 0.0
0.0 0.0 0.0

-3.0646588639892223e6 1.019563749625047e7 0.0
1.019563749625047e7 4.356939325129853e6 0.0
0.0 0.0 0.0

-146818.03067645337 1.6087995394395547e7 0.0
1.6087995394395547e7 -1.4088205864102773e7 0.0
0.0 0.0 0.0

-3.219948226664488e6 1.570105819959249e7 0.0
1.570105819959249e7 -1.321559564696667e6 0.0
0.0 0.0 0.0

-1.1461354966556853e7 9.408729294796841e6 0.0
9.408729294796841e6 2.881051035294491e7 0.0
0.0 0.0 0.0

-4.511577350752285e6 1.4589858153401919e7 0.0
1.4589858153401919e7 4.735861027213603e7 0.0
0.0 0.0 0.0

-7.542338432332829e6 1.196418526336527e7 0.0
1.196418526336527e7 4.300210216857222e7 0.0
0.0 0.0 0.0

-4.991556764353635e6 1.5147813071162025e7 0.0
1.5147813071162025e7 4.400230531331247e7 0.0
0.0 0.0 0.0

-5.621613444918722e6 7.732856091721562e6 0.0
7.732856091721562e6 6.488015318628125e7 0.0
0.0 0.0 0.0

-784324.670867193 2.096565875203762e7 0.0
2.096565875203762e7 9.030751093710313e6 0.0
0.0 0.0 0.0

-8.264741614059143e6 5.905436382592947e6 0.0
5.905436382592947e6 4.950520255829052e7 0.0
0.0 0.0 0.0

-1.8031557309679687e6 2.2767952680418987e7 0.0
2.2767952680418987e7 -5.32946488040698e6 0.0
0.0 0.0 0.0

-1.6719299241847608e6 1.992509385875313e7 0.0
1.992509385875313e7 -1.1814103442394245e7 0.0
0.0 0.0 0.0

-5.6892716906025134e7 3.586204260511417e7 0.0
3.586204260511417e7 -1.126737678944077e7 0.0
0.0 0.0 0.0

2.8953270956514757e6 7.9542528762991475e6 0.0
7.9542528762991475e6 -1.6452390362455824e7 0.0
0.0 0.0 0.0

2.0173412124094563e6 1.2980574148707118e7 0.0
1.2980574148707118e7 -2.3505397020492967e7 0.0
0.0 0.0 0.0

-358758.06178005436 2.4508052851986416e7 0.0
2.4508052851986416e7 -5.760271043690573e6 0.0
0.0 0.0 0.0

-2.216255246292925e6 2.333501668136035e7 0.0
2.333501668136035e7 3.6095261821525646e6 0.0
0.0 0.0 0.0

2.928299716712784e6 8.017065353362932e6 0.0
8.017065353362932e6 -2.933583823819609e7 0.0
0.0 0.0 0.0

1.7447649061639667e7 2.5557105779828474e7 0.0
2.5557105779828474e7 -3.3182397977508074e6 0.0
0.0 0.0 0.0

-4.579893655714501e6 1.2511642857903033e7 0.0
1.2511642857903033e7 3.2712498962298282e6 0.0
0.0 0.0 0.0

871968.65414932 6.306678160601152e6 0.0
6.306678160601152e6 -5.3532029343736224e7 0.0
0.0 0.0 0.0

-4.690811951172667e6 1.0958123991887884e7 0.0
1.0958123991887884e7 3.1152004130355082e6 0.0
0.0 0.0 0.0

1.976628966943358e6 8.542178533139199e6 0.0
8.542178533139199e6 -1.740692578964215e7 0.0
0.0 0.0 0.0

-5.97515686847174e6 1.9367658238886043e7 0.0
1.9367658238886043e7 2.5357258170540735e7 0.0
0.0 0.0 0.0

-3.7177584715867616e7 3.0752132920556314e7 0.0
3.0752132920556314e7 898108.2080047913 0.0
0.0 0.0 0.0

-1.0077210812482944e7 640130.6592186898 0.0
640130.6592186898 3.049486406750222e7 0.0
0.0 0.0 0.0

598512.9954624167 1.9775026550078694e7 0.0
1.9775026550078694e7 -1.3557390327910654e7 0.0
0.0 0.0 0.0

-1.646774556237722e7 2.650949471249806e7 0.0
2.650949471249806e7 -7.065688862944288e6 0.0
0.0 0.0 0.0

3.2928021622323627e6 5.869486465190472e6 0.0
5.869486465190472e6 -1.5922827245137319e7 0.0
0.0 0.0 0.0

-1.1297339981650518e7 1.0177805990912735e7 0.0
1.0177805990912735e7 2.509633484608479e7 0.0
0.0 0.0 0.0

595541.0092728361 1.7205303695515953e7 0.0
1.7205303695515953e7 -1.3678157027109694e7 0.0
0.0 0.0 0.0

-786459.0980485557 1.6426821548137419e7 0.0
1.6426821548137419e7 -6.833166473355744e6 0.0
0.0 0.0 0.0

-4.4003286746935025e6 1.3924819017831214e7 0.0
1.3924819017831214e7 3.3203266301838225e6 0.0
0.0 0.0 0.0

-9.555056226555206e6 1.0462582357569564e7 0.0
1.0462582357569564e7 3.763208406264029e7 0.0
0.0 0.0 0.0

3.4533975806627013e6 4.243501899472231e6 0.0
4.243501899472231e6 -3.2223847043747023e7 0.0
0.0 0.0 0.0

2.854198027562462e6 5.561774109069728e6 0.0
5.561774109069728e6 -1.9934463165941145e7 0.0
0.0 0.0 0.0

-3.515879757348072e6 2.1936030419598907e7 0.0
2.1936030419598907e7 8.992730297761139e6 0.0
0.0 0.0 0.0

-1.0299608449763058e7 2.0157786519364407e6 0.0
2.0157786519364407e6 1.3659141191042375e7 0.0
0.0 0.0 0.0

-30197.00140141137 1.4639791063035907e7 0.0
1.4639791063035907e7 -1.3774426032985268e7 0.0
0.0 0.0 0.0

3.1755468292036057e6 7.1112958146458315e6 0.0
7.1112958146458315e6 -2.467588829235198e7 0.0
0.0 0.0 0.0

-9.166230053784156e6 5.195915303484754e6 0.0
5.195915303484754e6 4.1267437013947725e7 0.0
0.0 0.0 0.0

-1.1460877160206288e6 2.11496992425918e7 0.0
2.11496992425918e7 6.325273253803208e6 0.0
0.0 0.0 0.0

-1.0941003053050319e7 2.3410176847921875e6 0.0
2.3410176847921875e6 2.604891664582312e7 0.0
0.0 0.0 0.0

1.2669005981517062e6 1.241366233265218e7 0.0
1.241366233265218e7 -3.2584725822463967e7 0.0
0.0 0.0 0.0

-457611.31980321277 1.848650907962973e7 0.0
1.848650907962973e7 -2.0187989775367916e7 0.0
0.0 0.0 0.0

-1.137695107149966e7 1.2817265079221029e7 0.0
1.2817265079221029e7 2.0551377317594815e7 0.0
0.0 0.0 0.0

874105.0425776066 1.5791803096460769e7 0.0
1.5791803096460769e7 -2.493430698472889e7 0.0
0.0 0.0 0.0

1.110986269621618e6 1.6196223504796373e7 0.0
1.6196223504796373e7 -1.6880770349828124e7 0.0
0.0 0.0 0.0

-911519.288209405 2.7634297605163474e6 0.0
2.7634297605163474e6 1.837118787311634e6 0.0
0.0 0.0 0.0

-1.0961966919544881e7 1.305246661510984e6 0.0
1.305246661510984e6 2.320096782216538e7 0.0
0.0 0.0 0.0

49301.89745344641 1.2620098001563907e7 0.0
1.2620098001563907e7 -1.2373214600708282e7 0.0
0.0 0.0 0.0

438392.4626992177 1.1425153510838993e7 0.0
1.1425153510838993e7 -1.2707576855781764e7 0.0
0.0 0.0 0.0

736524.5130633991 1.755602737647025e7 0.0
1.755602737647025e7 -1.4313741107520783e7 0.0
0.0 0.0 0.0

-1.7775557881723684e6 2.1317787807323247e7 0.0
2.1317787807323247e7 3.5996240686222734e6 0.0
0.0 0.0 0.0

1.2869051277480228e6 1.0010185529368443e7 0.0
1.0010185529368443e7 -1.5097273494200703e7 0.0
0.0 0.0 0.0

-2.6191447720689364e6 1.3855796426284898e7 0.0
1.3855796426284898e7 -4.838945721240027e7 0.0
0.0 0.0 0.0

-1.0025456254369646e7 3.873471866905983e6 0.0
3.873471866905983e6 1.305570550663143e7 0.0
0.0 0.0 0.0

-1.149447189662784e7 1.871112198990741e7 0.0
1.871112198990741e7 -4.3271477551535115e7 0.0
0.0 0.0 0.0

-1.2008318459296225e8 1.4560656834243778e7 0.0
1.4560656834243778e7 -1.1933064460868314e6 0.0
0.0 0.0 0.0

1.0703032925341678e8 1.5471987617234195e7 0.0
1.5471987617234195e7 5.2252388695260435e6 0.0
0.0 0.0 0.0

-3.9804315338217784e6 1.4271040234164735e7 0.0
1.4271040234164735e7 -5.572487101360553e7 0.0
0.0 0.0 0.0

-7.625730479495347e6 1.6860048273375098e7 0.0
1.6860048273375098e7 2.1622587766607553e7 0.0
0.0 0.0 0.0

-3.01977614757615e6 2.071801057765637e7 0.0
2.071801057765637e7 623593.8413534572 0.0
0.0 0.0 0.0

-295649.19834675314 1.3751989687807882e7 0.0
1.3751989687807882e7 -1.2012880646236818e7 0.0
0.0 0.0 0.0

-759888.1975572427 6.634025622363226e6 0.0
6.634025622363226e6 -4.0193727179473797e6 0.0
0.0 0.0 0.0

295478.7290183968 7.469456867863318e6 0.0
7.469456867863318e6 -2.7992950571107515e6 0.0
0.0 0.0 0.0

-4.1799954341427647e6 1.5239377869423008e7 0.0
1.5239377869423008e7 3.307079158090733e6 0.0
0.0 0.0 0.0

-3.2766549977479987e6 1.4025376527637536e7 0.0
1.4025376527637536e7 -5.18528333991599e7 0.0
0.0 0.0 0.0

1.1113627326393141e6 1.2131556348579813e7 0.0
1.2131556348579813e7 -1.1588315965994868e7 0.0
0.0 0.0 0.0

-1.0471898720533386e7 3.6229608520865976e6 0.0
3.6229608520865976e6 3.321792140404144e7 0.0
0.0 0.0 0.0

8.780225284490305e7 1.9058395963682596e7 0.0
1.9058395963682596e7 99110.47680248693 0.0
0.0 0.0 0.0

743378.6563324151 1.3301999058471385e7 0.0
1.3301999058471385e7 -1.1294642784361895e7 0.0
0.0 0.0 0.0

3.2500427619585935e6 6.662825552322777e6 0.0
6.662825552322777e6 -2.807434872666457e7 0.0
0.0 0.0 0.0

3.0904688045629933e6 7.326462228000473e6 0.0
7.326462228000473e6 -2.8711187617022466e7 0.0
0.0 0.0 0.0

-5.79238603593185e6 1.975521019756372e7 0.0
1.975521019756372e7 2.4039223391145173e7 0.0
0.0 0.0 0.0

1.5611391489384873e6 1.4882017027596597e7 0.0
1.4882017027596597e7 -1.9352264715748675e7 0.0
0.0 0.0 0.0

-3.5797441275597676e6 2.1728834754461303e7 0.0
2.1728834754461303e7 -1.2092938019130351e7 0.0
0.0 0.0 0.0

6.986124228183488e6 2.336071341697278e7 0.0
2.336071341697278e7 -3.1665399073183956e6 0.0
0.0 0.0 0.0

-1.9461003331223992e6 1.387885085750333e7 0.0
1.387885085750333e7 -594844.9134748977 0.0
0.0 0.0 0.0

1.5858066932806792e6 6.138959716713768e6 0.0
6.138959716713768e6 -5.611962983628387e6 0.0
0.0 0.0 0.0

-3.1427447927621207e6 9.513555964543022e6 0.0
9.513555964543022e6 -546630.4719987859 0.0
0.0 0.0 0.0

-6.620502761040478e6 6.596290817379799e6 0.0
6.596290817379799e6 1.2114116972983457e7 0.0
0.0 0.0 0.0

-6.283918688822191e6 1.697997575590773e7 0.0
1.697997575590773e7 -3.104882728400767e7 0.0
0.0 0.0 0.0

1.8934375338318031e6 1.2208202704512026e7 0.0
1.2208202704512026e7 -2.851103869741164e7 0.0
0.0 0.0 0.0

2.3431904441528395e6 6.464904835157883e6 0.0
6.464904835157883e6 -1.6869652214759786e7 0.0
0.0 0.0 0.0

2.272626156206643e6 9.462154565681847e6 0.0
9.462154565681847e6 -1.4175663407649262e7 0.0
0.0 0.0 0.0

-2.213056087207846e6 1.6379331153296417e7 0.0
1.6379331153296417e7 -286521.57139644126 0.0
0.0 0.0 0.0

1.910337298602867e6 9.094001890750999e6 0.0
9.094001890750999e6 -1.826472176998129e7 0.0
0.0 0.0 0.0

-1.3661698533456672e6 8.166150335735069e6 0.0
8.166150335735069e6 -3.9052459097141223e6 0.0
0.0 0.0 0.0

3.71777373160519e6 4.679217314297655e6 0.0
4.679217314297655e6 -2.1140247474141035e7 0.0
0.0 0.0 0.0

697088.1501462143 1.5728868541439332e7 0.0
1.5728868541439332e7 -1.351659148623378e7 0.0
0.0 0.0 0.0

-9.862576094786957e6 5.85457128664304e6 0.0
5.85457128664304e6 1.1859905498554967e7 0.0
0.0 0.0 0.0

-435171.8632546491 2.3678731213648524e7 0.0
2.3678731213648524e7 -8.615331114556257e6 0.0
0.0 0.0 0.0

1.6058802031452842e6 5.855728458148826e6 0.0
5.855728458148826e6 -4.6337495026732326e7 0.0
0.0 0.0 0.0

495356.8229661556 1.6787825058145545e7 0.0
1.6787825058145545e7 -1.3020220310796369e7 0.0
0.0 0.0 0.0

2.9337450240824977e6 8.683209769226009e6 0.0
8.683209769226009e6 -2.215101090153221e7 0.0
0.0 0.0 0.0

-2.8951281676389636e6 4.873240720200507e6 0.0
4.873240720200507e6 5.634497203141879e6 0.0
0.0 0.0 0.0

3.078526511363197e6 7.929931454563054e6 0.0
7.929931454563054e6 -2.3446866180586275e7 0.0
0.0 0.0 0.0

-2.57766855812652e6 2.1294569877494514e7 0.0
2.1294569877494514e7 6.199377691221058e6 0.0
0.0 0.0 0.0

1.6923903506627893e6 2.5482676519019037e7 0.0
2.5482676519019037e7 -8.118341974382355e6 0.0
0.0 0.0 0.0

-1.271315148324849e6 1.9251366681121506e7 0.0
1.9251366681121506e7 -1.9697575013643306e7 0.0
0.0 0.0 0.0

185727.69235750986 6.8430720318355905e6 0.0
6.8430720318355905e6 -6.682812999805026e6 0.0
0.0 0.0 0.0

1.6137946235681241e6 2.647677858710168e7 0.0
2.647677858710168e7 -6.348226933983523e6 0.0
0.0 0.0 0.0

388027.8285236019 2.1981217722540025e7 0.0
2.1981217722540025e7 -1.0496640887228709e7 0.0
0.0 0.0 0.0

-1.2188192034461873e7 8.360726873712653e6 0.0
8.360726873712653e6 2.02824317989508e7 0.0
0.0 0.0 0.0

-3.4977507639284935e6 2.268899153453037e7 0.0
2.268899153453037e7 1.4180743709226977e7 0.0
0.0 0.0 0.0

-6.048658762692564e6 4.231279576837348e6 0.0
4.231279576837348e6 5.6679748475389145e6 0.0
0.0 0.0 0.0

-2.5714584225251144e6 1.109496634528046e7 0.0
1.109496634528046e7 2.589533265499633e6 0.0
0.0 0.0 0.0

-7.990388864691364e6 8.213030905953781e6 0.0
8.213030905953781e6 4.6454376909506775e7 0.0
0.0 0.0 0.0

-5.590939910270895e6 1.426440865718736e7 0.0
1.426440865718736e7 8.293862211602568e6 0.0
0.0 0.0 0.0

3.219307169002362e6 2.0522257937751133e7 0.0
2.0522257937751133e7 2.0295198671181742e6 0.0
0.0 0.0 0.0

448737.28217898123 1.4446978482399229e7 0.0
1.4446978482399229e7 -1.0924416140960416e7 0.0
0.0 0.0 0.0

-272264.98050682433 1.5696204130000101e7 0.0
1.5696204130000101e7 -1.3292649678491035e7 0.0
0.0 0.0 0.0

-2.3525982323793173e6 1.3835854473720849e7 0.0
1.3835854473720849e7 -4.521160238671442e7 0.0
0.0 0.0 0.0

1.1518567850099653e6 6.276583136011838e6 0.0
6.276583136011838e6 -4.938607558967642e7 0.0
0.0 0.0 0.0

-1.165367872489341e7 1.1540739839091353e7 0.0
1.1540739839091353e7 2.5604537706308227e7 0.0
0.0 0.0 0.0

-2.5997382621519873e6 2.4852311091884643e7 0.0
2.4852311091884643e7 6.763020907356026e6 0.0
0.0 0.0 0.0

-1.010342763727096e7 4.062800730833591e6 0.0
4.062800730833591e6 3.681741416707066e7 0.0
0.0 0.0 0.0

493707.5547988303 2.061958064116552e7 0.0
2.061958064116552e7 -1.2889956358158957e7 0.0
0.0 0.0 0.0

319257.761858616 2.0081987586499274e7 0.0
2.0081987586499274e7 -1.5408199700888522e7 0.0
0.0 0.0 0.0

1.459094888602312e7 5.978239816067945e6 0.0
5.978239816067945e6 -2.173390497741876e6 0.0
0.0 0.0 0.0

1.4592631097214487e6 9.718899583679888e6 0.0
9.718899583679888e6 -1.0074086097228505e7 0.0
0.0 0.0 0.0

-9.45658206627832e6 1.4068245873654328e7 0.0
1.4068245873654328e7 1.699350399768684e7 0.0
0.0 0.0 0.0

-3.130001120540891e6 1.916202988963944e7 0.0
1.916202988963944e7 -1.884140243434074e7 0.0
0.0 0.0 0.0

624592.5958118001 1.5335796550032398e7 0.0
1.5335796550032398e7 -1.2722305619804554e7 0.0
0.0 0.0 0.0

857500.162077724 1.655858781181056e7 0.0
1.655858781181056e7 -1.494262087629969e7 0.0
0.0 0.0 0.0

-8.325249345354095e6 1.3737192025144894e7 0.0
1.3737192025144894e7 3.646422996682791e7 0.0
0.0 0.0 0.0

-1.1905688766294146e7 1.1210831044363612e7 0.0
1.1210831044363612e7 2.3057086673619952e7 0.0
0.0 0.0 0.0

-413358.2713929871 1.5283861526920933e7 0.0
1.5283861526920933e7 -1.2484502402516939e7 0.0
0.0 0.0 0.0

-1.2063299808264598e6 1.889352327328674e7 0.0
1.889352327328674e7 -9.921474555396808e6 0.0
0.0 0.0 0.0

-6.03824119669903e6 2.027756640703796e7 0.0
2.027756640703796e7 -1.1087194675221719e7 0.0
0.0 0.0 0.0

-1.7582681296618395e6 2.564203578819092e7 0.0
2.564203578819092e7 -2.5181861407300932e6 0.0
0.0 0.0 0.0

1.6625008284760695e6 1.2302016940602126e7 0.0
1.2302016940602126e7 -3.0493767338743664e7 0.0
0.0 0.0 0.0

-2.0067170384284398e6 3.044623435460191e7 0.0
3.044623435460191e7 2.307435671245864e6 0.0
0.0 0.0 0.0

-8.105363434058871e6 1.4878981070572957e7 0.0
1.4878981070572957e7 1.5218880515203077e7 0.0
0.0 0.0 0.0

-8.352353391525971e6 2.4570515264435086e7 0.0
2.4570515264435086e7 -1.0677189509537783e7 0.0
0.0 0.0 0.0

51692.83005244192 1.8057223366569374e7 0.0
1.8057223366569374e7 -1.7517212727318644e6 0.0
0.0 0.0 0.0

-820861.5368486326 1.9566673140276097e7 0.0
1.9566673140276097e7 -1.8261188418505117e7 0.0
0.0 0.0 0.0

-2.323160271254714e6 1.9374910919053882e7 0.0
1.9374910919053882e7 -1.1152255998604167e7 0.0
0.0 0.0 0.0

-3.4227423968325653e6 2.4062924577084273e7 0.0
2.4062924577084273e7 9.266334065756656e6 0.0
0.0 0.0 0.0

358008.3246752857 1.921086979405236e7 0.0
1.921086979405236e7 -1.2436735338416224e7 0.0
0.0 0.0 0.0

-559029.485857754 1.4872315422214031e7 0.0
1.4872315422214031e7 -1.160033322793508e7 0.0
0.0 0.0 0.0

-521076.0652896175 1.82110371991624e7 0.0
1.82110371991624e7 -2.2144703396330267e7 0.0
0.0 0.0 0.0

-1.5072446120406238e6 1.2445915109310862e7 0.0
1.2445915109310862e7 -6.431413326058708e6 0.0
0.0 0.0 0.0

-2.720028110254477e6 2.338016512987658e7 0.0
2.338016512987658e7 1.926904696542212e6 0.0
0.0 0.0 0.0

-1.6259205154055108e6 2.509192722762393e7 0.0
2.509192722762393e7 -3.649618606994756e6 0.0
0.0 0.0 0.0

-1.6699539938862603e6 4.3670331388933845e6 0.0
4.3670331388933845e6 3.412629375882635e6 0.0
0.0 0.0 0.0

385889.1703521232 1.0853468831819024e7 0.0
1.0853468831819024e7 -1.1767741976801505e7 0.0
0.0 0.0 0.0

-1.1096567866137018e6 2.665867983448256e7 0.0
2.665867983448256e7 -746393.0495884081 0.0
0.0 0.0 0.0

-3.335662957599733e6 2.084008566622338e7 0.0
2.084008566622338e7 5.474812345665351e6 0.0
0.0 0.0 0.0

-9.015635328997967e7 8.981164981822327e6 0.0
8.981164981822327e6 1.6213440917853676e6 0.0
0.0 0.0 0.0

515525.8466843823 1.6327160498973427e7 0.0
1.6327160498973427e7 -2.5033493265423194e7 0.0
0.0 0.0 0.0

-3.8862669893861352e6 1.9581957865654666e7 0.0
1.9581957865654666e7 8.506113314128451e6 0.0
0.0 0.0 0.0

-1.2481010490621668e6 2.305443084638039e7 0.0
2.305443084638039e7 -3.572740637647032e6 0.0
0.0 0.0 0.0

-3.6116283765007826e6 2.061169905427411e7 0.0
2.061169905427411e7 8.170549885963881e6 0.0
0.0 0.0 0.0

-2.2250382998026153e6 2.1561104627851855e7 0.0
2.1561104627851855e7 933693.6440734642 0.0
0.0 0.0 0.0

75697.43087887671 2.0803180049188092e7 0.0
2.0803180049188092e7 -1.0764586656331219e7 0.0
0.0 0.0 0.0

-6.660478200837305e6 1.5746569994041925e7 0.0
1.5746569994041925e7 1.310980399400506e7 0.0
0.0 0.0 0.0

-1.100336258594093e7 7.813390386310028e6 0.0
7.813390386310028e6 2.829518548046628e7 0.0
0.0 0.0 0.0

-699414.1122008899 1.3106522646710807e7 0.0
1.3106522646710807e7 -5.210275375226703e6 0.0
0.0 0.0 0.0

2.803389032485711e6 6.052177169329668e6 0.0
6.052177169329668e6 -1.1668189440843899e7 0.0
0.0 0.0 0.0

-1.8112721033570073e6 1.685610720113591e7 0.0
1.685610720113591e7 -7.515312420649053e6 0.0
0.0 0.0 0.0

-115634.85462761018 2.1514444830968287e7 0.0
2.1514444830968287e7 -1.1990243609305847e7 0.0
0.0 0.0 0.0

-3.5425619199945945e6 1.9821078860905513e7 0.0
1.9821078860905513e7 5.682418254132517e6 0.0
0.0 0.0 0.0

-2.5771351855398566e6 1.5513758234277232e7 0.0
1.5513758234277232e7 -4.16575944132696e6 0.0
0.0 0.0 0.0

-8.34445260563544e6 1.0257934347146822e6 0.0
1.0257934347146822e6 1.5344038273507122e7 0.0
0.0 0.0 0.0

2.1963683405194506e6 5.946125095040091e6 0.0
5.946125095040091e6 -1.3686977546485543e7 0.0
0.0 0.0 0.0

-9.86125179881834e6 7.227063100490252e6 0.0
7.227063100490252e6 3.650251526341396e7 0.0
0.0 0.0 0.0

-1.1576897408164278e7 3.643986791487554e6 0.0
3.643986791487554e6 2.073846556298369e7 0.0
0.0 0.0 0.0

-1.8960536884993827e6 1.9875474146732822e7 0.0
1.9875474146732822e7 2.4012211686343364e7 0.0
0.0 0.0 0.0

-1.2535765722412297e6 1.9828677724896446e7 0.0
1.9828677724896446e7 -9.490633873904059e6 0.0
0.0 0.0 0.0

231790.18475608807 1.021223708883724e7 0.0
1.021223708883724e7 -1.0855773830321914e7 0.0
0.0 0.0 0.0

-9.344731273359857e6 6.927799334451514e6 0.0
6.927799334451514e6 3.928008097852254e7 0.0
0.0 0.0 0.0

-970011.0041284466 2.3325182846198972e7 0.0
2.3325182846198972e7 -4.460092145161598e6 0.0
0.0 0.0 0.0

-3.926564686855251e6 1.4575941023691505e7 0.0
1.4575941023691505e7 1.6655428838339108e6 0.0
0.0 0.0 0.0

-1.8223235079642315e6 1.037039884866423e7 0.0
1.037039884866423e7 772007.5549292077 0.0
0.0 0.0 0.0

-1.8753538511270448e6 1.362459505087023e7 0.0
1.362459505087023e7 -6.046762765997754e6 0.0
0.0 0.0 0.0

-3.174437412057856e6 1.7698028267564274e7 0.0
1.7698028267564274e7 -2.8945271118511185e7 0.0
0.0 0.0 0.0

-2.7016263304995075e6 2.068641824344668e7 0.0
2.068641824344668e7 7.635053684342418e6 0.0
0.0 0.0 0.0

868027.9456339208 2.0026639334848996e7 0.0
2.0026639334848996e7 -1.5426177147819515e7 0.0
0.0 0.0 0.0

1.0222514107197635e6 1.7379695277339365e7 0.0
1.7379695277339365e7 5.92676580929589e7 0.0
0.0 0.0 0.0

4.8107861311606625e6 2.3093466563833244e7 0.0
2.3093466563833244e7 1.1956727694863467e7 0.0
0.0 0.0 0.0

-1.0570206536909409e7 1.3787250596369991e7 0.0
1.3787250596369991e7 1.951907434336873e7 0.0
0.0 0.0 0.0

1.9529089474861268e6 1.2877274319326816e7 0.0
1.2877274319326816e7 -2.513595010994093e7 0.0
0.0 0.0 0.0

-1.6153562621768368e6 1.6195665408047136e7 0.0
1.6195665408047136e7 -3.1127462108779806e6 0.0
0.0 0.0 0.0

1.429830015671275e6 2.281308559141523e7 0.0
2.281308559141523e7 -1.1302986468914703e7 0.0
0.0 0.0 0.0

-2.4096631078920243e6 2.5963875502192885e7 0.0
2.5963875502192885e7 4.640636850687885e6 0.0
0.0 0.0 0.0

-1.5181406719908863e6 2.4481853131707046e7 0.0
2.4481853131707046e7 -4.629497036993316e6 0.0
0.0 0.0 0.0

-386667.46012004 1.9975706160744596e7 0.0
1.9975706160744596e7 -1.683081715177979e7 0.0
0.0 0.0 0.0

-1.4216123294511475e6 1.5031875625548717e7 0.0
1.5031875625548717e7 -3.397449667005089e6 0.0
0.0 0.0 0.0

-3.3508653886189493e6 2.1230209149762165e7 0.0
2.1230209149762165e7 6.697646895659849e6 0.0
0.0 0.0 0.0

-1.214783723735618e7 7.33770600057413e6 0.0
7.33770600057413e6 1.891832905723887e7 0.0
0.0 0.0 0.0

2.4603092248439267e6 5.791326308985957e6 0.0
5.791326308985957e6 -1.5820268256723374e7 0.0
0.0 0.0 0.0

-1.1793739912911467e6 1.710246294731364e7 0.0
1.710246294731364e7 -5.430331165126045e6 0.0
0.0 0.0 0.0

2.6305251519527007e6 9.633234031947477e6 0.0
9.633234031947477e6 -1.9058790969625883e7 0.0
0.0 0.0 0.0

-2.3752629166611913e6 2.077753193299605e7 0.0
2.077753193299605e7 2.7657447864603763e6 0.0
0.0 0.0 0.0

-991555.1127091758 9.705319022166666e6 0.0
9.705319022166666e6 -1.0217120819957918e6 0.0
0.0 0.0 0.0

-97108.98969639209 2.851387698356834e7 0.0
2.851387698356834e7 -3.6059912124079005e6 0.0
0.0 0.0 0.0

-5.9713432792657934e7 4.759137618792043e6 0.0
4.759137618792043e6 5.413970051588617e6 0.0
0.0 0.0 0.0

-283405.9356240941 8.998945256526276e6 0.0
8.998945256526276e6 -2.6371709341758564e6 0.0
0.0 0.0 0.0

-3.694369842047684e6 1.6714899447308956e7 0.0
1.6714899447308956e7 -3.556414578845611e7 0.0
0.0 0.0 0.0

1.1914624606249616e6 2.186113432309337e7 0.0
2.186113432309337e7 -9.946385875454806e6 0.0
0.0 0.0 0.0

795956.5951326494 1.376541517115265e7 0.0
1.376541517115265e7 -1.2202253476719068e7 0.0
0.0 0.0 0.0

766678.9041498108 1.832377763498176e7 0.0
1.832377763498176e7 -1.935498056063301e7 0.0
0.0 0.0 0.0

380771.3472767377 8.3716314067819e6 0.0
8.3716314067819e6 -4.0916425874859537e6 0.0
0.0 0.0 0.0

3.0784016019948507e6 8.0030820771347685e6 0.0
8.0030820771347685e6 -2.1420101211369257e7 0.0
0.0 0.0 0.0

-1.8849364303458189e6 2.6184022997015093e7 0.0
2.6184022997015093e7 -1.494087823681694e6 0.0
0.0 0.0 0.0

33544.251538750716 6.079838540310152e6 0.0
6.079838540310152e6 -5.269924602346625e6 0.0
0.0 0.0 0.0

856391.4946200149 1.0705434169906832e7 0.0
1.0705434169906832e7 -1.3933403944515647e7 0.0
0.0 0.0 0.0

169324.61869316886 2.979233826965071e7 0.0
2.979233826965071e7 -2.653976300047466e6 0.0
0.0 0.0 0.0

3.791354517009474e6 2.1515104646026548e7 0.0
2.1515104646026548e7 823692.3618891679 0.0
0.0 0.0 0.0

1.6220922213717331e6 2.449785514022692e7 0.0
2.449785514022692e7 -8.898982549270883e6 0.0
0.0 0.0 0.0

1.1231034057454728e6 8.339254736333992e6 0.0
8.339254736333992e6 -5.8445230258659676e7 0.0
0.0 0.0 0.0

-7.524080542653026e6 1.758261394089194e7 0.0
1.758261394089194e7 2.83087192602896e7 0.0
0.0 0.0 0.0

-1.7282851969335156e6 2.530569295529388e7 0.0
2.530569295529388e7 832343.5459998116 0.0
0.0 0.0 0.0

2.527861401031304e6 9.285637158367101e6 0.0
9.285637158367101e6 -1.6222493058184952e7 0.0
0.0 0.0 0.0

910124.9695078896 7.640985014532009e6 0.0
7.640985014532009e6 -5.436228659943576e6 0.0
0.0 0.0 0.0

120808.87900121324 9.582842636049978e6 0.0
9.582842636049978e6 -9.883121250003135e6 0.0
0.0 0.0 0.0

-3.404090711470867e6 2.9425793085091844e7 0.0
2.9425793085091844e7 4.769222640271381e6 0.0
0.0 0.0 0.0

-9.969983866271319e6 1.247430855062792e6 0.0
1.247430855062792e6 2.2287192416161254e7 0.0
0.0 0.0 0.0

-9.64985253382538e6 1.597535934823153e7 0.0
1.597535934823153e7 2.5894682781331874e7 0.0
0.0 0.0 0.0

-1.0266894227536006e6 2.4750556669309936e7 0.0
2.4750556669309936e7 -3.09548486778491e6 0.0
0.0 0.0 0.0

997522.1855793716 1.5548362640010945e7 0.0
1.5548362640010945e7 -1.5563786937774822e7 0.0
0.0 0.0 0.0

-2.772890312879388e6 2.1128811645239864e7 0.0
2.1128811645239864e7 2.0023337972899888e7 0.0
0.0 0.0 0.0

-2.6640682210444435e6 1.6666055416436113e7 0.0
1.6666055416436113e7 -3.8706611636391636e6 0.0
0.0 0.0 0.0

400822.20616937475 1.6366976007172013e7 0.0
1.6366976007172013e7 -1.229043059625749e7 0.0
0.0 0.0 0.0

-1.323701572479127e6 1.6081312992722956e7 0.0
1.6081312992722956e7 -3.0077892530819923e7 0.0
0.0 0.0 0.0

2.4406726000236743e6 2.586368735152289e7 0.0
2.586368735152289e7 -7.502899765445686e6 0.0
0.0 0.0 0.0

-1.8696359931344837e6 1.4095439064795999e7 0.0
1.4095439064795999e7 -4.241162001561323e7 0.0
0.0 0.0 0.0

-1.1936761531509437e7 6.111302955575841e6 0.0
6.111302955575841e6 1.796808623302929e7 0.0
0.0 0.0 0.0

5.302568050191445e6 2.115718497181069e7 0.0
2.115718497181069e7 2.3636161299293637e7 0.0
0.0 0.0 0.0

-3.9748632909319876e6 2.8372390701442216e7 0.0
2.8372390701442216e7 5.157649534679853e6 0.0
0.0 0.0 0.0

-2.414547901222746e6 1.7109455836002685e7 0.0
1.7109455836002685e7 -5.023240251958881e6 0.0
0.0 0.0 0.0

4.0692804025599035e6 2.2788623973584753e7 0.0
2.2788623973584753e7 -6.029383709232434e6 0.0
0.0 0.0 0.0

-835659.9299482539 2.4197417419114605e7 0.0
2.4197417419114605e7 -4.1771842871091655e6 0.0
0.0 0.0 0.0

-6.48778058197829e6 8.606566194315469e6 0.0
8.606566194315469e6 6.526257824449349e6 0.0
0.0 0.0 0.0

-6974.216435307637 2.0391839110232465e7 0.0
2.0391839110232465e7 -1.5495056192110056e7 0.0
0.0 0.0 0.0

1.6292841192268068e6 1.4781415485485662e7 0.0
1.4781415485485662e7 -2.125414364597825e7 0.0
0.0 0.0 0.0

1.4459273157261312e6 1.5379028927787041e7 0.0
1.5379028927787041e7 -1.990417764587742e7 0.0
0.0 0.0 0.0

-973578.8249395201 1.5527240440457296e7 0.0
1.5527240440457296e7 -1.0267172850472039e7 0.0
0.0 0.0 0.0

1.5198466089790024e7 2.6973755159727e7 0.0
2.6973755159727e7 -4.771500664553123e6 0.0
0.0 0.0 0.0

1.5076232033524662e6 1.1444639072778014e7 0.0
1.1444639072778014e7 -1.2776918761669634e7 0.0
0.0 0.0 0.0

2.505989095040935e6 5.249238601250975e6 0.0
5.249238601250975e6 -1.495351921162624e7 0.0
0.0 0.0 0.0

1.7602846707088463e6 1.4130428794611348e7 0.0
1.4130428794611348e7 -2.249330218187977e7 0.0
0.0 0.0 0.0

1.5851778655892555e6 6.74401746382796e6 0.0
6.74401746382796e6 -4.401384406719362e7 0.0
0.0 0.0 0.0

-8.714555026287429e6 7.735507368238335e6 0.0
7.735507368238335e6 1.0205764265527243e7 0.0
0.0 0.0 0.0

-2.9129224774172353e6 2.2819955373169776e7 0.0
2.2819955373169776e7 2.855269604600586e6 0.0
0.0 0.0 0.0

3.3660456607207693e6 4.733440592442292e6 0.0
4.733440592442292e6 -2.5412588038659733e7 0.0
0.0 0.0 0.0

1.7702785125554828e6 6.710329213343468e6 0.0
6.710329213343468e6 -1.2711628545626637e7 0.0
0.0 0.0 0.0

-359746.0372473169 1.5764892778579004e7 0.0
1.5764892778579004e7 -8.243198738842674e6 0.0
0.0 0.0 0.0

-6.996222302003464e6 1.459983098482264e7 0.0
1.459983098482264e7 3.870443759142596e7 0.0
0.0 0.0 0.0

-4.03275191019895e6 2.252911460322411e7 0.0
2.252911460322411e7 1.4525190258800413e7 0.0
0.0 0.0 0.0

-5.502877877905764e6 9.923233181360794e6 0.0
9.923233181360794e6 4.809886103979705e6 0.0
0.0 0.0 0.0

-5.84407563772409e6 2.0287502556241788e7 0.0
2.0287502556241788e7 2.1089139999776773e7 0.0
0.0 0.0 0.0

3.4088628393093655e6 6.306078731920816e6 0.0
6.306078731920816e6 -1.8802557269291814e7 0.0
0.0 0.0 0.0

1.784873663954473e6 1.3510020275120089e7 0.0
1.3510020275120089e7 -2.3954230343620766e7 0.0
0.0 0.0 0.0

-1.3657472157014753e6 6.212518158660467e7 0.0
6.212518158660467e7 5.223043085337308e6 0.0
0.0 0.0 0.0

-5.321223167681536e6 1.3736527370303579e7 0.0
1.3736527370303579e7 6.66745712122177e6 0.0
0.0 0.0 0.0

-1.1481756531179752e7 4.519094484736378e6 0.0
4.519094484736378e6 1.709960635478613e7 0.0
0.0 0.0 0.0

283633.72946566157 1.9237915766017377e7 0.0
1.9237915766017377e7 -1.6662537593706857e7 0.0
0.0 0.0 0.0

1.3130168531164788e6 1.6006599466886953e7 0.0
1.6006599466886953e7 -1.869987121628827e7 0.0
0.0 0.0 0.0

-163881.28214190202 2.8498744806716833e6 0.0
2.8498744806716833e6 3.763522676840147e6 0.0
0.0 0.0 0.0

-2.858664489458902e6 1.5272262757294555e6 0.0
1.5272262757294555e6 6.434020190677525e6 0.0
0.0 0.0 0.0

-4.434539760022147e6 2.975654112670825e7 0.0
2.975654112670825e7 4.267781754493192e6 0.0
0.0 0.0 0.0

-3.829651918128482e6 1.9192223969964176e7 0.0
1.9192223969964176e7 7.179329613294549e6 0.0
0.0 0.0 0.0

-3.1265193548215656e6 2.953401757898594e7 0.0
2.953401757898594e7 2.4219131714248755e6 0.0
0.0 0.0 0.0

2.751821496674861e6 9.45008684073271e6 0.0
9.45008684073271e6 -2.104404059021813e7 0.0
0.0 0.0 0.0

-3.1807141537562893e6 2.180409185588668e7 0.0
2.180409185588668e7 5.322144365287486e6 0.0
0.0 0.0 0.0

-1.0340228376279498e7 4.478602813172042e6 0.0
4.478602813172042e6 3.110115181914916e7 0.0
0.0 0.0 0.0

-7.311584269242205e7 6.29166905529689e6 0.0
6.29166905529689e6 4.549304052847344e6 0.0
0.0 0.0 0.0

-2.849616810937748e6 2.3750938154304773e7 0.0
2.3750938154304773e7 2.90593529282957e6 0.0
0.0 0.0 0.0

-5.291003948117925e6 2.0768695650016423e7 0.0
2.0768695650016423e7 1.951864833492563e7 0.0
0.0 0.0 0.0

749663.878448308 2.606433742337402e7 0.0
2.606433742337402e7 -7.02707485992462e6 0.0
0.0 0.0 0.0

1.861633955272358e6 6.071224424618033e6 0.0
6.071224424618033e6 -1.1501788076504499e7 0.0
0.0 0.0 0.0

-5.117425856083432e6 1.559510643385224e7 0.0
1.559510643385224e7 8.121897098443697e6 0.0
0.0 0.0 0.0

-1.4375268088778406e7 2.5500195880730987e7 0.0
2.5500195880730987e7 -8.528362653635815e6 0.0
0.0 0.0 0.0

-7.084245772907533e6 2.3722768041829444e7 0.0
2.3722768041829444e7 -8.943058459935209e6 0.0
0.0 0.0 0.0

3.0224540787216043e6 7.328837543154577e6 0.0
7.328837543154577e6 -1.5514646028593756e7 0.0
0.0 0.0 0.0

-4.831367724398234e6 2.1315821860239834e7 0.0
2.1315821860239834e7 1.7877849567310162e7 0.0
0.0 0.0 0.0

-380981.970505998 1.8528460199793097e7 0.0
1.8528460199793097e7 -9.352763144823052e6 0.0
0.0 0.0 0.0

1.5826512244362999e6 4.917310516180926e6 0.0
4.917310516180926e6 -4.823901045414053e7 0.0
0.0 0.0 0.0

-8.674670575047614e6 1.8484912290664455e6 0.0
1.8484912290664455e6 4.498470664593691e7 0.0
0.0 0.0 0.0

2.2199545535742054e6 1.0028136514047995e7 0.0
1.0028136514047995e7 -1.5076597616257867e7 0.0
0.0 0.0 0.0

3.007972372121183e6 7.253864234632776e6 0.0
7.253864234632776e6 -3.0750250090885084e7 0.0
0.0 0.0 0.0

-494919.5018715686 2.0411159837770317e7 0.0
2.0411159837770317e7 -7.764735090881316e6 0.0
0.0 0.0 0.0

126522.25094772503 1.2013721384204729e7 0.0
1.2013721384204729e7 -4.029503067487218e7 0.0
0.0 0.0 0.0

1.8404042681024922e6 3.199263511843586e7 0.0
3.199263511843586e7 -3.1687985691195833e6 0.0
0.0 0.0 0.0

-3.5854471964992527e6 1.7673867950601716e7 0.0
1.7673867950601716e7 3.709934922594607e7 0.0
0.0 0.0 0.0

-9.157233099577429e6 1.7194435989707767e6 0.0
1.7194435989707767e6 4.147466207485172e7 0.0
0.0 0.0 0.0

-463545.27953596925 1.9492095982759893e7 0.0
1.9492095982759893e7 -8.956540154455697e6 0.0
0.0 0.0 0.0

1.8994823938120324e6 8.031060525600547e6 0.0
8.031060525600547e6 -3.722584466212165e7 0.0
0.0 0.0 0.0

-2.228754318980094e6 1.966243069375952e7 0.0
1.966243069375952e7 120186.37057584431 0.0
0.0 0.0 0.0

-3.0180937174755707e6 2.1894923543063737e7 0.0
2.1894923543063737e7 2.8318444732621466e6 0.0
0.0 0.0 0.0

-1.125311276253848e7 6.733561908617611e6 0.0
6.733561908617611e6 2.4274961530946434e7 0.0
0.0 0.0 0.0

3.170246751376721e6 2.629105353804606e7 0.0
2.629105353804606e7 -7.12761345925875e6 0.0
0.0 0.0 0.0

823005.7293432781 2.0874696063552894e7 0.0
2.0874696063552894e7 -4.0236167739177854e6 0.0
0.0 0.0 0.0

-1.1130960019821073e6 2.533528637094965e7 0.0
2.533528637094965e7 -2.0245974499260467e6 0.0
0.0 0.0 0.0

2.3951654104143586e6 2.831983055039429e6 0.0
2.831983055039429e6 -4.575205546137584e7 0.0
0.0 0.0 0.0

-3.050554968580312e6 2.2340546096479435e7 0.0
2.2340546096479435e7 4.0105604567796774e6 0.0
0.0 0.0 0.0

837474.4355678251 1.4209452529033013e7 0.0
1.4209452529033013e7 -1.3074190683670238e7 0.0
0.0 0.0 0.0

-4.083344286570537e6 1.1785771656433197e7 0.0
1.1785771656433197e7 1.4778536844145516e6 0.0
0.0 0.0 0.0

-956659.0179762051 1.4368507840021817e7 0.0
1.4368507840021817e7 -4.916106472225299e6 0.0
0.0 0.0 0.0

-8.81931484250804e6 5.192195811227826e6 0.0
5.192195811227826e6 1.0038187817686673e7 0.0
0.0 0.0 0.0

1.1623136382618365e6 1.994949790969215e7 0.0
1.994949790969215e7 -5.200303448157007e6 0.0
0.0 0.0 0.0

-1.009003574426519e7 8.839796138049519e6 0.0
8.839796138049519e6 3.459882738015023e7 0.0
0.0 0.0 0.0

294829.1751552122 1.5968853975586444e7 0.0
1.5968853975586444e7 -1.1446085130208306e7 0.0
0.0 0.0 0.0

-5.240969470277562e6 5.873529209390241e6 0.0
5.873529209390241e6 4.032003534313039e6 0.0
0.0 0.0 0.0

-4.970270183248071e6 3.0430381304026708e7 0.0
3.0430381304026708e7 4.337486049170578e6 0.0
0.0 0.0 0.0

-103984.94542509993 2.406774026296919e7 0.0
2.406774026296919e7 -6.479324861158919e6 0.0
0.0 0.0 0.0

918653.0082066795 1.6838667216328517e7 0.0
1.6838667216328517e7 -2.201970145146849e7 0.0
0.0 0.0 0.0

1.8720025924674626e6 1.0736534157274874e7 0.0
1.0736534157274874e7 -1.3945522946102366e7 0.0
0.0 0.0 0.0

-2.1749526585851125e6 2.4178925236043997e7 0.0
2.4178925236043997e7 3.5513716059153564e6 0.0
0.0 0.0 0.0

-5.534036754483356e6 2.017951543612378e7 0.0
2.017951543612378e7 2.2583854248457074e7 0.0
0.0 0.0 0.0

6.0931326283670375e6 2.022258545352987e7 0.0
2.022258545352987e7 1.1704245417672718e7 0.0
0.0 0.0 0.0

1.4113692856870852e6 8.315691858999436e6 0.0
8.315691858999436e6 -4.001577117920794e7 0.0
0.0 0.0 0.0

-2.5825757659887252e6 2.1648291182557143e7 0.0
2.1648291182557143e7 7.345353272703658e6 0.0
0.0 0.0 0.0

-2.3613508192154234e6 2.279966977213535e7 0.0
2.279966977213535e7 4.705019913599066e6 0.0
0.0 0.0 0.0

-1.1533933129102828e7 1.1336971178445501e7 0.0
1.1336971178445501e7 1.8605602383809775e7 0.0
0.0 0.0 0.0

2.461051603419345e6 3.273429200276272e7 0.0
3.273429200276272e7 -3.1872869609968327e6 0.0
0.0 0.0 0.0

338780.0420510373 1.3988095142452177e7 0.0
1.3988095142452177e7 -9.959768964778775e6 0.0
0.0 0.0 0.0

-8.106158953482199e6 1.7546146392391894e7 0.0
1.7546146392391894e7 2.0304636304816164e7 0.0
0.0 0.0 0.0

1.9159844469047692e6 1.0178760788706716e7 0.0
1.0178760788706716e7 -1.3062329879868852e7 0.0
0.0 0.0 0.0

-3.7021011040945733e6 9.05712047671389e6 0.0
9.05712047671389e6 6.222076000615161e6 0.0
0.0 0.0 0.0

-2.0358459303295007e6 2.4557443005652696e7 0.0
2.4557443005652696e7 2.529940360996163e6 0.0
0.0 0.0 0.0

-2.0415177975879905e6 2.5424572268230516e7 0.0
2.5424572268230516e7 2.573687940046285e6 0.0
0.0 0.0 0.0

188388.42377810646 1.5551566205862109e7 0.0
1.5551566205862109e7 -1.05436283514894e7 0.0
0.0 0.0 0.0

2.1266857823427464e6 2.159445114734002e7 0.0
2.159445114734002e7 -5.140996614948347e6 0.0
0.0 0.0 0.0

1.2804501259166054e7 2.8022055133712173e7 0.0
2.8022055133712173e7 -5.403267598437533e6 0.0
0.0 0.0 0.0

-5.582287668123176e6 2.3786496572950844e7 0.0
2.3786496572950844e7 8.106420662414191e6 0.0
0.0 0.0 0.0

-9.354948593938075e6 1.704262310632112e7 0.0
1.704262310632112e7 -4.033320143131637e7 0.0
0.0 0.0 0.0

1.0845579536477486e6 1.1602916862365924e7 0.0
1.1602916862365924e7 -1.060025963617936e7 0.0
0.0 0.0 0.0

-1.0549331404710572e7 4.979510873171599e6 0.0
4.979510873171599e6 2.87956384510703e7 0.0
0.0 0.0 0.0

-2.8369319644943085e6 2.1798663344566863e7 0.0
2.1798663344566863e7 -1.6441691298205056e6 0.0
0.0 0.0 0.0

-6.026674403247392e6 2.2470781657544106e7 0.0
2.2470781657544106e7 -1.1121100170924002e6 0.0
0.0 0.0 0.0

-2.482704359294251e6 2.2202001270309858e7 0.0
2.2202001270309858e7 5.9288902870005965e6 0.0
0.0 0.0 0.0

-9.856825641216313e6 2.7842666626933287e6 0.0
2.7842666626933287e6 3.24524747079657e7 0.0
0.0 0.0 0.0

-5.729038329667212e6 3.1095874792084336e7 0.0
3.1095874792084336e7 4.425697398174484e6 0.0
0.0 0.0 0.0

-2.6771960629982576e6 2.417811147402602e7 0.0
2.417811147402602e7 1.8749464877644014e6 0.0
0.0 0.0 0.0

2.26669451632802e6 2.0193486741965022e7 0.0
2.0193486741965022e7 767541.1211746468 0.0
0.0 0.0 0.0

3.454448959962564e6 1.7351888903975252e7 0.0
1.7351888903975252e7 1.1514830104707848e7 0.0
0.0 0.0 0.0

-2.736478650371257e6 2.1021943333311845e7 0.0
2.1021943333311845e7 8.80768757769069e6 0.0
0.0 0.0 0.0

-5.304177544422858e6 1.8897736458240233e7 0.0
1.8897736458240233e7 1.4427625642504394e7 0.0
0.0 0.0 0.0

3.0580073822682304e6 6.66791442246643e6 0.0
6.66791442246643e6 -1.4562811645536575e7 0.0
0.0 0.0 0.0

-815279.2884766576 2.559236451941328e7 0.0
2.559236451941328e7 -2.8719995339100105e6 0.0
0.0 0.0 0.0

-8.713026256760696e6 1.5730026587260561e7 0.0
1.5730026587260561e7 2.2193979163685806e7 0.0
0.0 0.0 0.0

3.0081655558071015e6 4.40445964927329e6 0.0
4.40445964927329e6 -2.332187541649089e7 0.0
0.0 0.0 0.0

-1.667930157641483e6 2.366228039559491e7 0.0
2.366228039559491e7 -5.005718444674046e6 0.0
0.0 0.0 0.0

-2.406840190229968e6 2.1835850665125508e7 0.0
2.1835850665125508e7 4.874633949200148e6 0.0
0.0 0.0 0.0

-3.9549425612331517e6 5.260686032579289e6 0.0
5.260686032579289e6 2.002303476534109e6 0.0
0.0 0.0 0.0

1.2628146196368895e6 1.1563110707493745e7 0.0
1.1563110707493745e7 -1.7551686080450214e7 0.0
0.0 0.0 0.0

983836.3854922779 5.463986763087595e7 0.0
5.463986763087595e7 3.825984896346083e6 0.0
0.0 0.0 0.0

396777.89422227815 7.477521686875455e6 0.0
7.477521686875455e6 -6.89712866317682e7 0.0
0.0 0.0 0.0

2.8644246702921316e6 5.552939891722291e6 0.0
5.552939891722291e6 -2.7284597271020435e7 0.0
0.0 0.0 0.0

1.902319918367437e6 1.3052996608711464e7 0.0
1.3052996608711464e7 -1.9731386806147683e7 0.0
0.0 0.0 0.0

-5.284076034050109e6 2.322242093140694e7 0.0
2.322242093140694e7 5.999338378900208e6 0.0
0.0 0.0 0.0

413595.6567249689 1.5406877837848712e7 0.0
1.5406877837848712e7 -2.669918545999843e7 0.0
0.0 0.0 0.0

1.0394001629504021e6 1.1043703248521758e7 0.0
1.1043703248521758e7 -9.638660000593409e6 0.0
0.0 0.0 0.0

-3.4456286356043285e6 1.1055845998020768e7 0.0
1.1055845998020768e7 -321119.00600575807 0.0
0.0 0.0 0.0

3.692183167124545e6 1.936781949983148e7 0.0
1.936781949983148e7 1.9855458587590992e7 0.0
0.0 0.0 0.0

-3.8783414249779526e6 1.7927480023074288e7 0.0
1.7927480023074288e7 3.475610637896839e7 0.0
0.0 0.0 0.0

1.251828670636275e7 1.503805562262535e7 0.0
1.503805562262535e7 6.502519838129191e6 0.0
0.0 0.0 0.0

-5.087509357151363e6 3.44071484222018e7 0.0
3.44071484222018e7 2.3976793094430543e6 0.0
0.0 0.0 0.0

-1.40654003685379e6 1.618309091796734e7 0.0
1.618309091796734e7 -8.904049149852684e6 0.0
0.0 0.0 0.0

-3.0756378905078616e7 2.664688570723054e7 0.0
2.664688570723054e7 -1.66548977375976e6 0.0
0.0 0.0 0.0

-225616.59727526782 1.760135611487967e7 0.0
1.760135611487967e7 -9.75083572507552e6 0.0
0.0 0.0 0.0

-2.3815342913296707e6 2.2411569378601782e7 0.0
2.2411569378601782e7 3.6125770783116883e6 0.0
0.0 0.0 0.0

-259772.39979718765 1.4175251928589186e7 0.0
1.4175251928589186e7 -7.488892087263679e6 0.0
0.0 0.0 0.0

-1.6284892942954209e6 1.694392814654363e7 0.0
1.694392814654363e7 -2.741569564612348e7 0.0
0.0 0.0 0.0

2.9415486358385207e6 5.276788758815979e6 0.0
5.276788758815979e6 -2.2152077335724264e7 0.0
0.0 0.0 0.0

1.3167535563119631e6 1.1150968331549928e7 0.0
1.1150968331549928e7 -3.6326709392705165e7 0.0
0.0 0.0 0.0

-809316.8776593693 2.089769781316111e7 0.0
2.089769781316111e7 1.8039069350005977e7 0.0
0.0 0.0 0.0

3.0114457368339878e6 7.607575823144527e6 0.0
7.607575823144527e6 -2.5390461644067682e7 0.0
0.0 0.0 0.0

-1.3422521731882817e6 2.3844101393905185e7 0.0
2.3844101393905185e7 -5.741855505734747e6 0.0
0.0 0.0 0.0

-418214.83210050035 2.0432719753718145e7 0.0
2.0432719753718145e7 -1.2168406018353703e7 0.0
0.0 0.0 0.0

-2.402853442930348e6 1.4311179572748723e7 0.0
1.4311179572748723e7 -4.502634731241504e6 0.0
0.0 0.0 0.0

-3.9327892727539903e6 1.6464524084250512e7 0.0
1.6464524084250512e7 3.2644816462477054e6 0.0
0.0 0.0 0.0

-7.745137222041187e6 1.8113762904978797e7 0.0
1.8113762904978797e7 2.108789256627901e7 0.0
0.0 0.0 0.0

2.393602154467116e6 1.0366077495412499e7 0.0
1.0366077495412499e7 -1.790974765336045e7 0.0
0.0 0.0 0.0

-6.209352520002747e6 3.6995820099829264e7 0.0
3.6995820099829264e7 2.493828834907698e6 0.0
0.0 0.0 0.0

-6.707709206137456e6 3.164119225506782e7 0.0
3.164119225506782e7 4.661250843454377e6 0.0
0.0 0.0 0.0

-7.173029774426228e6 1.905108673714941e7 0.0
1.905108673714941e7 2.1921771819103982e7 0.0
0.0 0.0 0.0

-1.7034218291317436e6 1.7078738405016903e7 0.0
1.7078738405016903e7 -5.6780724215840725e6 0.0
0.0 0.0 0.0

1.1603667317378903e6 1.6612122862145921e7 0.0
1.6612122862145921e7 -1.7409842274544213e7 0.0
0.0 0.0 0.0

3.1897168839829583e6 7.365478613679901e6 0.0
7.365478613679901e6 -2.275627095134378e7 0.0
0.0 0.0 0.0

-4.057851537492969e6 2.4716225809641764e7 0.0
2.4716225809641764e7 1.062689380595949e7 0.0
0.0 0.0 0.0

-1.214633417131432e7 1.0253372658614969e7 0.0
1.0253372658614969e7 2.2123223337889712e7 0.0
0.0 0.0 0.0

4.820351239118418e6 2.8609015901546925e7 0.0
2.8609015901546925e7 -5.525550057488754e6 0.0
0.0 0.0 0.0

-7.321584043110605e6 2.5475342905430775e6 0.0
2.5475342905430775e6 5.5608456643525586e7 0.0
0.0 0.0 0.0

-1.5269450442784727e6 2.0530068741781536e7 0.0
2.0530068741781536e7 -8.200505892281371e6 0.0
0.0 0.0 0.0

-9.270785988714917e6 -1.8486241054387437e6 0.0
-1.8486241054387437e6 2.9098620449834205e7 0.0
0.0 0.0 0.0

-9.172198017663918e6 3.935198288637696e6 0.0
3.935198288637696e6 1.5901962065828584e7 0.0
0.0 0.0 0.0

3.0903966337824967e6 5.944448475345517e6 0.0
5.944448475345517e6 -1.3791697203487338e7 0.0
0.0 0.0 0.0

-8.035409214451784e6 1.4718440712828513e7 0.0
1.4718440712828513e7 3.520910030531899e7 0.0
0.0 0.0 0.0

1.9827751485293787e6 1.157338250789478e7 0.0
1.157338250789478e7 -3.0051331608847264e7 0.0
0.0 0.0 0.0

-1.136326808043006e6 2.393959752800497e7 0.0
2.393959752800497e7 -3.2985824946959936e6 0.0
0.0 0.0 0.0

-2.323747826630065e6 2.3673013803324565e7 0.0
2.3673013803324565e7 4.68333212271537e6 0.0
0.0 0.0 0.0

-1.7484530768726568e6 1.732947712571496e7 0.0
1.732947712571496e7 -2.848112154257104e6 0.0
0.0 0.0 0.0

-2.5204064246953703e6 2.4021919831392016e7 0.0
2.4021919831392016e7 6.978252879667083e6 0.0
0.0 0.0 0.0

946783.7395995278 6.103252648062551e6 0.0
6.103252648062551e6 -7.784282056163311e6 0.0
0.0 0.0 0.0

-2.439317590760094e6 2.026524080245738e7 0.0
2.026524080245738e7 -4.060758182618358e6 0.0
0.0 0.0 0.0

1.0783378301581543e7 2.872220180362675e7 0.0
2.872220180362675e7 -5.532345839300075e6 0.0
0.0 0.0 0.0

842426.0748624261 1.0293745189239802e7 0.0
1.0293745189239802e7 -8.840018484852143e6 0.0
0.0 0.0 0.0

-196837.32808644837 1.6196837090599665e7 0.0
1.6196837090599665e7 -9.229345289419865e6 0.0
0.0 0.0 0.0

-6.05667712788002e6 2.310974984235453e7 0.0
2.310974984235453e7 -6.742613662888159e6 0.0
0.0 0.0 0.0

-1.9730781460561836e6 1.686484293778846e7 0.0
1.686484293778846e7 -1.6142677641725915e6 0.0
0.0 0.0 0.0

1.1987664370190574e7 2.3863346342295088e7 0.0
2.3863346342295088e7 -1.896495620354456e6 0.0
0.0 0.0 0.0

-2.6968481508549806e6 4.572274507552336e6 0.0
4.572274507552336e6 -100513.92292790348 0.0
0.0 0.0 0.0

2.681553627044931e6 4.794168378835986e6 0.0
4.794168378835986e6 -3.3061150675223734e7 0.0
0.0 0.0 0.0

-3.6542005146733457e6 3.0623823257186166e6 0.0
3.0623823257186166e6 7.535317405955439e6 0.0
0.0 0.0 0.0

-2.663962718213327e6 1.0350535652582169e7 0.0
1.0350535652582169e7 -2.0361237402636744e6 0.0
0.0 0.0 0.0

-2.168176753715548e6 1.7529840355557878e7 0.0
1.7529840355557878e7 -6.114108868482053e6 0.0
0.0 0.0 0.0

-8.869577355593905e6 5.478255024156974e6 0.0
5.478255024156974e6 1.5384207686378185e7 0.0
0.0 0.0 0.0

2.4843066589096603e6 6.844137544365027e6 0.0
6.844137544365027e6 -1.0370804086203625e7 0.0
0.0 0.0 0.0

424091.64396178257 2.0900878708127104e7 0.0
2.0900878708127104e7 -1.4210036885895096e7 0.0
0.0 0.0 0.0

-1.816064486910857e6 9.697289081603758e6 0.0
9.697289081603758e6 -3.772494728593397e6 0.0
0.0 0.0 0.0

358412.8710792371 4.917004474003348e7 0.0
4.917004474003348e7 2.313096600330868e6 0.0
0.0 0.0 0.0

1.2939239689332942e7 2.317693568973311e7 0.0
2.317693568973311e7 1.1679683525038451e7 0.0
0.0 0.0 0.0

-1.0241107249883686e6 9.00079280550947e6 0.0
9.00079280550947e6 -5.108923782132652e6 0.0
0.0 0.0 0.0

-5.577824867861e6 1.4883294026848264e7 0.0
1.4883294026848264e7 1.4620167403434224e7 0.0
0.0 0.0 0.0

1.7882331562637668e6 4.360576488076554e6 0.0
4.360576488076554e6 -6.724816624002204e6 0.0
0.0 0.0 0.0

-1.0537204558278173e7 9.374276070382128e6 0.0
9.374276070382128e6 3.221539895887962e7 0.0
0.0 0.0 0.0

-338619.8560756901 8.277650601583201e6 0.0
8.277650601583201e6 -6.467243545409953e6 0.0
0.0 0.0 0.0

-8.204928994801793e6 3.682678330610116e7 0.0
3.682678330610116e7 4.539287261766542e6 0.0
0.0 0.0 0.0

5.991373143085524e6 2.8899608022806346e7 0.0
2.8899608022806346e7 -5.457155253843676e6 0.0
0.0 0.0 0.0

3.348665765561601e6 6.564841854655333e6 0.0
6.564841854655333e6 -2.392532377475299e7 0.0
0.0 0.0 0.0

-576432.0577509212 2.1008293864927694e7 0.0
2.1008293864927694e7 -1.091838787339702e7 0.0
0.0 0.0 0.0

2.1454643149886057e6 7.67552282587066e6 0.0
7.67552282587066e6 -3.376217915783331e7 0.0
0.0 0.0 0.0

-2.4735580781020876e6 1.819841370261302e7 0.0
1.819841370261302e7 -4.705428583254865e6 0.0
0.0 0.0 0.0

2.9044694303380996e6 2.0906909176342856e7 0.0
2.0906909176342856e7 1.2851876421650868e7 0.0
0.0 0.0 0.0

8.905554757658161e6 2.9027900744634174e7 0.0
2.9027900744634174e7 -5.485520504044734e6 0.0
0.0 0.0 0.0

802634.3059674604 9.816030605288433e6 0.0
9.816030605288433e6 -7.695601580941651e6 0.0
0.0 0.0 0.0

2.342094619357541e6 8.82508968151832e6 0.0
8.82508968151832e6 -1.330638347983062e7 0.0
0.0 0.0 0.0

-761331.9542306702 1.256010376953023e7 0.0
1.256010376953023e7 -3.9688306648893906e6 0.0
0.0 0.0 0.0

-8.198343057679567e6 3.2104530885457467e7 0.0
3.2104530885457467e7 4.820011550702162e6 0.0
0.0 0.0 0.0

-3.7804330084006633e6 1.5838113373973526e7 0.0
1.5838113373973526e7 1.7046906450700648e6 0.0
0.0 0.0 0.0

7.947918366243592e6 3.407442652815613e7 0.0
3.407442652815613e7 -4.0012921680711224e6 0.0
0.0 0.0 0.0

-1.5214842056079363e6 1.7767150238239046e7 0.0
1.7767150238239046e7 -4.0083472430964937e6 0.0
0.0 0.0 0.0

5.75861295351848e6 1.9312023332321346e7 0.0
1.9312023332321346e7 2.5159723760112338e7 0.0
0.0 0.0 0.0

-5.181571955097995e6 2.2715135227515556e7 0.0
2.2715135227515556e7 -4.357254208060887e6 0.0
0.0 0.0 0.0

-1.2708579781672326e6 2.5853106036959488e7 0.0
2.5853106036959488e7 -966453.6400206349 0.0
0.0 0.0 0.0

-1.0267191998552969e6 2.0292053456245083e7 0.0
2.0292053456245083e7 -1.3889665862489734e7 0.0
0.0 0.0 0.0

-1.6822941701761726e6 1.4231862366144305e7 0.0
1.4231862366144305e7 -3.9706367659006394e7 0.0
0.0 0.0 0.0

-5.97416122408043e6 1.770082936664644e7 0.0
1.770082936664644e7 3.1786161797700636e7 0.0
0.0 0.0 0.0

500248.9790936336 1.1954668021631518e7 0.0
1.1954668021631518e7 -1.360323626490318e7 0.0
0.0 0.0 0.0

-1.085795748441802e7 9.913362653123092e6 0.0
9.913362653123092e6 2.9785651018826302e7 0.0
0.0 0.0 0.0

1.81849211754008e6 1.28484493786388e7 0.0
1.28484493786388e7 -2.7040351285600312e7 0.0
0.0 0.0 0.0

-2.165979036159902e6 1.3061066020204635e7 0.0
1.3061066020204635e7 -4.750463832617007e6 0.0
0.0 0.0 0.0

2.947148206277985e6 4.218102340564118e6 0.0
4.218102340564118e6 -1.3679001241297279e7 0.0
0.0 0.0 0.0

-3.1215120406401693e6 1.9676620924514785e7 0.0
1.9676620924514785e7 580812.0283853777 0.0
0.0 0.0 0.0

-2.66125853369561e6 2.497153091124669e7 0.0
2.497153091124669e7 1.8601039555259743e6 0.0
0.0 0.0 0.0

1.3303812535310471e6 2.980136913720822e7 0.0
2.980136913720822e7 -3.9733095254126526e6 0.0
0.0 0.0 0.0

-2.477288152297071e6 1.924616872018967e7 0.0
1.924616872018967e7 -4.375691381744009e6 0.0
0.0 0.0 0.0

2.472467120571615e6 6.087251770997185e6 0.0
6.087251770997185e6 -9.431990378070103e6 0.0
0.0 0.0 0.0

7.315104554073734e6 2.905452918782348e7 0.0
2.905452918782348e7 -5.497668373815092e6 0.0
0.0 0.0 0.0

-1.1095637463761616e7 1.157004736736885e7 0.0
1.157004736736885e7 2.3995779938517474e7 0.0
0.0 0.0 0.0

1.4981833525653165e6 7.584905472344856e6 0.0
7.584905472344856e6 -4.200078370097847e7 0.0
0.0 0.0 0.0

3.8661950539258905e6 2.2852445104312938e7 0.0
2.2852445104312938e7 1.2491170621209867e7 0.0
0.0 0.0 0.0

-3.262124828513339e6 2.771348176141734e7 0.0
2.771348176141734e7 4.024570183019039e6 0.0
0.0 0.0 0.0

-2.800080761274739e6 1.8795702284919523e7 0.0
1.8795702284919523e7 -1.2107739468015261e7 0.0
0.0 0.0 0.0

-4.1052350701469723e6 1.8245341215654355e7 0.0
1.8245341215654355e7 3.2741184253483202e7 0.0
0.0 0.0 0.0

-4.921905243851749e6 1.961322511066267e7 0.0
1.961322511066267e7 -1.6406350931502923e7 0.0
0.0 0.0 0.0

-453827.6512307646 1.3264337846397435e7 0.0
1.3264337846397435e7 -1.1038147771503517e7 0.0
0.0 0.0 0.0

2.064054586039526e6 1.9809909335765645e7 0.0
1.9809909335765645e7 1.720750819537799e7 0.0
0.0 0.0 0.0

494011.2063724757 4.570591908103689e7 0.0
4.570591908103689e7 1.8600296227723418e6 0.0
0.0 0.0 0.0

-3.902756595909307e6 2.272910473078939e7 0.0
2.272910473078939e7 -9.982707433602411e6 0.0
0.0 0.0 0.0

5.843490719244618e7 1.979358248407732e7 0.0
1.979358248407732e7 4.835459709235175e6 0.0
0.0 0.0 0.0

-2.1130967095193816e6 1.483380654672993e7 0.0
1.483380654672993e7 -5.65345348066357e6 0.0
0.0 0.0 0.0

-2.978865870943695e6 2.0126190310772333e7 0.0
2.0126190310772333e7 -648490.9138091523 0.0
0.0 0.0 0.0

813346.2111593066 1.5011441620083988e7 0.0
1.5011441620083988e7 -1.752066109590703e7 0.0
0.0 0.0 0.0

1.8022111410703256e6 3.043614398406906e7 0.0
3.043614398406906e7 -3.9558316724379603e6 0.0
0.0 0.0 0.0

2.2886595952130985e6 6.104347927431088e6 0.0
6.104347927431088e6 -3.6646883191670574e7 0.0
0.0 0.0 0.0

-159552.2257389715 8.836116567302598e6 0.0
8.836116567302598e6 -7.5611882380219875e6 0.0
0.0 0.0 0.0

1.447385725442906e6 1.1856803305264313e7 0.0
1.1856803305264313e7 -2.020657356874703e7 0.0
0.0 0.0 0.0

-3.918674166651113e6 2.2623206586744167e7 0.0
2.2623206586744167e7 1.4988567561673563e7 0.0
0.0 0.0 0.0

-2.3860441763220057e6 2.124421867753347e7 0.0
2.124421867753347e7 -3.767139407402791e6 0.0
0.0 0.0 0.0

345601.2992227981 1.9804864292995404e7 0.0
1.9804864292995404e7 5.887043357776324e6 0.0
0.0 0.0 0.0

-1.1527541454062748e6 1.3792879754957635e7 0.0
1.3792879754957635e7 -3.6780286351916934e6 0.0
0.0 0.0 0.0

-1.6442581912345493e6 1.9868594926277388e7 0.0
1.9868594926277388e7 -3.412113402786223e6 0.0
0.0 0.0 0.0

2.1139832058072775e6 2.0381145799041346e7 0.0
2.0381145799041346e7 -4.333384408666725e6 0.0
0.0 0.0 0.0

1.026021091825309e6 4.3241821919549465e7 0.0
4.3241821919549465e7 1.8161688349847225e6 0.0
0.0 0.0 0.0

-1.6290339639299172e6 2.085888826758335e7 0.0
2.085888826758335e7 -3.1345885398767837e6 0.0
0.0 0.0 0.0

-3.3595186722859023e6 7.069497540038988e6 0.0
7.069497540038988e6 5.869900255203906e6 0.0
0.0 0.0 0.0

2.747312902260453e7 1.3667529755982596e7 0.0
1.3667529755982596e7 1.6300475851928713e6 0.0
0.0 0.0 0.0

-337215.4651011266 1.0024986706701225e7 0.0
1.0024986706701225e7 -5.211489779087498e7 0.0
0.0 0.0 0.0

-1.8713694780551428e6 2.5811916045594394e7 0.0
2.5811916045594394e7 1.793745590273873e6 0.0
0.0 0.0 0.0

-5.453287081064245e6 8.274735017126378e6 0.0
8.274735017126378e6 1.0125155623119231e7 0.0
0.0 0.0 0.0

-1.5929607706931017e6 1.4217719439029045e7 0.0
1.4217719439029045e7 -7.020436206807555e6 0.0
0.0 0.0 0.0

-64638.30880799331 1.2106322829951048e7 0.0
1.2106322829951048e7 -1.1408268916114148e7 0.0
0.0 0.0 0.0

938377.5003466962 4.117741966865467e7 0.0
4.117741966865467e7 1.0916364696521678e6 0.0
0.0 0.0 0.0

1.6108120591414124e6 1.0579315437282141e7 0.0
1.0579315437282141e7 -3.1739487581043452e7 0.0
0.0 0.0 0.0

-1.1558685851437805e7 5.201677383456035e6 0.0
5.201677383456035e6 2.533045028156846e7 0.0
0.0 0.0 0.0

-5.393612037146023e6 2.205852116335482e7 0.0
2.205852116335482e7 -1.3140131367722262e7 0.0
0.0 0.0 0.0

-7.645357859251652e6 7.276374248117509e6 0.0
7.276374248117509e6 1.3991512574334493e7 0.0
0.0 0.0 0.0

-1.5157641387826602e6 1.9577402497011535e7 0.0
1.9577402497011535e7 -8.619424273655798e6 0.0
0.0 0.0 0.0

-2.6820564665541765e6 2.1458066812018164e7 0.0
2.1458066812018164e7 -1.5095941762887412e6 0.0
0.0 0.0 0.0

630411.336482523 1.641556389739962e7 0.0
1.641556389739962e7 -2.182994566186912e7 0.0
0.0 0.0 0.0

578180.0501073159 3.946483900162913e7 0.0
3.946483900162913e7 786471.776135213 0.0
0.0 0.0 0.0

-3.833685249258817e6 2.3300534817333452e7 0.0
2.3300534817333452e7 1.35127705255263e7 0.0
0.0 0.0 0.0

-1.5845194585204516e6 2.1813563443140503e7 0.0
2.1813563443140503e7 -2.8850908180483193e6 0.0
0.0 0.0 0.0

2.187685577916613e6 6.894302522667784e6 0.0
6.894302522667784e6 -3.531099317742966e7 0.0
0.0 0.0 0.0

-3.7706484481391544e6 1.0855317959897246e7 0.0
1.0855317959897246e7 6.2377236623452185e6 0.0
0.0 0.0 0.0

774879.7943763285 3.812520387641811e7 0.0
3.812520387641811e7 819465.3332970643 0.0
0.0 0.0 0.0

776929.7852644026 9.013870810243415e6 0.0
9.013870810243415e6 -5.489429118720419e7 0.0
0.0 0.0 0.0

828299.8858863241 3.700463684969524e7 0.0
3.700463684969524e7 676144.615403772 0.0
0.0 0.0 0.0

688660.1787413065 3.597577783280463e7 0.0
3.597577783280463e7 422208.87900327344 0.0
0.0 0.0 0.0

-1.5813099420905258e6 2.846457815159919e7 0.0
2.846457815159919e7 -910419.2152340123 0.0
0.0 0.0 0.0

-1.4806232682929256e6 2.914421537041719e7 0.0
2.914421537041719e7 -747858.2009553015 0.0
0.0 0.0 0.0

-1.423889391681697e6 2.9816303524493415e7 0.0
2.9816303524493415e7 -634302.4546075624 0.0
0.0 0.0 0.0

-1.3547295639716492e6 3.0454027084220555e7 0.0
3.0454027084220555e7 -599943.7518120031 0.0
0.0 0.0 0.0

-1.3145401304711667e6 3.1098372392645534e7 0.0
3.1098372392645534e7 -505122.6960829263 0.0
0.0 0.0 0.0

-1.2817045314313178e6 3.1776334076279514e7 0.0
3.1776334076279514e7 -536997.7554339096 0.0
0.0 0.0 0.0

-6.044370035828041e6 1.476855275754834e7 0.0
1.476855275754834e7 9.92042726895464e6 0.0
0.0 0.0 0.0

-1.1401857099740147e6 3.2446475779608093e7 0.0
3.2446475779608093e7 -434200.89528956916 0.0
0.0 0.0 0.0

-1.2339942240616905e6 3.3163749527981196e7 0.0
3.3163749527981196e7 -410123.1678772875 0.0
0.0 0.0 0.0

-7.569088904571492e6 1.7349879122351676e7 0.0
1.7349879122351676e7 2.2338763473820392e7 0.0
0.0 0.0 0.0

523820.1215165438 3.50604304904532e7 0.0
3.50604304904532e7 391239.24439227144 0.0
0.0 0.0 0.0

-1.3587840364763513e6 3.3828742864820175e7 0.0
3.3828742864820175e7 -362603.81557906466 0.0
0.0 0.0 0.0

-1.2376955717062936e6 3.465811051768453e7 0.0
3.465811051768453e7 -226589.13758971795 0.0
0.0 0.0 0.0

409465.08465744206 3.4265762573653065e7 0.0
3.4265762573653065e7 321564.7770005969 0.0
0.0 0.0 0.0

-1.3929695018851706e6 1.6661017739966894e7 0.0
1.6661017739966894e7 -4.304133250485126e6 0.0
0.0 0.0 0.0

-1.4357488811675091e6 3.553297857763477e7 0.0
3.553297857763477e7 -272180.9396976087 0.0
0.0 0.0 0.0

73562.52546213205 3.3473988906812817e7 0.0
3.3473988906812817e7 111353.55006154407 0.0
0.0 0.0 0.0

253547.65223504108 3.275936392944747e7 0.0
3.275936392944747e7 115782.10421305068 0.0
0.0 0.0 0.0

-18974.98301892764 3.2141252007366717e7 0.0
3.2141252007366717e7 43085.10996103556 0.0
0.0 0.0 0.0

-263692.49534978083 3.142584894741289e7 0.0
3.142584894741289e7 7635.909191399012 0.0
0.0 0.0 0.0

-361422.17732749943 3.0803136818420295e7 0.0
3.0803136818420295e7 -54628.09524269233 0.0
0.0 0.0 0.0

-604153.8418806244 3.014681104603761e7 0.0
3.014681104603761e7 -110811.6179666723 0.0
0.0 0.0 0.0

-649573.6523422581 2.9515557845295988e7 0.0
2.9515557845295988e7 -160513.2205975953 0.0
0.0 0.0 0.0

-753940.3195193934 2.885424545871695e7 0.0
2.885424545871695e7 -289398.49126155186 0.0
0.0 0.0 0.0

-1.788079794145985e6 2.4270433250052802e7 0.0
2.4270433250052802e7 -3.8425034242861653e6 0.0
0.0 0.0 0.0

-5.812507697980912e6 1.82033843673446e7 0.0
1.82033843673446e7 3.003851189341214e7 0.0
0.0 0.0 0.0

-1.7394293097389594e6 3.643996173924956e7 0.0
3.643996173924956e7 -208703.11622618826 0.0
0.0 0.0 0.0

2.2959273470069934e6 8.449342432186488e6 0.0
8.449342432186488e6 -2.4270257837706245e7 0.0
0.0 0.0 0.0

-2.1189527976845913e6 2.375254270900342e7 0.0
2.375254270900342e7 2.5023940419584783e6 0.0
0.0 0.0 0.0

-2.20865345551215e6 3.756032391007202e7 0.0
3.756032391007202e7 -65135.730034695356 0.0
0.0 0.0 0.0

-1.0668325811478253e7 1.2770684425769087e7 0.0
1.2770684425769087e7 2.2954040511506792e7 0.0
0.0 0.0 0.0

-2.8758792838657727e6 3.885094735056524e7 0.0
3.885094735056524e7 -137961.07679814135 0.0
0.0 0.0 0.0

-1.1132827916211098e7 1.1096671012860896e7 0.0
1.1096671012860896e7 2.5763319831723116e7 0.0
0.0 0.0 0.0

-3.73085724711617e6 4.027783481221577e7 0.0
4.027783481221577e7 -272090.03377272584 0.0
0.0 0.0 0.0

379241.8481608033 1.945771576631304e7 0.0
1.945771576631304e7 -1.6743098355158031e7 0.0
0.0 0.0 0.0

2.2053108380017653e6 1.140233248566697e7 0.0
1.140233248566697e7 -1.948062777049417e7 0.0
0.0 0.0 0.0

-1.3116517502834704e6 1.443629418845086e7 0.0
1.443629418845086e7 -3.6855110805312544e7 0.0
0.0 0.0 0.0

-1.7945804022384882e6 2.1472231015438292e7 0.0
2.1472231015438292e7 -1.8701578512825863e6 0.0
0.0 0.0 0.0

-1.1912798161498113e6 1.6586366651999684e7 0.0
1.6586366651999684e7 -9.844008201008935e6 0.0
0.0 0.0 0.0

-1.5138657673808252e6 2.300057702305212e7 0.0
2.300057702305212e7 -6.191722816386615e6 0.0
0.0 0.0 0.0

352423.214883578 1.9671203793388832e7 0.0
1.9671203793388832e7 -1.6739004915445484e7 0.0
0.0 0.0 0.0

3.5447623510908857e6 2.0272958640993107e6 0.0
2.0272958640993107e6 -2.9824539006829947e7 0.0
0.0 0.0 0.0

-3.572863202073686e6 1.3881769798152348e7 0.0
1.3881769798152348e7 6.121560964717143e6 0.0
0.0 0.0 0.0

-4.677153525705395e6 4.2059242362095274e7 0.0
4.2059242362095274e7 -34243.2287730407 0.0
0.0 0.0 0.0

1.8480168375750706e6 1.2294641134472735e7 0.0
1.2294641134472735e7 -1.6390010995697431e7 0.0
0.0 0.0 0.0

-1.0820494929875666e7 1.1418246552384496e7 0.0
1.1418246552384496e7 2.8539585979594264e7 0.0
0.0 0.0 0.0

-1.6026448706887388e6 1.8839822322581217e7 0.0
1.8839822322581217e7 -3.714456763578733e6 0.0
0.0 0.0 0.0

450002.6526213081 3.1194289958150852e7 0.0
3.1194289958150852e7 -1.5091738306143982e6 0.0
0.0 0.0 0.0

2.446753374032302e6 7.6627793465435235e6 0.0
7.6627793465435235e6 -2.5544222513059665e7 0.0
0.0 0.0 0.0

-1.2131962977129595e7 3.715676236617205e7 0.0
3.715676236617205e7 4.730258431400048e6 0.0
0.0 0.0 0.0

-5.599433484923924e6 1.6561295648635654e7 0.0
1.6561295648635654e7 1.1162480839419965e7 0.0
0.0 0.0 0.0

-1.693398201139902e7 2.76942458208074e7 0.0
2.76942458208074e7 3.4754064437823417e6 0.0
0.0 0.0 0.0

2.501570554084227e6 1.9263408108604334e7 0.0
1.9263408108604334e7 1.4899376249119094e7 0.0
0.0 0.0 0.0

-6.798457518477091e6 4.456488962008754e7 0.0
4.456488962008754e7 74519.48751258384 0.0
0.0 0.0 0.0

1.2896172191554736e6 1.1910039484707296e7 0.0
1.1910039484707296e7 -3.0578750797980074e7 0.0
0.0 0.0 0.0

-4.5113860419127485e6 1.6393793404966287e7 0.0
1.6393793404966287e7 6.410930299672539e6 0.0
0.0 0.0 0.0

1.4110737374347914e6 1.8225500040600378e7 0.0
1.8225500040600378e7 4.703579586586724e6 0.0
0.0 0.0 0.0

2.0044439626237666e6 9.42167724864496e6 0.0
9.42167724864496e6 -2.113238181653188e7 0.0
0.0 0.0 0.0

1.050915215045275e6 2.1099819688357454e7 0.0
2.1099819688357454e7 4.255293084774329e6 0.0
0.0 0.0 0.0

2.1525359182818895e6 9.235444150764978e6 0.0
9.235444150764978e6 -2.3039037618386272e7 0.0
0.0 0.0 0.0

-135069.6985883048 1.7153698891026367e7 0.0
1.7153698891026367e7 -2.924938768651055e6 0.0
0.0 0.0 0.0

-1.9279600472614707e6 2.2029402084914707e7 0.0
2.2029402084914707e7 -633456.8508515419 0.0
0.0 0.0 0.0

-2.3027040094305035e6 2.2185105929365057e7 0.0
2.2185105929365057e7 -3.4932093884906904e6 0.0
0.0 0.0 0.0

1.6033990515828049e6 9.835644992275506e6 0.0
9.835644992275506e6 -1.711070703042261e7 0.0
0.0 0.0 0.0

2.6272654292465724e7 2.3568644389076404e7 0.0
2.3568644389076404e7 1.0178954665737009e7 0.0
0.0 0.0 0.0

1.4969037202829337e6 1.3379708131471658e7 0.0
1.3379708131471658e7 -1.60055990793989e7 0.0
0.0 0.0 0.0

-575709.2489011884 1.6856284207315724e7 0.0
1.6856284207315724e7 -7.866146893503361e6 0.0
0.0 0.0 0.0

-5.490994580888702e6 2.3697300343158334e7 0.0
2.3697300343158334e7 6.769876539783556e6 0.0
0.0 0.0 0.0

592381.1981898956 1.2313543669488275e7 0.0
1.2313543669488275e7 -9.337837867315631e6 0.0
0.0 0.0 0.0

-3.925810789060346e6 2.4015651313718062e7 0.0
2.4015651313718062e7 1.1959929269168466e7 0.0
0.0 0.0 0.0

4.773738069721549e6 1.8457043487138204e7 0.0
1.8457043487138204e7 2.637577388803432e7 0.0
0.0 0.0 0.0

-8.7363746265678e6 1.3896485319561401e7 0.0
1.3896485319561401e7 1.951874659122849e7 0.0
0.0 0.0 0.0

-9.99744730390904e6 4.7432067317193784e7 0.0
4.7432067317193784e7 -391702.43281588284 0.0
0.0 0.0 0.0

1.200409914339833e6 1.8582293292477805e7 0.0
1.8582293292477805e7 4.338280270281101e7 0.0
0.0 0.0 0.0

-3.2030400891585317e6 1.6884617705499128e7 0.0
1.6884617705499128e7 -1.1195225883874502e6 0.0
0.0 0.0 0.0

1.1260042874211833e7 2.108013184664402e7 0.0
2.108013184664402e7 3.7102510551111368e6 0.0
0.0 0.0 0.0

2.575407727662487e6 7.112669190070701e6 0.0
7.112669190070701e6 -2.882378520806847e7 0.0
0.0 0.0 0.0

606126.2610006984 1.2166237502503928e7 0.0
1.2166237502503928e7 -3.488722836749829e7 0.0
0.0 0.0 0.0

-4.565682158248241e6 1.9601469247330062e7 0.0
1.9601469247330062e7 1.263625098030184e7 0.0
0.0 0.0 0.0

-1.4617709209719881e7 2.630704923050414e7 0.0
2.630704923050414e7 -1.0664754634220231e7 0.0
0.0 0.0 0.0

-2.4069386603723792e6 1.9204547829384916e7 0.0
1.9204547829384916e7 1.3710378961581208e6 0.0
0.0 0.0 0.0

-304521.92114000814 1.710104785444677e7 0.0
1.710104785444677e7 -1.3514090636941895e7 0.0
0.0 0.0 0.0

-1.6213744896985264e7 3.5573516952900775e7 0.0
3.5573516952900775e7 6.137999798692027e6 0.0
0.0 0.0 0.0

1.4047291597866062e6 1.233361659210742e7 0.0
1.233361659210742e7 -2.0904964345159445e7 0.0
0.0 0.0 0.0

-2.3464098927608225e6 2.0230446446944736e7 0.0
2.0230446446944736e7 1.442395360494575e6 0.0
0.0 0.0 0.0

-4.52427659949217e6 9.6845045814137e6 0.0
9.6845045814137e6 8.173723557441931e6 0.0
0.0 0.0 0.0

-3.216674046461538e6 1.931130543597761e7 0.0
1.931130543597761e7 1.0851705599015271e7 0.0
0.0 0.0 0.0

-5.53196023360913e6 7.230274539770567e7 0.0
7.230274539770567e7 2.5030374034207454e6 0.0
0.0 0.0 0.0

-7.338480493384246e6 1.4636476160720123e7 0.0
1.4636476160720123e7 1.7902591679585412e7 0.0
0.0 0.0 0.0

-4.363827350432133e6 7.366305972958344e6 0.0
7.366305972958344e6 2.4729485805278914e6 0.0
0.0 0.0 0.0

-1.6261481475934116e6 2.3327550411107186e7 0.0
2.3327550411107186e7 -1.436523355527906e6 0.0
0.0 0.0 0.0

-2.869968554323759e6 2.31871012564447e7 0.0
2.31871012564447e7 4.027165162987403e6 0.0
0.0 0.0 0.0

-496715.56688917056 2.04605186654217e7 0.0
2.04605186654217e7 -8.49114633039018e6 0.0
0.0 0.0 0.0

-2.3959167482394753e6 2.278631893281225e7 0.0
2.278631893281225e7 -2.273114367934079e6 0.0
0.0 0.0 0.0

-9.776566358535307e6 1.9539968684115866e6 0.0
1.9539968684115866e6 1.60850813441029e7 0.0
0.0 0.0 0.0

-92047.45773533266 1.9178444230854396e7 0.0
1.9178444230854396e7 -4.429152529144661e6 0.0
0.0 0.0 0.0

-2.909969228772643e6 2.4037668055991393e7 0.0
2.4037668055991393e7 4.060846884027833e6 0.0
0.0 0.0 0.0

896354.1285153795 1.1255711846335428e7 0.0
1.1255711846335428e7 -1.4786272196935311e7 0.0
0.0 0.0 0.0

697235.1506032709 1.963518266277016e7 0.0
1.963518266277016e7 -3.3335257249390148e6 0.0
0.0 0.0 0.0

-1.999880103984605e7 2.6531979075982857e7 0.0
2.6531979075982857e7 942481.3800614551 0.0
0.0 0.0 0.0

-5.8487805542085655e6 1.5349680086655766e7 0.0
1.5349680086655766e7 1.599907442384125e7 0.0
0.0 0.0 0.0

366211.87087162584 1.8880497216156967e7 0.0
1.8880497216156967e7 -1.8017559424886994e7 0.0
0.0 0.0 0.0

-3.104195296047135e6 2.4462826515777227e7 0.0
2.4462826515777227e7 6.220342776305789e6 0.0
0.0 0.0 0.0

3.51245559892291e6 2.5827167311996687e6 0.0
2.5827167311996687e6 -1.595650785273267e7 0.0
0.0 0.0 0.0

-4.621534488222399e6 -3.4726303552620686e6 0.0
-3.4726303552620686e6 6.406432114598615e6 0.0
0.0 0.0 0.0

-3.0975355522468397e6 -2.188825385488779e6 0.0
-2.188825385488779e6 4.1880534992835075e6 0.0
0.0 0.0 0.0

-8.670043803412743e6 -3.9410301795603335e6 0.0
-3.9410301795603335e6 2.893122970034411e7 0.0
0.0 0.0 0.0

-2.0806003915839007e6 -300188.03774104675 0.0
-300188.03774104675 1.775191743879884e6 0.0
0.0 0.0 0.0

-8.582627543819332e6 -4.361370079075692e6 0.0
-4.361370079075692e6 2.645185844237082e7 0.0
0.0 0.0 0.0

3.486401308896984e6 2.761069502424945e6 0.0
2.761069502424945e6 -1.236743129227662e7 0.0
0.0 0.0 0.0

-5.899702237884134e6 -5.86948589077936e6 0.0
-5.86948589077936e6 1.2466504975612124e7 0.0
0.0 0.0 0.0

-8.049125399938731e6 -5.875973667466502e6 0.0
-5.875973667466502e6 1.9119283151955467e7 0.0
0.0 0.0 0.0

-213536.51293494008 1.5597575515602794e6 0.0
1.5597575515602794e6 -1.2259756810129336e6 0.0
0.0 0.0 0.0

-8.55162537373669e6 -4.920065094638818e6 0.0
-4.920065094638818e6 2.3870981321410056e7 0.0
0.0 0.0 0.0

2.7951063256034986e6 2.880523270656082e6 0.0
2.880523270656082e6 -8.663031792004112e6 0.0
0.0 0.0 0.0

1.6623695651547615e6 2.697755169786302e6 0.0
2.697755169786302e6 -5.004203591827842e6 0.0
0.0 0.0 0.0

-4.550042390515463e6 -4.476792495516112e6 0.0
-4.476792495516112e6 7.930745276578556e6 0.0
0.0 0.0 0.0

3.6758529837957304e6 2.107918223587166e6 0.0
2.107918223587166e6 -2.6789526695372537e7 0.0
0.0 0.0 0.0

3.6939229207425695e6 2.0191546141568867e6 0.0
2.0191546141568867e6 -2.907143767090202e7 0.0
0.0 0.0 0.0

3.738758479571009e6 2.138439915107233e6 0.0
2.138439915107233e6 -2.449017462264875e7 0.0
0.0 0.0 0.0

3.9542997943809796e6 2.3811833792861328e6 0.0
2.3811833792861328e6 -2.0931849278398655e7 0.0
0.0 0.0 0.0

-5.892194283752831e6 -5.290566210780127e6 0.0
-5.290566210780127e6 1.0682326398452025e7 0.0
0.0 0.0 0.0

-8.410505851552324e6 -4.588808292977369e6 0.0
-4.588808292977369e6 2.5055535674659256e7 0.0
0.0 0.0 0.0

3.6866497143882103e6 2.1145788739381423e6 0.0
2.1145788739381423e6 -2.803721266541217e7 0.0
0.0 0.0 0.0

3.5698434100143034e6 2.495156288275385e6 0.0
2.495156288275385e6 -1.8452038044200342e7 0.0
0.0 0.0 0.0

3.7356627298936453e6 2.4485324054342224e6 0.0
2.4485324054342224e6 -1.9672301587752253e7 0.0
0.0 0.0 0.0

3.728307268254037e6 2.5230190100020412e6 0.0
2.5230190100020412e6 -1.730822937032401e7 0.0
0.0 0.0 0.0

951896.5217501326 1.725953993555297e7 0.0
1.725953993555297e7 -1.624236657991021e7 0.0
0.0 0.0 0.0

-9.881801518072084e6 1.3719004786092106e7 0.0
1.3719004786092106e7 2.1875894214973126e7 0.0
0.0 0.0 0.0

-1.1521731890823655e7 8.449525375979349e6 0.0
8.449525375979349e6 2.793060376984353e7 0.0
0.0 0.0 0.0

-3.9091226744665178e6 2.479221860851875e7 0.0
2.479221860851875e7 1.0644332794933792e7 0.0
0.0 0.0 0.0

-1.2959907344754795e6 1.7226190518428784e7 0.0
1.7226190518428784e7 -2.552286428258179e7 0.0
0.0 0.0 0.0

-3.351690886236445e6 2.0354347333074898e7 0.0
2.0354347333074898e7 4.261035705962138e6 0.0
0.0 0.0 0.0

-1.5090715025862914e7 5.1612057115391634e7 0.0
5.1612057115391634e7 -859161.9837604272 0.0
0.0 0.0 0.0

-3.1432366790944673e6 1.8010591538033493e7 0.0
1.8010591538033493e7 -939823.266456376 0.0
0.0 0.0 0.0

-5.066051575260383e6 2.0809396839928478e7 0.0
2.0809396839928478e7 -1.5231442874966908e7 0.0
0.0 0.0 0.0

1.006626212078909e7 2.3284638643633522e7 0.0
2.3284638643633522e7 1.1622120084971584e7 0.0
0.0 0.0 0.0

-2.892324192486544e6 2.1525815948540375e7 0.0
2.1525815948540375e7 8.984783115232548e6 0.0
0.0 0.0 0.0

-2.9770081027959343e6 2.0343545494383227e7 0.0
2.0343545494383227e7 1.0373179702069456e7 0.0
0.0 0.0 0.0

816921.6117144059 2.143730024910384e7 0.0
2.143730024910384e7 -1.3032389920257678e7 0.0
0.0 0.0 0.0

-3.6618358419451118e6 1.856968435809456e7 0.0
1.856968435809456e7 1.2631312162705516e7 0.0
0.0 0.0 0.0

-2.4199751445005513e6 2.337058756206723e7 0.0
2.337058756206723e7 -1.1763289150880238e6 0.0
0.0 0.0 0.0

-2.158544653621631e6 2.1563797365238156e7 0.0
2.1563797365238156e7 -4.739230490001397e6 0.0
0.0 0.0 0.0

-6.397441737382308e6 1.5241562460911686e7 0.0
1.5241562460911686e7 1.1675073559104318e7 0.0
0.0 0.0 0.0

-797742.9592553223 1.5944166973045006e7 0.0
1.5944166973045006e7 -1.1163661093449356e7 0.0
0.0 0.0 0.0

-2.5950048057151027e6 1.8716863112138804e7 0.0
1.8716863112138804e7 2.687186226737057e6 0.0
0.0 0.0 0.0

1.2697517068341067e6 1.055668067767819e7 0.0
1.055668067767819e7 -1.5932335502776798e7 0.0
0.0 0.0 0.0

-3.856799660028593e6 -4.0247769038461847e6 0.0
-4.0247769038461847e6 9.56895478904634e6 0.0
0.0 0.0 0.0

-3.0991297579817143e6 -2.5387080173233016e6 0.0
-2.5387080173233016e6 7.703464842241972e6 0.0
0.0 0.0 0.0

-8.717262428929742e6 -4.8127723102001725e6 0.0
-4.8127723102001725e6 2.3697701290973924e7 0.0
0.0 0.0 0.0

-4.578946009546233e6 -4.53422097368828e6 0.0
-4.53422097368828e6 1.1297338080945687e7 0.0
0.0 0.0 0.0

-5.479096452642202e6 -5.622817722157346e6 0.0
-5.622817722157346e6 1.2757921478601903e7 0.0
0.0 0.0 0.0

3.6200280978136677e6 2.0735104491462314e6 0.0
2.0735104491462314e6 -2.6977131544238843e7 0.0
0.0 0.0 0.0

3.5643793431037758e6 2.0206768843189077e6 0.0
2.0206768843189077e6 -2.7909785201359037e7 0.0
0.0 0.0 0.0

-8.621688314167853e6 -4.468500217969069e6 0.0
-4.468500217969069e6 2.528989647413325e7 0.0
0.0 0.0 0.0

3.69114893948517e6 2.436831595948511e6 0.0
2.436831595948511e6 -2.020914968897551e7 0.0
0.0 0.0 0.0

3.679539340832739e6 2.646836874568954e6 0.0
2.646836874568954e6 -1.6269121350260846e7 0.0
0.0 0.0 0.0

3.6716771046145568e6 2.5321283418596443e6 0.0
2.5321283418596443e6 -1.8554913043732762e7 0.0
0.0 0.0 0.0

3.693798567088955e6 2.4980354482984934e6 0.0
2.4980354482984934e6 -1.7392289898244016e7 0.0
0.0 0.0 0.0

-3.6334655210849503e6 1.7028355224842057e7 0.0
1.7028355224842057e7 1.754550062102101e6 0.0
0.0 0.0 0.0

-5.724392701324362e6 1.8665458658317763e7 0.0
1.8665458658317763e7 2.8318402470863156e7 0.0
0.0 0.0 0.0

-4.53420662546718e6 1.82048077636474e7 0.0
1.82048077636474e7 1.571260445531569e7 0.0
0.0 0.0 0.0

3.486288586176309e6 5.896262878107796e6 0.0
5.896262878107796e6 -2.3632434155973997e7 0.0
0.0 0.0 0.0

-549267.6082502061 2.5841486294861086e7 0.0
2.5841486294861086e7 -5.26494323162735e6 0.0
0.0 0.0 0.0

-814066.7916077897 2.0627232363744523e7 0.0
2.0627232363744523e7 2.2091485287624966e7 0.0
0.0 0.0 0.0

-1.014160756046692e7 1.553203710582428e7 0.0
1.553203710582428e7 2.368324815870256e7 0.0
0.0 0.0 0.0

1.7889981897245785e6 1.0158180169222318e7 0.0
1.0158180169222318e7 -1.9909485439908087e7 0.0
0.0 0.0 0.0

1.3779117207335522e6 1.2789305003816236e7 0.0
1.2789305003816236e7 -2.146434490949747e7 0.0
0.0 0.0 0.0

-2.223662419762921e6 2.0608656926181406e7 0.0
2.0608656926181406e7 -5.056787116185608e6 0.0
0.0 0.0 0.0

-1.7106928825330622e6 2.0294161830660813e7 0.0
2.0294161830660813e7 2.463160473781042e7 0.0
0.0 0.0 0.0

-3.7151929176325165e6 1.2452697644823724e7 0.0
1.2452697644823724e7 6.203223960019326e6 0.0
0.0 0.0 0.0

-692953.1408001427 2.1129700067202732e7 0.0
2.1129700067202732e7 -7.256151180615353e6 0.0
0.0 0.0 0.0

-1.5261551895923335e6 2.557843694304417e7 0.0
2.557843694304417e7 -31309.13419219415 0.0
0.0 0.0 0.0

1.1278915945648486e6 1.4405606504405778e7 0.0
1.4405606504405778e7 -1.5783595191645449e7 0.0
0.0 0.0 0.0

-1.731740474294979e6 2.240813777356119e7 0.0
2.240813777356119e7 -1.6462786536308576e6 0.0
0.0 0.0 0.0

2.6789346072200276e6 4.378471193280301e6 0.0
4.378471193280301e6 1.1690735793016236e6 0.0
0.0 0.0 0.0

-2.1667934932756945e6 2.0590582147032052e7 0.0
2.0590582147032052e7 2.3273283045515135e7 0.0
0.0 0.0 0.0

730577.24459498 1.0926981497394888e7 0.0
1.0926981497394888e7 -4.132450637834704e7 0.0
0.0 0.0 0.0

1.0102426751791406e6 1.1971439585447347e7 0.0
1.1971439585447347e7 -3.272126614617436e7 0.0
0.0 0.0 0.0

-693726.2613450924 2.018246701834934e7 0.0
2.018246701834934e7 -7.653937743187771e6 0.0
0.0 0.0 0.0

-1.0056857719893206e7 2.536973723383779e7 0.0
2.536973723383779e7 5.028306638916723e6 0.0
0.0 0.0 0.0

2.796967888190819e6 6.7029155281386e6 0.0
6.7029155281386e6 -1.2502413972035298e7 0.0
0.0 0.0 0.0

-2.45959309061277e6 1.814396111992394e7 0.0
1.814396111992394e7 1.309556408980846e6 0.0
0.0 0.0 0.0

-2.512895693715717e6 2.1850855239861775e7 0.0
2.1850855239861775e7 -2.5056310976103563e6 0.0
0.0 0.0 0.0

-1.4985699419472967e6 2.2747348613639336e7 0.0
2.2747348613639336e7 -2.623443637477867e6 0.0
0.0 0.0 0.0

-1.5860301152333077e6 1.724735257223451e7 0.0
1.724735257223451e7 -2.793691440837119e7 0.0
0.0 0.0 0.0

1.3436441419209093e6 1.2535130804992322e7 0.0
1.2535130804992322e7 -2.7134387239238095e7 0.0
0.0 0.0 0.0

-4.974764083675342e6 1.3154475148532428e7 0.0
1.3154475148532428e7 5.0172643044867385e6 0.0
0.0 0.0 0.0

-4.458981674655214e6 1.9249194098546024e7 0.0
1.9249194098546024e7 1.1445829925364962e7 0.0
0.0 0.0 0.0

44282.356548182666 1.55803304500707e7 0.0
1.55803304500707e7 -2.869996658662574e7 0.0
0.0 0.0 0.0

-718303.9179088713 2.357048842135344e7 0.0
2.357048842135344e7 -5.306386934203746e6 0.0
0.0 0.0 0.0

2.1496929135188176e6 2.751104568942536e6 0.0
2.751104568942536e6 -6.287890230304505e6 0.0
0.0 0.0 0.0

6.235190268812831e6 3.351566775703368e7 0.0
3.351566775703368e7 -3.6567956190230683e6 0.0
0.0 0.0 0.0

2.405074707032642e6 7.560510000714408e6 0.0
7.560510000714408e6 -1.1456637604432775e7 0.0
0.0 0.0 0.0

-1.1923854111702696e6 1.5512733251471004e7 0.0
1.5512733251471004e7 -4.594226186473847e6 0.0
0.0 0.0 0.0

-4.017991151322365e6 2.2061338796873603e7 0.0
2.2061338796873603e7 1.3254400325350065e7 0.0
0.0 0.0 0.0

-2.7642225249185963e6 1.5241691354629967e7 0.0
1.5241691354629967e7 2.7001894639074346e6 0.0
0.0 0.0 0.0

-2.9427123588800617e6 1.734057624250247e7 0.0
1.734057624250247e7 -2.3902739784685452e6 0.0
0.0 0.0 0.0

-2.5893873417928787e6 2.2412444174864855e7 0.0
2.2412444174864855e7 -1.2912899243447674e6 0.0
0.0 0.0 0.0

-5.272585853947885e6 1.1628876416025128e7 0.0
1.1628876416025128e7 4.952380816082645e6 0.0
0.0 0.0 0.0

-9.027242422932118e6 -11374.834167925865 0.0
-11374.834167925865 1.543798945922051e7 0.0
0.0 0.0 0.0

-3.54023845941645e6 1.8210603103704404e7 0.0
1.8210603103704404e7 1.1357537732374173e7 0.0
0.0 0.0 0.0

-2.7033774448253475e6 2.0272645503758214e7 0.0
2.0272645503758214e7 6.432089791870627e6 0.0
0.0 0.0 0.0

235900.80423073098 7.507500247826949e6 0.0
7.507500247826949e6 -7.63639776429669e6 0.0
0.0 0.0 0.0

-4.818131377352509e6 1.623790206551751e7 0.0
1.623790206551751e7 1.389527444535676e7 0.0
0.0 0.0 0.0

-2.18310557024535e6 2.311782555858395e7 0.0
2.311782555858395e7 -3.239069563753004e6 0.0
0.0 0.0 0.0

2.67794029768941e6 9.506589340136725e6 0.0
9.506589340136725e6 -2.8510360255183652e7 0.0
0.0 0.0 0.0

-9.13917681879078e6 2.5648946589416735e7 0.0
2.5648946589416735e7 4.25085552563641e6 0.0
0.0 0.0 0.0

-2.2574818293378227e6 1.96145130854604e7 0.0
1.96145130854604e7 -5.392701941032916e6 0.0
0.0 0.0 0.0

1.9043735939866311e6 2.8292426975440853e6 0.0
2.8292426975440853e6 -5.308835454285156e6 0.0
0.0 0.0 0.0

-4.257273171074774e6 2.6990070148808476e7 0.0
2.6990070148808476e7 7.2152717016027365e6 0.0
0.0 0.0 0.0

-1.1950653434565075e7 1.074091399301829e7 0.0
1.074091399301829e7 2.0406363271704696e7 0.0
0.0 0.0 0.0

-2.69579016379619e6 1.8858080006127324e7 0.0
1.8858080006127324e7 -3.321623735927607e6 0.0
0.0 0.0 0.0

-1.2777854937693174e6 2.449946213615914e7 0.0
2.449946213615914e7 -2.2074573651628313e6 0.0
0.0 0.0 0.0

-2.2433477299966747e6 2.513997261559571e7 0.0
2.513997261559571e7 -780990.1752927967 0.0
0.0 0.0 0.0

-2.0642710321354803e6 2.24968079233901e7 0.0
2.24968079233901e7 -4.44387137497536e6 0.0
0.0 0.0 0.0

-2.0330474653874135e6 2.2543360892348193e7 0.0
2.2543360892348193e7 530734.536512251 0.0
0.0 0.0 0.0

3.024442321574566e6 2.8262196583405053e6 0.0
2.8262196583405053e6 -9.851607902879111e6 0.0
0.0 0.0 0.0

125470.16568535566 2.7850077885710638e7 0.0
2.7850077885710638e7 -4.473201963122271e6 0.0
0.0 0.0 0.0

-1.6751053415998552e7 1.9254149500808377e7 0.0
1.9254149500808377e7 -7.168853838162512e7 0.0
0.0 0.0 0.0

1.6346197577582182e7 2.0050788836513292e7 0.0
2.0050788836513292e7 6.93888866712945e7 0.0
0.0 0.0 0.0

800488.0380534716 1.566696481395781e7 0.0
1.566696481395781e7 -2.03630582746474e7 0.0
0.0 0.0 0.0

-958045.1257896404 2.177343161871543e7 0.0
2.177343161871543e7 -6.013630099120904e6 0.0
0.0 0.0 0.0

-4.450879031017978e6 1.7260812207172513e7 0.0
1.7260812207172513e7 -2.2041317576427076e7 0.0
0.0 0.0 0.0

-2.2340093614299255e6 1.8589155795771394e7 0.0
1.8589155795771394e7 -5.753489191873971e6 0.0
0.0 0.0 0.0

1.0053978961729174e6 2.1595742992426984e7 0.0
2.1595742992426984e7 -1.3245809763112046e7 0.0
0.0 0.0 0.0

-1.5915522836695283e6 1.7252978557255443e7 0.0
1.7252978557255443e7 -8.49196797274049e6 0.0
0.0 0.0 0.0

-2.697564270249462e6 2.2053214597348012e7 0.0
2.2053214597348012e7 -282655.935460872 0.0
0.0 0.0 0.0

737381.8638876155 9.562264509633599e6 0.0
9.562264509633599e6 -5.140158310507311e7 0.0
0.0 0.0 0.0

-9.709896652058508e6 2.4128915654378437e7 0.0
2.4128915654378437e7 3.4123677546211714e6 0.0
0.0 0.0 0.0

-3.1611902340828823e6 2.2153351649085566e7 0.0
2.2153351649085566e7 6.517347020356448e6 0.0
0.0 0.0 0.0

-974031.4101203477 1.7516894988482635e7 0.0
1.7516894988482635e7 -6.4992712627742095e6 0.0
0.0 0.0 0.0

1.26461389391586e6 1.3201167195497375e7 0.0
1.3201167195497375e7 -2.5652925610409677e7 0.0
0.0 0.0 0.0

1.5771019894652493e7 2.0921471242500283e7 0.0
2.0921471242500283e7 5.257006635278405e7 0.0
0.0 0.0 0.0

-124179.2928489428 2.2205610205976594e7 0.0
2.2205610205976594e7 -9.194409976719566e6 0.0
0.0 0.0 0.0

-2.5578317635885585e7 5.825017547886722e7 0.0
5.825017547886722e7 -650141.4450973049 0.0
0.0 0.0 0.0

916482.586106671 1.5028367272823662e7 0.0
1.5028367272823662e7 -2.163836087967304e7 0.0
0.0 0.0 0.0

-1.3498619306232869e6 2.213505055771011e7 0.0
2.213505055771011e7 -3.8531278156789e6 0.0
0.0 0.0 0.0

2.8369768497166475e6 2.887943898236977e6 0.0
2.887943898236977e6 -9.07387385531714e6 0.0
0.0 0.0 0.0

2.351525307749495e6 8.379019326592008e6 0.0
8.379019326592008e6 -2.800108917814368e7 0.0
0.0 0.0 0.0

-1.6069810562357414e6 2.4754523226138927e7 0.0
2.4754523226138927e7 -157019.49555744987 0.0
0.0 0.0 0.0

-7.472135768865255e6 1.785898843717037e7 0.0
1.785898843717037e7 -4.148265833928634e7 0.0
0.0 0.0 0.0

-1.308878944766502e6 1.818398722005718e7 0.0
1.818398722005718e7 -5.103324940553618e6 0.0
0.0 0.0 0.0

1.1419841032192875e6 1.2640357139676532e7 0.0
1.2640357139676532e7 -1.2507962048942734e7 0.0
0.0 0.0 0.0

-3.1807151536559477e6 1.6431985950806553e7 0.0
1.6431985950806553e7 5.799738711159822e6 0.0
0.0 0.0 0.0

1.1010711553364955e6 1.443593799154422e7 0.0
1.443593799154422e7 -2.2981559128391787e7 0.0
0.0 0.0 0.0

-4.357213495050813e6 1.5838025812409224e7 0.0
1.5838025812409224e7 4.888446760555859e6 0.0
0.0 0.0 0.0

363545.07800466754 1.8320792261048518e7 0.0
1.8320792261048518e7 -1.9315311754051596e7 0.0
0.0 0.0 0.0

-2.4449266755748916e7 2.9761623204721745e7 0.0
2.9761623204721745e7 -1.0821617256682675e7 0.0
0.0 0.0 0.0

-6.966458406343257e6 -6.110679247404058e6 0.0
-6.110679247404058e6 1.4963509172118932e7 0.0
0.0 0.0 0.0

-3.735262953358257e6 1.6205510431903113e7 0.0
1.6205510431903113e7 9.058616830252133e6 0.0
0.0 0.0 0.0

-1.8345534830496938e6 2.29481905017217e7 0.0
2.29481905017217e7 -441253.24521559285 0.0
0.0 0.0 0.0

-7.72772976555445e6 1.664230684709628e6 0.0
1.664230684709628e6 4.813747472112557e7 0.0
0.0 0.0 0.0

707453.2962483596 2.027965740056499e7 0.0
2.027965740056499e7 1.4489680924367674e7 0.0
0.0 0.0 0.0

-1.938048683148703e6 1.7916234439019244e7 0.0
1.7916234439019244e7 -7.134903888327459e6 0.0
0.0 0.0 0.0

635967.7770893588 2.1479861073276777e7 0.0
2.1479861073276777e7 -1.2262259468500845e7 0.0
0.0 0.0 0.0

-962525.8176388559 1.920080520946741e7 0.0
1.920080520946741e7 -1.0626669283838231e7 0.0
0.0 0.0 0.0

-1.4167053694322451e6 1.463285195092407e7 0.0
1.463285195092407e7 -8.206432342575405e6 0.0
0.0 0.0 0.0

-1.7411077959660792e6 2.1195442888122838e7 0.0
2.1195442888122838e7 -6.919118204739663e6 0.0
0.0 0.0 0.0

-3.9191739378083795e6 1.923541846240007e7 0.0
1.923541846240007e7 1.4972637698163107e7 0.0
0.0 0.0 0.0

-2.4875748458114453e6 1.9744698614610363e7 0.0
1.9744698614610363e7 2.682985756011118e6 0.0
0.0 0.0 0.0

-2.9186235164650567e6 1.844446687984989e7 0.0
1.844446687984989e7 -2.1818582859137063e6 0.0
0.0 0.0 0.0

2.3370874450926594e6 8.224104582551471e6 0.0
8.224104582551471e6 -3.5950108652199954e7 0.0
0.0 0.0 0.0

-5.265401041564441e6 2.7611756507645823e7 0.0
2.7611756507645823e7 7.456027260373923e6 0.0
0.0 0.0 0.0

-6.151944575007411e6 2.0933992212933297e6 0.0
2.0933992212933297e6 9.970448479884734e6 0.0
0.0 0.0 0.0

-3.7873770249679666e6 1.8909527628878802e7 0.0
1.8909527628878802e7 1.3840218824384825e7 0.0
0.0 0.0 0.0

670978.51037675 1.2825636678679025e7 0.0
1.2825636678679025e7 -1.0347621653758528e7 0.0
0.0 0.0 0.0

3.4189163344062334e6 3.5528784707484166e6 0.0
3.5528784707484166e6 -2.226971598687765e7 0.0
0.0 0.0 0.0

1.1746545679073082e6 1.3782692600387676e7 0.0
1.3782692600387676e7 -2.4388081166935343e7 0.0
0.0 0.0 0.0

-5.550167321558294e6 7.932875115038418e6 0.0
7.932875115038418e6 4.505784853014985e6 0.0
0.0 0.0 0.0

-9.996180888482597e6 1.4965481511171276e7 0.0
1.4965481511171276e7 2.8325575157702014e7 0.0
0.0 0.0 0.0

-2.0226625109358132e6 1.995564779223937e7 0.0
1.995564779223937e7 -6.367411002662112e6 0.0
0.0 0.0 0.0

-6.236962482551886e6 -5.794808055315707e6 0.0
-5.794808055315707e6 1.4651815897032084e7 0.0
0.0 0.0 0.0

-4.676630554952698e6 1.4550516414197387e7 0.0
1.4550516414197387e7 4.981397190210037e6 0.0
0.0 0.0 0.0

578800.7917181174 2.2131548803305436e7 0.0
2.2131548803305436e7 -1.1030562096902177e7 0.0
0.0 0.0 0.0

-2.4890249651854783e6 1.9128517449639626e7 0.0
1.9128517449639626e7 -2.0090626319645107e7 0.0
0.0 0.0 0.0

925712.9077318618 1.275384634822604e7 0.0
1.275384634822604e7 -1.7151757545237742e7 0.0
0.0 0.0 0.0

-595484.9320271809 1.0123730614104709e7 0.0
1.0123730614104709e7 -7.2831408025963865e6 0.0
0.0 0.0 0.0

-1.3944639743796831e6 1.922556219199253e7 0.0
1.922556219199253e7 -4.766701525111724e6 0.0
0.0 0.0 0.0

-2.930893659240784e6 1.9516726842810035e7 0.0
1.9516726842810035e7 2.6695762285077404e7 0.0
0.0 0.0 0.0

-2.0461569492076663e6 2.538390332038906e7 0.0
2.538390332038906e7 -1.6807325360838962e6 0.0
0.0 0.0 0.0

-6.192025351006987e6 1.996411302922779e7 0.0
1.996411302922779e7 2.0800863025237966e7 0.0
0.0 0.0 0.0

-2.9560099060020633e6 2.1916442669011984e7 0.0
2.1916442669011984e7 1.190031058756988e7 0.0
0.0 0.0 0.0

28286.797817292158 1.149015987984409e7 0.0
1.149015987984409e7 -1.0366377072911106e7 0.0
0.0 0.0 0.0

-3.3883066640230753e6 1.52012235280782e7 0.0
1.52012235280782e7 5.978172426119218e6 0.0
0.0 0.0 0.0

-150366.53273313865 2.008840494522449e7 0.0
2.008840494522449e7 1.4699547445851332e7 0.0
0.0 0.0 0.0

-1.8535662965063362e6 1.5323876503986424e7 0.0
1.5323876503986424e7 -6.780877890523874e6 0.0
0.0 0.0 0.0

40680.82861093059 1.5888087188834837e7 0.0
1.5888087188834837e7 -2.660304753495854e7 0.0
0.0 0.0 0.0

-1.427426613790536e6 2.0227881576969475e7 0.0
2.0227881576969475e7 -4.439803514338121e6 0.0
0.0 0.0 0.0

635102.9199799802 1.6268075051553084e7 0.0
1.6268075051553084e7 -1.9111450368589465e7 0.0
0.0 0.0 0.0

-2.90674759531983e6 1.7058226567778777e7 0.0
1.7058226567778777e7 4.1779182377188983e6 0.0
0.0 0.0 0.0

-8.365731701115477e6 1.71090966244116e7 0.0
1.71090966244116e7 -3.088538235223234e7 0.0
0.0 0.0 0.0

-1.4090544516988038e6 2.1196685883481923e7 0.0
2.1196685883481923e7 -4.1429480929290853e6 0.0
0.0 0.0 0.0

6.560509117152188e6 2.1253635211118404e7 0.0
2.1253635211118404e7 -537324.4681537324 0.0
0.0 0.0 0.0

-7.978811513081867e6 3.8178417874426125e6 0.0
3.8178417874426125e6 4.707154891356753e7 0.0
0.0 0.0 0.0

-8.206699317102361e6 3.6527579895643726e7 0.0
3.6527579895643726e7 4.261380628670452e6 0.0
0.0 0.0 0.0

-3.2304055420661005e6 2.2102616794738486e7 0.0
2.2102616794738486e7 1.0739420479109216e7 0.0
0.0 0.0 0.0

-7.959767739017975e6 1.583482603171034e7 0.0
1.583482603171034e7 3.1186305278529365e7 0.0
0.0 0.0 0.0

-3.4487010448955824e6 2.4777028762696948e7 0.0
2.4777028762696948e7 9.697205550001793e6 0.0
0.0 0.0 0.0

-2.490414994002347e6 1.7024040310071617e7 0.0
1.7024040310071617e7 1.2262452378449743e6 0.0
0.0 0.0 0.0

-777121.3491821303 1.7896931498965453e7 0.0
1.7896931498965453e7 -7.481609138131192e6 0.0
0.0 0.0 0.0

-1.1658038107660317e6 1.957467612351418e7 0.0
1.957467612351418e7 -5.759474064380112e6 0.0
0.0 0.0 0.0

-1.4655168402504204e6 1.1156815800655741e7 0.0
1.1156815800655741e7 -841204.029182089 0.0
0.0 0.0 0.0

522230.47380345175 2.281646140775564e7 0.0
2.281646140775564e7 -9.893374825529171e6 0.0
0.0 0.0 0.0

2.592755275325522e6 6.747050288231034e6 0.0
6.747050288231034e6 -2.1929039925866745e7 0.0
0.0 0.0 0.0

1.3988015993649927e6 6.8545724082618635e6 0.0
6.8545724082618635e6 -1.0613123659475911e7 0.0
0.0 0.0 0.0

-3.3793563150123684e6 2.1426530830048855e7 0.0
2.1426530830048855e7 1.4447555975059845e7 0.0
0.0 0.0 0.0

-1.8906522598676966e6 2.484625303747056e7 0.0
2.484625303747056e7 -2.7846796176334703e6 0.0
0.0 0.0 0.0

5.631571191167986e6 2.1604864544861335e7 0.0
2.1604864544861335e7 -2.7728764354363163e6 0.0
0.0 0.0 0.0

-1.2674939370830491e7 2.737868379897095e7 0.0
2.737868379897095e7 4.754225674945352e6 0.0
0.0 0.0 0.0

2.0837444330729954e6 6.560857732428358e6 0.0
6.560857732428358e6 -1.4841576754768584e7 0.0
0.0 0.0 0.0

-2.2984937954001916e6 1.598472512501092e7 0.0
1.598472512501092e7 -5.348605069485375e6 0.0
0.0 0.0 0.0

4.68876550221022e7 1.6885127336320043e7 0.0
1.6885127336320043e7 2.8279654828215446e6 0.0
0.0 0.0 0.0

-328425.0724773202 1.0499621271188159e7 0.0
1.0499621271188159e7 -8.587522393378168e6 0.0
0.0 0.0 0.0

2.555138841767816e6 6.932825114689006e6 0.0
6.932825114689006e6 -2.6770882673772097e7 0.0
0.0 0.0 0.0

-5.597997493308695e6 1.9044974317162853e7 0.0
1.9044974317162853e7 2.679007523448286e7 0.0
0.0 0.0 0.0

640233.8112232657 1.727939477432526e7 0.0
1.727939477432526e7 -2.035097702689138e7 0.0
0.0 0.0 0.0

-9.694255977192737e6 1.2192255855570782e7 0.0
1.2192255855570782e7 1.997064687777754e7 0.0
0.0 0.0 0.0

-1.3075533897785893e7 3.516627537899064e7 0.0
3.516627537899064e7 5.18173607570859e6 0.0
0.0 0.0 0.0

-5.441983370470675e6 1.9392234141674284e7 0.0
1.9392234141674284e7 2.542626348626407e7 0.0
0.0 0.0 0.0

-3.9852396133318315e6 2.5533944966475386e7 0.0
2.5533944966475386e7 9.386867883150464e6 0.0
0.0 0.0 0.0

-2.045190688971494e7 2.7554800788471736e7 0.0
2.7554800788471736e7 -1.0154751011264494e7 0.0
0.0 0.0 0.0

-3.2601643507546773e6 1.863618957871173e7 0.0
1.863618957871173e7 484899.4519275045 0.0
0.0 0.0 0.0

4.356640660754657e7 6.655430145262533e6 0.0
6.655430145262533e6 -1.0658994771284796e6 0.0
0.0 0.0 0.0

-309046.4585781805 1.9899299485631045e7 0.0
1.9899299485631045e7 -9.734550073669655e6 0.0
0.0 0.0 0.0

-1.4783964377141397e6 1.697743154107937e7 0.0
1.697743154107937e7 -538145.6648572915 0.0
0.0 0.0 0.0

437511.16498145554 2.348105251862941e7 0.0
2.348105251862941e7 -8.710632961355768e6 0.0
0.0 0.0 0.0

-1.4111025252915673e7 2.380616683402177e7 0.0
2.380616683402177e7 -5.893872244072413e6 0.0
0.0 0.0 0.0

-109322.76907276991 9.795967886477638e6 0.0
9.795967886477638e6 -3.794515243989984e6 0.0
0.0 0.0 0.0

-3.5000625460242406e6 2.1940604460297395e7 0.0
2.1940604460297395e7 1.5688950305300876e7 0.0
0.0 0.0 0.0

-3.660253557715844e6 1.765862929741156e7 0.0
1.765862929741156e7 -2.070614859064111e7 0.0
0.0 0.0 0.0

-1.1319258796012351e7 5.750684032543094e6 0.0
5.750684032543094e6 2.842683805352034e7 0.0
0.0 0.0 0.0

-2.1462086483087693e6 2.4564817449748807e7 0.0
2.4564817449748807e7 -1.9010816649125025e6 0.0
0.0 0.0 0.0

-2.255321581199765e6 1.752090470761895e7 0.0
1.752090470761895e7 -132541.69875289733 0.0
0.0 0.0 0.0

-1.3808344592583089e6 2.5050693030877493e7 0.0
2.5050693030877493e7 -1.1385283646514923e6 0.0
0.0 0.0 0.0

292387.0702052424 1.7783383886078954e7 0.0
1.7783383886078954e7 -1.251330848058755e7 0.0
0.0 0.0 0.0

-6.30311817892393e6 8.882034373461196e6 0.0
8.882034373461196e6 1.1961714029593421e7 0.0
0.0 0.0 0.0

-3.1810618572207196e6 2.5239519504007738e7 0.0
2.5239519504007738e7 6.103806828044657e6 0.0
0.0 0.0 0.0

-3.942216060871276e6 2.1322503640864223e7 0.0
2.1322503640864223e7 1.7912477461597048e7 0.0
0.0 0.0 0.0

-3.135998356950393e6 2.0941192044681586e7 0.0
2.0941192044681586e7 1.2532361781681731e7 0.0
0.0 0.0 0.0

-773405.3600047731 1.4859315546232985e7 0.0
1.4859315546232985e7 -6.038784362622482e6 0.0
0.0 0.0 0.0

1.2264124367078766e6 1.2523278052044857e7 0.0
1.2523278052044857e7 -2.9010188303482123e7 0.0
0.0 0.0 0.0

-3.1287306840270413e6 2.0232212204895318e7 0.0
2.0232212204895318e7 1.8470856862870017e6 0.0
0.0 0.0 0.0

124587.30437356886 1.93362154741751e7 0.0
1.93362154741751e7 -1.5045601109403746e7 0.0
0.0 0.0 0.0

-217985.21656928584 1.7516373167807825e7 0.0
1.7516373167807825e7 -1.4166588559319718e7 0.0
0.0 0.0 0.0

-590619.018174754 2.507130966246298e7 0.0
2.507130966246298e7 -6.370075569079269e6 0.0
0.0 0.0 0.0

-1.0147025662309467e6 2.016851168406494e7 0.0
2.016851168406494e7 -1.0081201964631649e7 0.0
0.0 0.0 0.0

1.4672158635415155e6 1.2852376294881335e7 0.0
1.2852376294881335e7 -2.338036329473069e7 0.0
0.0 0.0 0.0

1.5374873623751989e6 6.903245222133341e6 0.0
6.903245222133341e6 -6.665118218698093e6 0.0
0.0 0.0 0.0

-2.3023164718253985e6 6.481941356397835e6 0.0
6.481941356397835e6 3.890298648011829e6 0.0
0.0 0.0 0.0

982962.0149195516 3.3102131427556135e7 0.0
3.3102131427556135e7 -816181.3468721737 0.0
0.0 0.0 0.0

-3.3004481577958046e6 1.9211870318206273e7 0.0
1.9211870318206273e7 1.848291619899319e6 0.0
0.0 0.0 0.0

-1.5143253831508355e6 2.147244629658764e7 0.0
2.147244629658764e7 -7.801093533492467e6 0.0
0.0 0.0 0.0

3.3187088031482995e6 4.213784678246898e6 0.0
4.213784678246898e6 -1.3989479373497842e7 0.0
0.0 0.0 0.0

-8.360462823791923e6 6.2091441857456835e6 0.0
6.2091441857456835e6 4.734985476042717e7 0.0
0.0 0.0 0.0

1.5824526348861512e6 1.0351485949863605e7 0.0
1.0351485949863605e7 -1.7925304269997276e7 0.0
0.0 0.0 0.0

6.116550894286251e6 2.5716316640795793e7 0.0
2.5716316640795793e7 -6.159652541662109e6 0.0
0.0 0.0 0.0

1.064224038411274e6 2.669878120960403e7 0.0
2.669878120960403e7 -5.792299011948424e6 0.0
0.0 0.0 0.0

-3.137482510861735e6 2.5789859513904445e7 0.0
2.5789859513904445e7 5.059253556759527e6 0.0
0.0 0.0 0.0

3.1026446248423085e6 3.5775179902453152e6 0.0
3.5775179902453152e6 -3.136882579847298e7 0.0
0.0 0.0 0.0

-1.0948820246303873e6 2.2430565356822487e7 0.0
2.2430565356822487e7 -4.780899473055177e6 0.0
0.0 0.0 0.0

-509415.5661894132 2.3743416686504558e7 0.0
2.3743416686504558e7 -6.154284938892175e6 0.0
0.0 0.0 0.0

2.339717302271098e6 7.761468583966993e6 0.0
7.761468583966993e6 -2.9415557676165123e7 0.0
0.0 0.0 0.0

-922634.1781663857 2.698097942445837e7 0.0
2.698097942445837e7 -3.446412642127449e6 0.0
0.0 0.0 0.0

2.7793899351378498e6 2.2151965289943263e7 0.0
2.2151965289943263e7 -8.415304918449165e6 0.0
0.0 0.0 0.0

-1.9144988183940663e6 2.18555117450599e7 0.0
2.18555117450599e7 -5.674121116529328e6 0.0
0.0 0.0 0.0

-783097.9643555265 1.6604113470844757e7 0.0
1.6604113470844757e7 -2.8486827359920297e7 0.0
0.0 0.0 0.0

1.7202037652627546e6 7.412420175666606e6 0.0
7.412420175666606e6 -1.3680390990125697e7 0.0
0.0 0.0 0.0

553055.6835371237 1.2445110265959375e7 0.0
1.2445110265959375e7 -1.44758353136972e7 0.0
0.0 0.0 0.0

-643459.1583814584 2.2407747239461876e7 0.0
2.2407747239461876e7 -8.545366040277237e6 0.0
0.0 0.0 0.0

2.019513677041805e6 2.2036559139455773e7 0.0
2.2036559139455773e7 -1.0065041514268536e7 0.0
0.0 0.0 0.0

-1.228975277257587e6 2.0748251910504796e7 0.0
2.0748251910504796e7 -8.945339613027183e6 0.0
0.0 0.0 0.0

2.676271289249856e6 8.105454509739111e6 0.0
8.105454509739111e6 -1.443930460455887e7 0.0
0.0 0.0 0.0

3.5196880230446532e6 4.843894142847205e6 0.0
4.843894142847205e6 -2.6288345364734557e7 0.0
0.0 0.0 0.0

256884.13231391553 1.7509459547834568e7 0.0
1.7509459547834568e7 -1.6632829884102609e7 0.0
0.0 0.0 0.0

150509.34900633805 1.310404734175354e7 0.0
1.310404734175354e7 -1.3254375059377406e7 0.0
0.0 0.0 0.0

-3.3727554340264103e6 1.7534280572361957e7 0.0
1.7534280572361957e7 369971.79245950584 0.0
0.0 0.0 0.0

-1.0343521911031786e7 2.7745311646173168e7 0.0
2.7745311646173168e7 5.897571724086397e6 0.0
0.0 0.0 0.0

510602.73649917915 1.515109458865966e7 0.0
1.515109458865966e7 7.550339897053073e7 0.0
0.0 0.0 0.0

-1.1704610963492913e7 6.315204373692975e6 0.0
6.315204373692975e6 2.6205420707597893e7 0.0
0.0 0.0 0.0

1.1251788790218811e6 2.4946121872061636e7 0.0
2.4946121872061636e7 -8.563779243923202e6 0.0
0.0 0.0 0.0

-3.4585176956273587e6 1.8149150547867596e7 0.0
1.8149150547867596e7 1.8096746127110794e6 0.0
0.0 0.0 0.0

-9.655145697245061e6 8.477328597926702e6 0.0
8.477328597926702e6 3.731693988668633e7 0.0
0.0 0.0 0.0

3.5193200757067427e6 4.892239006137662e6 0.0
4.892239006137662e6 -2.3308020908620268e7 0.0
0.0 0.0 0.0

-2.6420183722513523e6 1.9244156136113912e7 0.0
1.9244156136113912e7 4.0401332179636136e6 0.0
0.0 0.0 0.0

422566.22204140853 1.6897599281458616e7 0.0
1.6897599281458616e7 -2.2096456649414815e7 0.0
0.0 0.0 0.0

376193.18578863377 2.42248235446712e7 0.0
2.42248235446712e7 -7.662528631339013e6 0.0
0.0 0.0 0.0

-805240.2963618821 2.2675091697908126e7 0.0
2.2675091697908126e7 -5.667228897445858e6 0.0
0.0 0.0 0.0

-4.656303412066538e6 1.689073054316246e7 0.0
1.689073054316246e7 7.8614784423410855e6 0.0
0.0 0.0 0.0

-1.825782217963759e6 1.8417653066019002e7 0.0
1.8417653066019002e7 -2.5938431474799654e6 0.0
0.0 0.0 0.0

-8.612708282240577e6 1.0573221048320305e7 0.0
1.0573221048320305e7 1.1964775130259879e7 0.0
0.0 0.0 0.0

-4.7366585521370836e7 2.649192874237255e7 0.0
2.649192874237255e7 4.1246406854926683e6 0.0
0.0 0.0 0.0

4.788429551628791e6 2.211643729429655e7 0.0
2.211643729429655e7 1.1539692795850586e7 0.0
0.0 0.0 0.0

-3.101339060233742e6 2.3011419261140093e7 0.0
2.3011419261140093e7 1.2152618787310189e7 0.0
0.0 0.0 0.0

-1.600766283774244e6 2.6864684994963903e7 0.0
2.6864684994963903e7 1.0212372613945898e6 0.0
0.0 0.0 0.0

1.9168730995207764e6 9.966679041417787e6 0.0
9.966679041417787e6 -2.187627410650698e7 0.0
0.0 0.0 0.0

2.375151938465588e6 8.234536075792722e6 0.0
8.234536075792722e6 -2.629290774282474e7 0.0
0.0 0.0 0.0

2.3131913836635724e6 1.012797262635272e7 0.0
1.012797262635272e7 -3.1052401553011492e7 0.0
0.0 0.0 0.0

-4.0437017909928598e6 1.7042117873929333e7 0.0
1.7042117873929333e7 4.759451172423248e6 0.0
0.0 0.0 0.0

-1.0681811371503193e7 1.4337562245323433e7 0.0
1.4337562245323433e7 2.62492616724481e7 0.0
0.0 0.0 0.0

-6.490167074740226e6 1.1545054290682618e7 0.0
1.1545054290682618e7 1.3452480272712486e7 0.0
0.0 0.0 0.0

4.481084979342027e6 2.1933371793465193e7 0.0
2.1933371793465193e7 -4.761636225880977e6 0.0
0.0 0.0 0.0

-2.9409427669181023e6 1.802911871636001e7 0.0
1.802911871636001e7 -1.9108355337407947e7 0.0
0.0 0.0 0.0

-3.568433321324627e6 2.5534882320871945e7 0.0
2.5534882320871945e7 7.829045323832367e6 0.0
0.0 0.0 0.0

6.882296373856144e6 3.206165843136321e7 0.0
3.206165843136321e7 -4.201547227005372e6 0.0
0.0 0.0 0.0

-8.492653514313515e6 2.786516822265307e7 0.0
2.786516822265307e7 6.702624029891735e6 0.0
0.0 0.0 0.0

-4.85668640965994e6 2.0296602849973243e7 0.0
2.0296602849973243e7 2.1136949690054942e7 0.0
0.0 0.0 0.0

906712.1864521801 7.204395194108345e6 0.0
7.204395194108345e6 -5.0648212133292854e7 0.0
0.0 0.0 0.0

54400.13142558886 1.694722845404227e7 0.0
1.694722845404227e7 -1.1051503421375537e7 0.0
0.0 0.0 0.0

3.2474655547510264e6 2.905273375856035e6 0.0
2.905273375856035e6 -1.150610594876372e7 0.0
0.0 0.0 0.0

2.6386657442993335e6 8.66033475214485e6 0.0
8.66033475214485e6 -3.2027442673758827e7 0.0
0.0 0.0 0.0

-3.04955412303208e6 2.6321396268072132e7 0.0
2.6321396268072132e7 4.0623461447168738e6 0.0
0.0 0.0 0.0

-9.97604254670533e6 1.4792697477957183e7 0.0
1.4792697477957183e7 2.505251903171157e7 0.0
0.0 0.0 0.0

-5.407053283712386e6 1.9858377348243464e7 0.0
1.9858377348243464e7 2.2777923550758805e7 0.0
0.0 0.0 0.0

-3.126656777186238e6 2.3761651334803212e7 0.0
2.3761651334803212e7 1.1418197743090864e7 0.0
0.0 0.0 0.0

2.184462727480673e6 1.0561760973154292e7 0.0
1.0561760973154292e7 -1.5950218545274597e7 0.0
0.0 0.0 0.0

-6.846846797453815e6 2.326627139531129e7 0.0
2.326627139531129e7 -1.1146003713456769e7 0.0
0.0 0.0 0.0

1.429695134224559e6 3.2792871273720875e7 0.0
3.2792871273720875e7 -2.4515720486402833e6 0.0
0.0 0.0 0.0

-3.7918455589245167e6 2.743622220438077e7 0.0
2.743622220438077e7 5.721985333791482e6 0.0
0.0 0.0 0.0

-5.152677655298518e6 1.974361152969996e7 0.0
1.974361152969996e7 2.4053154113748115e7 0.0
0.0 0.0 0.0

-6.396155775861647e6 6.359025347567486e7 0.0
6.359025347567486e7 -1.1800068526395157e7 0.0
0.0 0.0 0.0

-5.998468554345916e6 2.246326908701003e7 0.0
2.246326908701003e7 -1.350044766452357e7 0.0
0.0 0.0 0.0

-4.350660068778383e6 1.8883294477912392e7 0.0
1.8883294477912392e7 1.0186775325676046e7 0.0
0.0 0.0 0.0

-1.0676947298502408e7 2.4170967585298917e6 0.0
2.4170967585298917e6 1.5300895547415063e7 0.0
0.0 0.0 0.0

-1.0957107838674008e6 1.856826121259201e7 0.0
1.856826121259201e7 -6.123598491175699e6 0.0
0.0 0.0 0.0

-1.1204014000032196e7 2.4148164701827507e7 0.0
2.4148164701827507e7 -6.358262633590216e6 0.0
0.0 0.0 0.0

-8.483350091696173e6 3.4947115652922384e7 0.0
3.4947115652922384e7 3.9308357144037634e6 0.0
0.0 0.0 0.0

-537371.5163721459 2.1337122599849556e7 0.0
2.1337122599849556e7 -7.994623583582043e6 0.0
0.0 0.0 0.0

-1.2658795698049946e6 2.317669322688777e7 0.0
2.317669322688777e7 -6.9806557957251035e6 0.0
0.0 0.0 0.0

-1.0657789194289891e7 3.745958574566388e6 0.0
3.745958574566388e6 2.4034242420025073e7 0.0
0.0 0.0 0.0

3.372886159003147e6 6.023775866524505e6 0.0
6.023775866524505e6 -2.0783841706741497e7 0.0
0.0 0.0 0.0

1.7548298296778603e6 3.1848961643061038e7 0.0
3.1848961643061038e7 -1.8876670971488985e6 0.0
0.0 0.0 0.0

-4.379790346437722e6 2.0788403561627973e7 0.0
2.0788403561627973e7 1.9579259353927992e7 0.0
0.0 0.0 0.0

-1.5930089495650906e7 2.5699814919433035e7 0.0
2.5699814919433035e7 -3.520012123397019e6 0.0
0.0 0.0 0.0

-2.114966088204269e6 6.037042507640973e6 0.0
6.037042507640973e6 -1.2811116184243173e6 0.0
0.0 0.0 0.0

-1.2486977679274937e7 2.5536132403994698e7 0.0
2.5536132403994698e7 -1.026809290398093e7 0.0
0.0 0.0 0.0

-1.6481115589469462e6 2.2107269472336646e7 0.0
2.2107269472336646e7 -6.552861094763075e6 0.0
0.0 0.0 0.0

452880.7626529243 1.689553823150218e7 0.0
1.689553823150218e7 -1.7857613891234845e7 0.0
0.0 0.0 0.0

-1.2066423054454853e6 2.05518437086308e7 0.0
2.05518437086308e7 -5.423497107948567e6 0.0
0.0 0.0 0.0

1.542752164295746e6 1.0864363511181744e7 0.0
1.0864363511181744e7 -1.8719154183908034e7 0.0
0.0 0.0 0.0

-2.0707191428081486e6 2.1637842697557665e7 0.0
2.1637842697557665e7 443003.7818139206 0.0
0.0 0.0 0.0

-1.0746507102899954e7 4.657546379416662e6 0.0
4.657546379416662e6 1.4709092365872428e7 0.0
0.0 0.0 0.0

-8.789458379306767e6 1.4487903725804387e7 0.0
1.4487903725804387e7 2.059159052908703e7 0.0
0.0 0.0 0.0

-3.8767559758443567e6 1.6659485931858385e7 0.0
1.6659485931858385e7 1.0509841610813182e7 0.0
0.0 0.0 0.0

-5.550597153882485e6 1.7763708693354763e7 0.0
1.7763708693354763e7 -1.8296923867431358e7 0.0
0.0 0.0 0.0

-3.3013180495077576e6 1.693318105967282e7 0.0
1.693318105967282e7 7.256706629650671e6 0.0
0.0 0.0 0.0

-3.6716753219653256e7 3.0607992657044504e7 0.0
3.0607992657044504e7 -4.6781742925366275e6 0.0
0.0 0.0 0.0

-3.5126282417228343e6 1.8715805182637587e7 0.0
1.8715805182637587e7 3.1736016466825586e6 0.0
0.0 0.0 0.0

-1.9707638589795823e6 2.0686307091406252e7 0.0
2.0686307091406252e7 -3.431433879762871e6 0.0
0.0 0.0 0.0

-5.346360172685384e7 2.5601557227940902e7 0.0
2.5601557227940902e7 2.238011615898695e6 0.0
0.0 0.0 0.0

3.555260487443011e6 2.2182924950441957e7 0.0
2.2182924950441957e7 -6.772788136492012e6 0.0
0.0 0.0 0.0

-2.6708362180712437e6 1.7630301582557585e7 0.0
1.7630301582557585e7 2.6899074560410753e6 0.0
0.0 0.0 0.0

1.5080388035628377e6 1.1947365181732208e7 0.0
1.1947365181732208e7 -1.3673831235973567e7 0.0
0.0 0.0 0.0

-1.7987944611321872e6 2.7300042168416996e7 0.0
2.7300042168416996e7 1.9335992154142843e6 0.0
0.0 0.0 0.0

1.2388556054166844e6 1.251264899313839e7 0.0
1.251264899313839e7 -1.903343590865118e7 0.0
0.0 0.0 0.0

1.1476539814201817e6 1.3458930531356009e7 0.0
1.3458930531356009e7 -2.0399079353244487e7 0.0
0.0 0.0 0.0

-7.302115385272851e6 9.275179675564053e6 0.0
9.275179675564053e6 8.453965020959884e6 0.0
0.0 0.0 0.0

-3.7448454083384615e6 2.129018182711366e7 0.0
2.129018182711366e7 1.0426845701228688e7 0.0
0.0 0.0 0.0

2.9736075860033575e6 7.997299417226962e6 0.0
7.997299417226962e6 -2.7388570966181178e7 0.0
0.0 0.0 0.0

-1.1411145799946383e7 7.729962504480019e6 0.0
7.729962504480019e6 2.0711670354269758e7 0.0
0.0 0.0 0.0

1.2107838467480987e6 1.2962410131854536e7 0.0
1.2962410131854536e7 -1.97441562479733e7 0.0
0.0 0.0 0.0

-9.009063148600602e7 1.0113755457632978e7 0.0
1.0113755457632978e7 3.817867326545242e6 0.0
0.0 0.0 0.0

1.21412403748825e6 7.079903614623577e6 0.0
7.079903614623577e6 -4.712829744918709e7 0.0
0.0 0.0 0.0

-3.9507776664204127e6 1.9944631139554452e7 0.0
1.9944631139554452e7 9.7529098916645e6 0.0
0.0 0.0 0.0

-3.4387729449308557e6 2.1612847243192717e7 0.0
2.1612847243192717e7 7.800961170948902e6 0.0
0.0 0.0 0.0

-4.877873838992701e6 2.689959445812812e7 0.0
2.689959445812812e7 8.570917779580215e6 0.0
0.0 0.0 0.0

-2.0038122874841173e6 1.8954736207831856e7 0.0
1.8954736207831856e7 -6.739368383521969e6 0.0
0.0 0.0 0.0

-4.099778590893211e6 2.1638695171753068e7 0.0
2.1638695171753068e7 1.8220807308803827e7 0.0
0.0 0.0 0.0

551265.8009763537 1.492713482277292e7 0.0
1.492713482277292e7 -1.6467096082809994e7 0.0
0.0 0.0 0.0

1.9862860137121119e6 1.0163395693205364e7 0.0
1.0163395693205364e7 -2.6169884674064796e7 0.0
0.0 0.0 0.0

-2.0424920346533102e6 2.689610249331813e7 0.0
2.689610249331813e7 2.7750727937999386e6 0.0
0.0 0.0 0.0

1.6906324566728112e6 2.8212130065665316e7 0.0
2.8212130065665316e7 -5.620881893332864e6 0.0
0.0 0.0 0.0

1.86943059452519e6 9.443741312163034e6 0.0
9.443741312163034e6 -3.778987591142095e7 0.0
0.0 0.0 0.0

-4.908807319411502e6 1.4065708902613498e7 0.0
1.4065708902613498e7 1.1142192664023457e7 0.0
0.0 0.0 0.0

-6.987150209730991e6 2.7694512320226956e7 0.0
2.7694512320226956e7 7.373665134775426e6 0.0
0.0 0.0 0.0

-4.67606841330921e7 6.840611422327562e7 0.0
6.840611422327562e7 -2.515746366034325e6 0.0
0.0 0.0 0.0

-1.0265761776299741e7 1.04732921807421e7 0.0
1.04732921807421e7 3.279883549808603e7 0.0
0.0 0.0 0.0

-4.51767834090984e6 1.664625733248077e7 0.0
1.664625733248077e7 -1.6430666417514779e7 0.0
0.0 0.0 0.0

-1.1730102625579864e6 5.84328627469629e6 0.0
5.84328627469629e6 1.8253801402876652e6 0.0
0.0 0.0 0.0

-8.3358697645557225e6 -3.38740714915493e6 0.0
-3.38740714915493e6 3.2625201683373064e7 0.0
0.0 0.0 0.0

3.5434902038653735e6 1.9047522067849287e6 0.0
1.9047522067849287e6 -3.25525290326478e7 0.0
0.0 0.0 0.0

-7.620238862312229e6 2.4397451856690273e7 0.0
2.4397451856690273e7 2.217682084705277e6 0.0
0.0 0.0 0.0

-1.4714348722265055e6 1.8433322677000027e7 0.0
1.8433322677000027e7 -2.038820885937926e7 0.0
0.0 0.0 0.0

-6.528988940159785e6 1.6245278852891566e7 0.0
1.6245278852891566e7 3.49820464225961e7 0.0
0.0 0.0 0.0

1.0746452267495901e6 2.4150352346606042e7 0.0
2.4150352346606042e7 -9.519008333835715e6 0.0
0.0 0.0 0.0

1.266889555510722e6 1.2053747770967858e7 0.0
1.2053747770967858e7 -1.8278693131692942e7 0.0
0.0 0.0 0.0

-2.23629544041078e6 1.672056353449229e7 0.0
1.672056353449229e7 4.573294711771635e7 0.0
0.0 0.0 0.0

-2.0528091494685463e6 1.9048796558322582e7 0.0
1.9048796558322582e7 -1.2144867941135964e6 0.0
0.0 0.0 0.0

-1.5010362640914004e6 1.8813319997463357e7 0.0
1.8813319997463357e7 3.3375298433774933e7 0.0
0.0 0.0 0.0

-1.075280459133545e6 1.8774252404283617e7 0.0
1.8774252404283617e7 -1.8893512281807397e7 0.0
0.0 0.0 0.0

7.738451897379243e7 9.902551572485803e6 0.0
9.902551572485803e6 2.0237792369708791e6 0.0
0.0 0.0 0.0

318643.74365216354 2.4946502540065967e7 0.0
2.4946502540065967e7 -6.660774605242532e6 0.0
0.0 0.0 0.0

2.867332048614272e6 3.1640503687797446e7 0.0
3.1640503687797446e7 -2.6232530599788534e6 0.0
0.0 0.0 0.0

1.0515943079163767e6 1.315799742522323e7 0.0
1.315799742522323e7 -1.780772003431116e7 0.0
0.0 0.0 0.0

2.0028381366645675e6 1.207852230388554e7 0.0
1.207852230388554e7 -1.8337161427936956e7 0.0
0.0 0.0 0.0

-1.7051012057278703e6 1.8284043795086768e7 0.0
1.8284043795086768e7 -8.092501253042382e6 0.0
0.0 0.0 0.0

-1.0960329308927447e7 1.1959559083023688e7 0.0
1.1959559083023688e7 2.654688932511034e7 0.0
0.0 0.0 0.0

-2.7084897682808405e6 1.7129349850976206e7 0.0
1.7129349850976206e7 -2.8056022868738417e7 0.0
0.0 0.0 0.0

3.0896395058613075e6 2.843178553712917e6 0.0
2.843178553712917e6 -1.038878279049229e7 0.0
0.0 0.0 0.0

684682.0056738853 1.575715740281006e7 0.0
1.575715740281006e7 -1.7797829370935395e7 0.0
0.0 0.0 0.0

-2.771586870839998e7 3.46619294846866e7 0.0
3.46619294846866e7 7.129529185752517e6 0.0
0.0 0.0 0.0

-3.543003976690709e6 1.2507708012922337e7 0.0
1.2507708012922337e7 -161328.38833994593 0.0
0.0 0.0 0.0

-73035.40599229932 1.6832819863984674e7 0.0
1.6832819863984674e7 5.422055061195017e7 0.0
0.0 0.0 0.0

-3.2677840436355695e6 2.1833669530633472e7 0.0
2.1833669530633472e7 1.478878756821787e7 0.0
0.0 0.0 0.0

7.427442486169969e6 2.219537186912079e7 0.0
2.219537186912079e7 4.0315979066773e6 0.0
0.0 0.0 0.0

-5.733033981425049e6 2.736475706398289e7 0.0
2.736475706398289e7 7.938812913750507e6 0.0
0.0 0.0 0.0

336328.27557192394 2.5625546902604006e7 0.0
2.5625546902604006e7 -5.546851091168951e6 0.0
0.0 0.0 0.0

-3.8756189565093825e6 2.6952923091600712e7 0.0
2.6952923091600712e7 6.490320171929054e6 0.0
0.0 0.0 0.0

-1.0913403763511583e7 1.238850749222659e7 0.0
1.238850749222659e7 2.4700929755077217e7 0.0
0.0 0.0 0.0

-7.651895592216671e6 1.6326814507326169e7 0.0
1.6326814507326169e7 2.083978945229558e7 0.0
0.0 0.0 0.0

-1.0734481629897038e7 6.55902146021448e6 0.0
6.55902146021448e6 1.3540934859209541e7 0.0
0.0 0.0 0.0

1.867499204677515e7 1.2492180911496118e7 0.0
1.2492180911496118e7 1.0823234991687844e6 0.0
0.0 0.0 0.0

-652791.7756577637 1.9129849537169818e7 0.0
1.9129849537169818e7 -1.753038331623376e7 0.0
0.0 0.0 0.0

-119747.12473249459 2.5515869574686356e7 0.0
2.5515869574686356e7 -4.854968882857164e6 0.0
0.0 0.0 0.0

-2.892228535579263e6 2.678822752839297e7 0.0
2.678822752839297e7 3.1084351002893476e6 0.0
0.0 0.0 0.0

-9.381189674589347e6 -2.583472511834993e6 0.0
-2.583472511834993e6 2.3663813115734138e7 0.0
0.0 0.0 0.0

-3.5174875914919972e6 2.8400699130206857e7 0.0
2.8400699130206857e7 4.1283867685524067e6 0.0
0.0 0.0 0.0

-2.7726258984445618e6 1.8177787299185075e7 0.0
1.8177787299185075e7 4.0974307266222197e6 0.0
0.0 0.0 0.0

-4.534688251508523e6 2.9029448203548253e7 0.0
2.9029448203548253e7 5.101163297576689e6 0.0
0.0 0.0 0.0

7.11476548669452e6 2.1013492448981464e7 0.0
2.1013492448981464e7 2.147599322404324e6 0.0
0.0 0.0 0.0

1.9753444388494582e6 2.9517882304372862e7 0.0
2.9517882304372862e7 -3.518532149373318e6 0.0
0.0 0.0 0.0

3.0648083090526983e6 4.93616741967727e6 0.0
4.93616741967727e6 -2.636559068275254e7 0.0
0.0 0.0 0.0

-1.0618400823873153e7 1.0864228707408099e7 0.0
1.0864228707408099e7 3.0628117265462764e7 0.0
0.0 0.0 0.0

437886.09216234693 2.0983902618357386e7 0.0
2.0983902618357386e7 -1.0334306559591666e7 0.0
0.0 0.0 0.0

-247816.67339644954 1.9580331108526558e7 0.0
1.9580331108526558e7 -1.6152655561563607e7 0.0
0.0 0.0 0.0

-2.0417329065338988e6 1.7973075783357475e7 0.0
1.7973075783357475e7 -1.4037323931292216e6 0.0
0.0 0.0 0.0

-4.540062896843763e6 2.2753086676515546e7 0.0
2.2753086676515546e7 6.272936936792403e6 0.0
0.0 0.0 0.0

2.1518647821207102e6 2.502272158854607e7 0.0
2.502272158854607e7 -8.392329617592216e6 0.0
0.0 0.0 0.0

-241845.66225424642 1.947516586774769e7 0.0
1.947516586774769e7 -9.082743229013605e6 0.0
0.0 0.0 0.0

-1.0408175401544787e7 1.4483988346693445e7 0.0
1.4483988346693445e7 2.042438299915536e7 0.0
0.0 0.0 0.0

2.6310832962790346e6 9.97246766177501e6 0.0
9.97246766177501e6 -2.1804522284320325e7 0.0
0.0 0.0 0.0

-1.2925601633479698e6 1.9616388313390333e7 0.0
1.9616388313390333e7 -1.6841396146216497e7 0.0
0.0 0.0 0.0

2.679878934225912e6 2.1846349501201846e7 0.0
2.1846349501201846e7 1.3421596961643701e7 0.0
0.0 0.0 0.0

-1.987917247356168e6 2.0920160242859706e7 0.0
2.0920160242859706e7 -6.014167834321748e6 0.0
0.0 0.0 0.0

2.580573887898816e6 7.6056148361120485e6 0.0
7.6056148361120485e6 -3.651212925464793e7 0.0
0.0 0.0 0.0

2.471436874924436e6 5.592396555080082e6 0.0
5.592396555080082e6 -4.847674431758766e7 0.0
0.0 0.0 0.0

-4.732899713232787e6 1.7363671506865542e7 0.0
1.7363671506865542e7 9.260913973262005e6 0.0
0.0 0.0 0.0

-2.6882689170474024e6 2.722921739813596e7 0.0
2.722921739813596e7 2.2320695562344566e6 0.0
0.0 0.0 0.0

-1.0546995853101578e7 3.7796525351012354e6 0.0
3.7796525351012354e6 2.788772120616601e7 0.0
0.0 0.0 0.0

-6.948671236907834e6 1.6211656844834082e7 0.0
1.6211656844834082e7 1.4475797799857048e7 0.0
0.0 0.0 0.0

-3.6549455137885236e6 2.093577003611537e7 0.0
2.093577003611537e7 9.355756873954061e6 0.0
0.0 0.0 0.0

2.512336294555463e6 1.0194352602593118e7 0.0
1.0194352602593118e7 -1.987230171500641e7 0.0
0.0 0.0 0.0

3.4286057329572253e6 1.7792806926794662e6 0.0
1.7792806926794662e6 -3.362008275543861e7 0.0
0.0 0.0 0.0

-3.291917700482888e6 1.964051857588788e7 0.0
1.964051857588788e7 1.2059193319762664e7 0.0
0.0 0.0 0.0

3.0195393358116746e6 1.831896476353516e7 0.0
1.831896476353516e7 6.682832118451314e7 0.0
0.0 0.0 0.0

-2.621283319757113e6 2.196447290592234e7 0.0
2.196447290592234e7 8.343428020073911e6 0.0
0.0 0.0 0.0

143145.71364416718 2.6204710146158513e7 0.0
2.6204710146158513e7 -4.68315121195033e6 0.0
0.0 0.0 0.0

1.0690185723733837e6 1.3962513610291958e7 0.0
1.3962513610291958e7 -1.892299497080768e7 0.0
0.0 0.0 0.0

-492422.0476381215 2.83956549540948e7 0.0
2.83956549540948e7 -1.1176606193716284e6 0.0
0.0 0.0 0.0

-2.238138368103012e6 2.6452842938522127e7 0.0
2.6452842938522127e7 3.6602408297486342e6 0.0
0.0 0.0 0.0

8.000501850632985e6 1.8349081909690335e7 0.0
1.8349081909690335e7 3.9425370914609686e7 0.0
0.0 0.0 0.0

3.118726531653772e6 2.8575066873865654e6 0.0
2.8575066873865654e6 -1.0994414363831837e7 0.0
0.0 0.0 0.0

3.7499168755183932e6 2.2843265978709966e7 0.0
2.2843265978709966e7 -7.687906567250317e6 0.0
0.0 0.0 0.0

3.4147440043262113e6 3.9359311625268087e6 0.0
3.9359311625268087e6 -1.898981840367351e7 0.0
0.0 0.0 0.0

-9.843097414290037e6 1.3007150276921758e7 0.0
1.3007150276921758e7 2.094389846171535e7 0.0
0.0 0.0 0.0

-3.037146239715178e6 2.503751593576999e7 0.0
2.503751593576999e7 5.1828368521591695e6 0.0
0.0 0.0 0.0

-1.1779082853830075e6 2.150206727411593e7 0.0
2.150206727411593e7 -5.10376594398424e6 0.0
0.0 0.0 0.0

2.140730780833156e6 1.1077877539914694e7 0.0
1.1077877539914694e7 -1.6757894400227979e7 0.0
0.0 0.0 0.0

-70825.22490706947 1.9841595225119904e7 0.0
1.9841595225119904e7 -1.0584983320437279e7 0.0
0.0 0.0 0.0

-26992.935235403944 2.6827870306320433e7 0.0
2.6827870306320433e7 -3.7914817206783644e6 0.0
0.0 0.0 0.0

-1.0355187820706526e7 5.598974242463967e6 0.0
5.598974242463967e6 3.2069943442906685e7 0.0
0.0 0.0 0.0

-6.5476903334635515e6 1.7878643194965787e7 0.0
1.7878643194965787e7 2.0864977084263235e7 0.0
0.0 0.0 0.0

-1.1222212630284503e7 9.815441536061876e6 0.0
9.815441536061876e6 2.224469735830541e7 0.0
0.0 0.0 0.0

-3.710692889712299e6 1.7621071167443983e7 0.0
1.7621071167443983e7 3.2233277263582237e6 0.0
0.0 0.0 0.0

-3.0492210195491775e6 2.6476087547589805e7 0.0
2.6476087547589805e7 7.242563360377165e6 0.0
0.0 0.0 0.0

-2.589099795661208e6 2.0886856758968197e7 0.0
2.0886856758968197e7 -2.775602341605413e6 0.0
0.0 0.0 0.0

-1.951547416644321e6 2.8226579383699454e7 0.0
2.8226579383699454e7 -195416.99173534062 0.0
0.0 0.0 0.0

-8.0399885288949385e6 9.860603022688564e6 0.0
9.860603022688564e6 1.0307643258525807e7 0.0
0.0 0.0 0.0

-7.624080053375371e6 1.575335114490725e7 0.0
1.575335114490725e7 1.9979022075525895e7 0.0
0.0 0.0 0.0

-2.4802045029334486e6 2.7620626937288776e7 0.0
2.7620626937288776e7 1.4316892209834445e6 0.0
0.0 0.0 0.0

1.9668368067640723e6 2.3860740974454883e7 0.0
2.3860740974454883e7 -9.532114388057765e6 0.0
0.0 0.0 0.0

1.4251716100073077e7 2.3868819183413316e7 0.0
2.3868819183413316e7 1.2280771316361915e7 0.0
0.0 0.0 0.0

-2.991960041480492e6 1.7590197765009515e7 0.0
1.7590197765009515e7 5.6257760259468965e6 0.0
0.0 0.0 0.0

6.223320068032714e6 2.688024440965113e7 0.0
2.688024440965113e7 -6.092204377916291e6 0.0
0.0 0.0 0.0

-3.1067363813086674e6 1.8566368626975406e7 0.0
1.8566368626975406e7 8.265965142389918e6 0.0
0.0 0.0 0.0

-6.589594245120756e6 1.7403916184083164e7 0.0
1.7403916184083164e7 2.0078869630456407e7 0.0
0.0 0.0 0.0

-5.937965024700734e6 1.0859311218925111e7 0.0
1.0859311218925111e7 1.1840641218336754e7 0.0
0.0 0.0 0.0

-2.245051466350724e6 2.7942309117118202e7 0.0
2.7942309117118202e7 557620.7748832086 0.0
0.0 0.0 0.0

3.369507355568191e6 6.33203148653999e6 0.0
6.33203148653999e6 -2.583294943953296e7 0.0
0.0 0.0 0.0

2.997486344405067e6 8.466157578890683e6 0.0
8.466157578890683e6 -2.41880554898954e7 0.0
0.0 0.0 0.0

-4.201294305018436e6 2.6351725473319817e7 0.0
2.6351725473319817e7 9.097774407034509e6 0.0
0.0 0.0 0.0

-197843.13305299683 1.2694722378653081e7 0.0
1.2694722378653081e7 -7.068480663351815e6 0.0
0.0 0.0 0.0

2.0846818953377781e6 1.1596574209151048e7 0.0
1.1596574209151048e7 -1.753799428468304e7 0.0
0.0 0.0 0.0

-686734.7940123419 3.0622224416112475e7 0.0
3.0622224416112475e7 -1.2005420447485463e6 0.0
0.0 0.0 0.0

-264840.11288835935 2.7909235731337067e7 0.0
2.7909235731337067e7 -1.979042654535024e6 0.0
0.0 0.0 0.0

-1.3370534554704926e6 2.2324354590175178e7 0.0
2.2324354590175178e7 -7.362454092315086e6 0.0
0.0 0.0 0.0

-1.9379021189981112e6 1.8025817196905803e7 0.0
1.8025817196905803e7 -2.530562539517117e7 0.0
0.0 0.0 0.0

-3.0324155672338307e6 3.0803404289192587e7 0.0
3.0803404289192587e7 1.7531288035178178e6 0.0
0.0 0.0 0.0

-6.436152631178218e6 1.832529166186172e7 0.0
1.832529166186172e7 2.140948699189761e7 0.0
0.0 0.0 0.0

2.0949201774416538e6 7.307907238056782e6 0.0
7.307907238056782e6 -1.5638957920979122e7 0.0
0.0 0.0 0.0

1.4090061684988686e6 3.328239732367436e7 0.0
3.328239732367436e7 -1.3438008504156633e6 0.0
0.0 0.0 0.0

-3.1983935129872505e6 2.2449592356348306e7 0.0
2.2449592356348306e7 1.257177430224431e7 0.0
0.0 0.0 0.0

-123328.75661391788 2.73855515048531e7 0.0
2.73855515048531e7 -2.8077028509012763e6 0.0
0.0 0.0 0.0

172021.99694692902 2.0038648037990157e7 0.0
2.0038648037990157e7 -1.4891725325517407e7 0.0
0.0 0.0 0.0

-1.1668120526019675e6 2.8607642603161857e7 0.0
2.8607642603161857e7 413235.48572076095 0.0
0.0 0.0 0.0

-3.4876675964200404e6 2.26387206363794e7 0.0
2.26387206363794e7 1.5039008992165811e7 0.0
0.0 0.0 0.0

-1.1647338752288667e6 2.8680202500956118e7 0.0
2.8680202500956118e7 -1.575078156569016e6 0.0
0.0 0.0 0.0

7.44706289109744e6 3.568410393645163e7 0.0
3.568410393645163e7 -3.073690998614293e6 0.0
0.0 0.0 0.0

-9.31022679740941e6 1.6038478640806211e7 0.0
1.6038478640806211e7 2.6231637804234188e7 0.0
0.0 0.0 0.0

1.7923536598413512e6 1.2749529589988248e7 0.0
1.2749529589988248e7 -1.7167270992093343e7 0.0
0.0 0.0 0.0

-1.0696912482947433e7 1.276599356339587e7 0.0
1.276599356339587e7 2.7287566727909315e7 0.0
0.0 0.0 0.0

-9.482718109799389e6 1.4672983116707463e7 0.0
1.4672983116707463e7 1.8147170460561633e7 0.0
0.0 0.0 0.0

-551854.8082750337 -1.2126047571344457e6 0.0
-1.2126047571344457e6 1.2552681352811353e6 0.0
0.0 0.0 0.0

-752709.4454110826 -2.3720042638625847e6 0.0
-2.3720042638625847e6 2.430035690123435e6 0.0
0.0 0.0 0.0

-8.893651220373131e6 1.660767760198702e7 0.0
1.660767760198702e7 2.674161563155552e7 0.0
0.0 0.0 0.0

1.274222442470513e7 2.300045357008185e7 0.0
2.300045357008185e7 1.1146150103061864e7 0.0
0.0 0.0 0.0

936598.8967393183 2.8945869454058867e7 0.0
2.8945869454058867e7 -2.9635888685938353e6 0.0
0.0 0.0 0.0

-590606.3270580478 2.293561033876681e7 0.0
2.293561033876681e7 -6.605327188877903e6 0.0
0.0 0.0 0.0

1.7305538950182702e6 1.3190790349254388e7 0.0
1.3190790349254388e7 -1.7981929549851395e7 0.0
0.0 0.0 0.0

7.318620024162678e6 1.824684727481822e7 0.0
1.824684727481822e7 3.492007430050934e7 0.0
0.0 0.0 0.0

-2.8009952267768616e6 3.134266013567226e7 0.0
3.134266013567226e7 2.8955494920004476e6 0.0
0.0 0.0 0.0

-613523.3806250687 3.1225082293482766e7 0.0
3.1225082293482766e7 -1.1776677932643157e6 0.0
0.0 0.0 0.0

-225615.04277314807 3.1855714599464774e7 0.0
3.1855714599464774e7 -1.1841346875976026e6 0.0
0.0 0.0 0.0

-4.681100212989848e6 1.9933008905979477e7 0.0
1.9933008905979477e7 1.3719237372118238e7 0.0
0.0 0.0 0.0

-4.875297673763724e6 1.7756670920830026e7 0.0
1.7756670920830026e7 1.0646771436803091e7 0.0
0.0 0.0 0.0

-7.813080824457991e6 1.2482696234328294e7 0.0
1.2482696234328294e7 1.1801819118923642e7 0.0
0.0 0.0 0.0

-2.867579870307161e6 2.3680735685573373e7 0.0
2.3680735685573373e7 1.0095088152311604e7 0.0
0.0 0.0 0.0

-3.972769288654294e6 1.7032488956374746e7 0.0
1.7032488956374746e7 1.1909688870717157e7 0.0
0.0 0.0 0.0

-9.175811165717954e6 1.5598945826681077e7 0.0
1.5598945826681077e7 2.927446034892882e7 0.0
0.0 0.0 0.0

1.7284681021067807e6 1.3723757772809718e7 0.0
1.3723757772809718e7 -1.8578261778030705e7 0.0
0.0 0.0 0.0

-3.8279710971634514e6 2.1597726846631028e7 0.0
2.1597726846631028e7 1.1401628924752533e7 0.0
0.0 0.0 0.0

-9.738761416047975e6 1.3981752649894314e7 0.0
1.3981752649894314e7 3.0473017747712817e7 0.0
0.0 0.0 0.0

4.21114606354809e6 2.0512740097455636e7 0.0
2.0512740097455636e7 1.5314743693115087e7 0.0
0.0 0.0 0.0

-3.8052807484364095e6 1.8718525932814226e7 0.0
1.8718525932814226e7 5.9222597962303795e6 0.0
0.0 0.0 0.0

-1.0949316968347142e6 2.926341654318375e7 0.0
2.926341654318375e7 512252.9895921855 0.0
0.0 0.0 0.0

-1.2207435415832652e6 2.7909260557352375e7 0.0
2.7909260557352375e7 312483.4130027118 0.0
0.0 0.0 0.0

-3.4264905087517127e6 2.332723544223442e7 0.0
2.332723544223442e7 1.354048523839622e7 0.0
0.0 0.0 0.0

-1.785444062203628e6 1.889491835395078e7 0.0
1.889491835395078e7 -2.1147026673973422e7 0.0
0.0 0.0 0.0

-3.1603201421228913e6 2.392020859161806e7 0.0
2.392020859161806e7 7.5196848806345165e6 0.0
0.0 0.0 0.0

-5.613213357153998e6 1.8836591854131583e7 0.0
1.8836591854131583e7 1.990384147865568e7 0.0
0.0 0.0 0.0

-770782.8756780969 2.2040194540079806e7 0.0
2.2040194540079806e7 -6.914233887052265e6 0.0
0.0 0.0 0.0

3.636578795174851e6 3.2343814856594574e7 0.0
3.2343814856594574e7 -2.6237427390766335e6 0.0
0.0 0.0 0.0

-3.530716777493368e6 2.411516959219662e7 0.0
2.411516959219662e7 1.211528078122263e7 0.0
0.0 0.0 0.0

-1.0626156072567308e6 2.1679090649487525e7 0.0
2.1679090649487525e7 -8.514408417289397e6 0.0
0.0 0.0 0.0

2.74823980258302e6 9.07776694121289e6 0.0
9.07776694121289e6 -2.4962252279471405e7 0.0
0.0 0.0 0.0

-3.4023934278184073e6 1.9945427853641782e7 0.0
1.9945427853641782e7 1.3180157241863284e7 0.0
0.0 0.0 0.0

4.0315826022588974e6 2.660788850275922e7 0.0
2.660788850275922e7 -6.7663214225029275e6 0.0
0.0 0.0 0.0

2.617299120865985e6 2.9522519663417307e6 0.0
2.9522519663417307e6 -7.850265188902916e6 0.0
0.0 0.0 0.0

1.8623844784525596e6 9.173734211689383e6 0.0
9.173734211689383e6 -3.2827575906109996e7 0.0
0.0 0.0 0.0

-123911.86121735815 2.0384619792021684e7 0.0
2.0384619792021684e7 -1.0379965064654961e7 0.0
0.0 0.0 0.0

1.3040840103683958e7 2.3906061561006114e7 0.0
2.3906061561006114e7 1.2792342528702687e7 0.0
0.0 0.0 0.0

2.0753063771604989e6 9.529233010233544e6 0.0
9.529233010233544e6 -2.5682825805114165e7 0.0
0.0 0.0 0.0

1.8826645402791016e6 1.0757482618401967e7 0.0
1.0757482618401967e7 -2.496507360465848e7 0.0
0.0 0.0 0.0

1.7122722484074982e6 2.0322122227546144e7 0.0
2.0322122227546144e7 5.77997906448886e6 0.0
0.0 0.0 0.0

-1.0733195427651806e7 7.287559567454657e6 0.0
7.287559567454657e6 3.0385979210027702e7 0.0
0.0 0.0 0.0

-9.07950005310414e6 1.2938431545787085e7 0.0
1.2938431545787085e7 1.4829508560219835e7 0.0
0.0 0.0 0.0

-9.897726951319959e6 1.868259914792876e7 0.0
1.868259914792876e7 -4.7436561370345496e7 0.0
0.0 0.0 0.0

-5.929813826807679e6 1.742521327644178e7 0.0
1.742521327644178e7 1.3852495201464884e7 0.0
0.0 0.0 0.0

-1.1620712829062821e7 1.2495118665968532e7 0.0
1.2495118665968532e7 2.2225643361036465e7 0.0
0.0 0.0 0.0

3.119579640290118e6 2.244924015852212e7 0.0
2.244924015852212e7 1.0978296806810116e7 0.0
0.0 0.0 0.0

-8.507619213658726e6 -3.649245007568253e6 0.0
-3.649245007568253e6 3.163302231256252e7 0.0
0.0 0.0 0.0

-4.038305153157734e6 2.028821152823548e7 0.0
2.028821152823548e7 1.09392564481761e7 0.0
0.0 0.0 0.0

-3.4154150999000757e6 2.653057016145401e7 0.0
2.653057016145401e7 7.934403972684714e6 0.0
0.0 0.0 0.0

180201.18554375973 1.8457495896774534e7 0.0
1.8457495896774534e7 -1.5888463211171417e7 0.0
0.0 0.0 0.0

-7.604588335083821e6 -2.5450208173261257e6 0.0
-2.5450208173261257e6 1.210846819891244e7 0.0
0.0 0.0 0.0

-7.421997549633447e6 1.1832654083809365e7 0.0
1.1832654083809365e7 1.0180946539133428e7 0.0
0.0 0.0 0.0

117274.55184446648 7.804054734125062e6 0.0
7.804054734125062e6 -5.509915199854739e7 0.0
0.0 0.0 0.0

5.983135426159678e6 3.2607880370256595e7 0.0
3.2607880370256595e7 -3.399682169429898e6 0.0
0.0 0.0 0.0

-8.0300024559476245e6 1.2912115854202773e7 0.0
1.2912115854202773e7 3.8888624563814074e7 0.0
0.0 0.0 0.0

-5.370924641238329e6 1.936554619768232e7 0.0
1.936554619768232e7 -1.5997061690081762e7 0.0
0.0 0.0 0.0

-1.1723568461385593e7 1.2043146046183469e7 0.0
1.2043146046183469e7 2.3905806666112214e7 0.0
0.0 0.0 0.0

-1.3314624780604078e7 2.605488163996934e7 0.0
2.605488163996934e7 -9.205654376471281e6 0.0
0.0 0.0 0.0

-1.3367494664025423e6 2.0350285996048067e7 0.0
2.0350285996048067e7 -5.211274371481366e6 0.0
0.0 0.0 0.0

3.29822085477209e6 1.8703254109990515e7 0.0
1.8703254109990515e7 1.7904761269541107e7 0.0
0.0 0.0 0.0

1.9373047704342399e6 8.41905542876557e6 0.0
8.41905542876557e6 -3.444845084019947e7 0.0
0.0 0.0 0.0

-5.001704874117869e6 1.766101686820563e7 0.0
1.766101686820563e7 -1.5653845135871822e7 0.0
0.0 0.0 0.0

7.284250752126416e6 3.746437588861311e7 0.0
3.746437588861311e7 -4.685479303235795e6 0.0
0.0 0.0 0.0

-3.5163887174253035e6 2.024337030971977e7 0.0
2.024337030971977e7 1.4214870813473519e7 0.0
0.0 0.0 0.0

-8.444162808506722e6 -2.9599813884661132e6 0.0
-2.9599813884661132e6 3.503012169133611e7 0.0
0.0 0.0 0.0

-1.2999092809601622e6 2.0275733317751627e7 0.0
2.0275733317751627e7 1.7183692057060875e7 0.0
0.0 0.0 0.0

-1.110163498965405e7 2.5076252998307344e7 0.0
2.5076252998307344e7 -1.0897971521557996e7 0.0
0.0 0.0 0.0

-6.191699080101155e6 1.0573000952428672e7 0.0
1.0573000952428672e7 6.688866099974631e6 0.0
0.0 0.0 0.0

3.3117775070889518e6 1.9088762188043084e7 0.0
1.9088762188043084e7 3.771831171215548e7 0.0
0.0 0.0 0.0

-8.2062094641023185e6 1.7053842447698187e7 0.0
1.7053842447698187e7 1.9517474561126098e7 0.0
0.0 0.0 0.0

-9.432576157962285e6 1.5254771183557786e7 0.0
1.5254771183557786e7 1.9183749731179647e7 0.0
0.0 0.0 0.0

-8.845531749925613e6 1.1082749495602466e7 0.0
1.1082749495602466e7 3.861435322754643e7 0.0
0.0 0.0 0.0

-1.2264300418841857e6 2.006482106340082e7 0.0
2.006482106340082e7 2.1352163547825247e7 0.0
0.0 0.0 0.0

-8.964967767961303e6 3.0965901964682613e7 0.0
3.0965901964682613e7 5.338005220631693e6 0.0
0.0 0.0 0.0

-68791.24308412924 3.405731840546465e7 0.0
3.405731840546465e7 -1.2537915641059023e6 0.0
0.0 0.0 0.0

-3.574061058522147e6 2.24892760608127e7 0.0
2.24892760608127e7 1.0867478872769924e7 0.0
0.0 0.0 0.0

2.284430376908281e6 2.8108481198366387e6 0.0
2.8108481198366387e6 -6.600579180584747e6 0.0
0.0 0.0 0.0

2.159796803019165e6 1.1892191195024014e7 0.0
1.1892191195024014e7 -2.0227443230499987e7 0.0
0.0 0.0 0.0

1.8430243432569262e6 1.1776650030868141e7 0.0
1.1776650030868141e7 -1.5625541782116193e7 0.0
0.0 0.0 0.0

-5.002073844681182e6 1.8154887497690115e7 0.0
1.8154887497690115e7 1.197583342838741e7 0.0
0.0 0.0 0.0

-1.0420792791635431e6 4.580987207621308e7 0.0
4.580987207621308e7 -3.285715860648437e6 0.0
0.0 0.0 0.0

-9.751465309479456e6 8.440841308657939e6 0.0
8.440841308657939e6 1.2023846681754326e7 0.0
0.0 0.0 0.0

2.5315553602882456e6 3.012772622395282e7 0.0
3.012772622395282e7 -3.4642924435494477e6 0.0
0.0 0.0 0.0

4.469793431088377e6 2.7567803764475156e7 0.0
2.7567803764475156e7 -6.141237515059109e6 0.0
0.0 0.0 0.0

-4.3851711042383015e6 1.1456075141920429e7 0.0
1.1456075141920429e7 8.044863162748791e6 0.0
0.0 0.0 0.0

-276390.05889996013 1.8807095910691224e7 0.0
1.8807095910691224e7 1.2595720448203722e6 0.0
0.0 0.0 0.0

1.9899144461816117e7 2.2791773683552824e7 0.0
2.2791773683552824e7 1.0261537740204746e7 0.0
0.0 0.0 0.0

7.948993329178543e6 1.9969743413819574e7 0.0
1.9969743413819574e7 3.635157297920479e7 0.0
0.0 0.0 0.0

1.8125552856099033e6 1.9235526118637364e7 0.0
1.9235526118637364e7 1.5076793279213196e7 0.0
0.0 0.0 0.0

-8.2643967751354e6 1.651436025991037e7 0.0
1.651436025991037e7 1.8637508812271196e7 0.0
0.0 0.0 0.0

-312244.62271403545 4.2761594221569255e7 0.0
4.2761594221569255e7 -2.562270530975595e6 0.0
0.0 0.0 0.0

-1.935533996312146e7 2.745513594892167e7 0.0
2.745513594892167e7 -8.748540456063636e6 0.0
0.0 0.0 0.0

-9.29860521922281e6 1.5848018921347192e7 0.0
1.5848018921347192e7 2.007517742031057e7 0.0
0.0 0.0 0.0

139173.63446513005 1.2998387710029654e7 0.0
1.2998387710029654e7 -3.508672617617295e7 0.0
0.0 0.0 0.0

3.121466750545768e6 1.638836953553391e6 0.0
1.638836953553391e6 -3.9481740287267976e7 0.0
0.0 0.0 0.0

968589.7575902771 1.7587034249122832e7 0.0
1.7587034249122832e7 -1.6746651759358171e7 0.0
0.0 0.0 0.0

1.9337350943048308e6 1.2560988107349416e7 0.0
1.2560988107349416e7 -1.910096303085118e7 0.0
0.0 0.0 0.0

754997.7979755905 1.9125761886324108e7 0.0
1.9125761886324108e7 -1.4734729459666114e7 0.0
0.0 0.0 0.0

-1.8908503903153227e6 4.964165527864662e7 0.0
4.964165527864662e7 -5.277794383053438e6 0.0
0.0 0.0 0.0

-2.325529592353124e6 2.4486382075659417e7 0.0
2.4486382075659417e7 4.605808642196404e6 0.0
0.0 0.0 0.0

616743.4655655022 2.237959535639338e7 0.0
2.237959535639338e7 -1.1890020156472433e7 0.0
0.0 0.0 0.0

122949.18530413415 2.1596650032717485e7 0.0
2.1596650032717485e7 -1.2411137758122977e7 0.0
0.0 0.0 0.0

2.290831835344864e6 1.0896940176876144e7 0.0
1.0896940176876144e7 -1.8707980951977197e7 0.0
0.0 0.0 0.0

-3.7324714251142517e6 2.3581161996668164e7 0.0
2.3581161996668164e7 1.1145373277290504e7 0.0
0.0 0.0 0.0

301006.52251742873 2.0691061990376804e7 0.0
2.0691061990376804e7 1.886939873654867e7 0.0
0.0 0.0 0.0

-6.5774115266430285e6 2.467252861499408e7 0.0
2.467252861499408e7 8.078685644060243e6 0.0
0.0 0.0 0.0

-3.2763180660161264e6 8.498794112015408e6 0.0
8.498794112015408e6 7.25780040490842e7 0.0
0.0 0.0 0.0

-8.978146699155409e6 -1.6528127729322473e6 0.0
-1.6528127729322473e6 2.218875447435374e7 0.0
0.0 0.0 0.0

-1.128811119010928e7 7.421091176776816e7 0.0
7.421091176776816e7 -1.682428756966399e7 0.0
0.0 0.0 0.0

4.202467076401452e6 1.8890235348306052e7 0.0
1.8890235348306052e7 2.2829381865187e7 0.0
0.0 0.0 0.0

61347.786070036585 4.071570082201226e7 0.0
4.071570082201226e7 -1.8458691170291528e6 0.0
0.0 0.0 0.0

218382.40488913655 1.8791944605252832e7 0.0
1.8791944605252832e7 -1.1861439381395377e7 0.0
0.0 0.0 0.0

1.3346503262132476e6 2.1742595401010085e7 0.0
2.1742595401010085e7 -1.1413574003051745e7 0.0
0.0 0.0 0.0

-2.6739324040961633e6 2.5571087245068148e7 0.0
2.5571087245068148e7 6.616938419039208e6 0.0
0.0 0.0 0.0

3.899509831536471e6 2.20702085866235e6 0.0
2.20702085866235e6 -2.2087303848750416e7 0.0
0.0 0.0 0.0

9.079064013062587e6 2.1119350414813615e7 0.0
2.1119350414813615e7 3.0023626553289983e6 0.0
0.0 0.0 0.0

2.07390826921367e6 1.2466241079062134e7 0.0
1.2466241079062134e7 -2.092734808538039e7 0.0
0.0 0.0 0.0

4.670690818451771e6 2.5091105592811324e7 0.0
2.5091105592811324e7 -6.888073647398973e6 0.0
0.0 0.0 0.0

2.655307650649192e6 7.8346468005479155e6 0.0
7.8346468005479155e6 -3.355744927676473e7 0.0
0.0 0.0 0.0

-2.8116557381456927e6 2.1333427087477546e7 0.0
2.1333427087477546e7 9.976023962458817e6 0.0
0.0 0.0 0.0

2.744884745148671e6 7.441756067132036e6 0.0
7.441756067132036e6 -1.3503816238789916e7 0.0
0.0 0.0 0.0

-2.0771573544713398e6 1.1840763999099368e7 0.0
1.1840763999099368e7 913233.0270684455 0.0
0.0 0.0 0.0

-1.7919464100314744e7 2.4504885520484775e7 0.0
2.4504885520484775e7 -6.093754159737541e6 0.0
0.0 0.0 0.0

2.540186343580289e6 1.0353582165649826e7 0.0
1.0353582165649826e7 -2.431032529424384e7 0.0
0.0 0.0 0.0

-2.7058161732045473e6 1.7780795874726523e7 0.0
1.7780795874726523e7 -3.581875016230167e6 0.0
0.0 0.0 0.0

-20787.266785391606 2.2989080276678167e7 0.0
2.2989080276678167e7 -1.0152397454519516e7 0.0
0.0 0.0 0.0

-1.0196926362662129e6 1.949817257687347e7 0.0
1.949817257687347e7 2.6828046268306866e7 0.0
0.0 0.0 0.0

385962.3368011832 2.061433256850373e7 0.0
2.061433256850373e7 -1.8639106789421083e6 0.0
0.0 0.0 0.0

-5.759719763914349e6 1.7007850567946978e7 0.0
1.7007850567946978e7 1.25422006356642e7 0.0
0.0 0.0 0.0

-1.0699198179855792e7 8.556192544440169e6 0.0
8.556192544440169e6 3.3536910382590085e7 0.0
0.0 0.0 0.0

-478631.55190309696 1.9862611520545237e7 0.0
1.9862611520545237e7 2.7336566299351566e7 0.0
0.0 0.0 0.0

-7.106974176312362e6 1.8124079608899973e7 0.0
1.8124079608899973e7 1.881281024737135e7 0.0
0.0 0.0 0.0

-1.0793374028163012e7 3.9231865858322154e6 0.0
3.9231865858322154e6 3.0047651946054015e7 0.0
0.0 0.0 0.0

-4.108987395781463e6 1.958445933975384e7 0.0
1.958445933975384e7 1.5915325827057393e7 0.0
0.0 0.0 0.0

-4.223117965560269e6 2.2025363017141756e7 0.0
2.2025363017141756e7 1.6599435796026967e7 0.0
0.0 0.0 0.0

-9.672308662198458e6 6.601610701659691e6 0.0
6.601610701659691e6 1.7078341229988154e7 0.0
0.0 0.0 0.0

66194.48432686413 2.229992910380624e7 0.0
2.229992910380624e7 -1.1289335379099894e7 0.0
0.0 0.0 0.0

-2.933714371208133e6 2.5568584277545534e7 0.0
2.5568584277545534e7 4.1135795001538834e6 0.0
0.0 0.0 0.0

-6.95085442286263e6 1.8606080337871574e7 0.0
1.8606080337871574e7 1.955058157934632e7 0.0
0.0 0.0 0.0

-9.099407863785675e6 3.876160084851771e6 0.0
3.876160084851771e6 4.326913015258185e7 0.0
0.0 0.0 0.0

-2.0857874710680582e6 2.1565815979237e7 0.0
2.1565815979237e7 1.335245117376767e7 0.0
0.0 0.0 0.0

-8.789688704320189e6 1.5137396587865114e7 0.0
1.5137396587865114e7 2.1426784372737687e7 0.0
0.0 0.0 0.0

690340.6565508302 1.269162293768638e7 0.0
1.269162293768638e7 -3.301290791835483e7 0.0
0.0 0.0 0.0

-1.5244559266546108e6 1.8772694588940818e7 0.0
1.8772694588940818e7 3.3323385305500336e7 0.0
0.0 0.0 0.0

-8.848483884278648e6 1.6714123842321085e7 0.0
1.6714123842321085e7 2.490845558759492e7 0.0
0.0 0.0 0.0

1.8543192831663303e6 1.125162118018206e7 0.0
1.125162118018206e7 -1.4825214092908427e7 0.0
0.0 0.0 0.0

2.999773526979815e6 3.46768593267623e6 0.0
3.46768593267623e6 -3.1273775321613573e7 0.0
0.0 0.0 0.0

2.833874163598262e6 1.902378499214576e7 0.0
1.902378499214576e7 2.9143297753912315e7 0.0
0.0 0.0 0.0

830661.7377403826 1.9178897565711696e7 0.0
1.9178897565711696e7 3.1337591694789093e7 0.0
0.0 0.0 0.0

-589274.6770702144 1.8228563916564427e7 0.0
1.8228563916564427e7 -8.427314873514807e6 0.0
0.0 0.0 0.0

-3.6292944285100186e6 2.493716495848729e7 0.0
2.493716495848729e7 1.0864925878736665e7 0.0
0.0 0.0 0.0

163237.2447110812 3.674033221770164e7 0.0
3.674033221770164e7 -1.4839533574583363e6 0.0
0.0 0.0 0.0

591586.9713917868 2.057702993217418e7 0.0
2.057702993217418e7 -1.3661775113978181e7 0.0
0.0 0.0 0.0

-9.680585913803592e6 -459148.8390072878 0.0
-459148.8390072878 2.326599326753716e7 0.0
0.0 0.0 0.0

273674.0677347202 1.4877078923056804e7 0.0
1.4877078923056804e7 -2.8346855511696514e7 0.0
0.0 0.0 0.0

-3.226426402211896e6 2.2279208638410017e7 0.0
2.2279208638410017e7 1.3586619714300327e7 0.0
0.0 0.0 0.0

-9.583919591448588e6 1.5472407220682003e7 0.0
1.5472407220682003e7 2.5623099393701844e7 0.0
0.0 0.0 0.0

3.72516928320919e6 1.6480664795767587e7 0.0
1.6480664795767587e7 1.3032215320328178e7 0.0
0.0 0.0 0.0

1.0188064757658709e6 1.0054693732542558e7 0.0
1.0054693732542558e7 -3.87013058495709e7 0.0
0.0 0.0 0.0

1.012818339502994e6 1.2566628303858038e7 0.0
1.2566628303858038e7 -3.090620386800644e7 0.0
0.0 0.0 0.0

8.916072270981813e6 3.9174911091202475e7 0.0
3.9174911091202475e7 -5.445844406933777e6 0.0
0.0 0.0 0.0

-2.168712514469876e6 2.497753996387704e7 0.0
2.497753996387704e7 3.55088451814406e6 0.0
0.0 0.0 0.0

-2.594180353036263e6 2.6132344231286127e7 0.0
2.6132344231286127e7 5.591511209024411e6 0.0
0.0 0.0 0.0

-1.6257505725451694e6 2.6446484341490205e7 0.0
2.6446484341490205e7 -2.3233692331565153e6 0.0
0.0 0.0 0.0

3.7427338964263555e6 4.232254534890073e6 0.0
4.232254534890073e6 -1.833225407591691e7 0.0
0.0 0.0 0.0

-2.141476570539616e6 1.7509835417898398e7 0.0
1.7509835417898398e7 -8.042912360947466e6 0.0
0.0 0.0 0.0

-3.080005066394753e6 2.2116385070113525e7 0.0
2.2116385070113525e7 1.2823071433171216e7 0.0
0.0 0.0 0.0

1.0952929828791982e6 2.294462093902059e7 0.0
2.294462093902059e7 -1.0957960054869376e7 0.0
0.0 0.0 0.0

149821.11914934212 3.5714861062503606e7 0.0
3.5714861062503606e7 -1.3245125924423614e6 0.0
0.0 0.0 0.0

-7.060554194715865e6 9.556406084941356e6 0.0
9.556406084941356e6 1.3763400168461706e7 0.0
0.0 0.0 0.0

-1.145521466314825e7 1.0951443164600598e7 0.0
1.0951443164600598e7 2.75932210816914e7 0.0
0.0 0.0 0.0

45440.15018761193 3.4884003070260905e7 0.0
3.4884003070260905e7 -1.1651288195499182e6 0.0
0.0 0.0 0.0

-84647.13675953727 2.3713155916214358e7 0.0
2.3713155916214358e7 -9.085212921017133e6 0.0
0.0 0.0 0.0

1.5021594181974828e6 1.1368645219579803e7 0.0
1.1368645219579803e7 -1.9469378679244753e7 0.0
0.0 0.0 0.0

-4.327279265103132e6 1.782993736372022e7 0.0
1.782993736372022e7 1.4510847185844427e7 0.0
0.0 0.0 0.0

1.0661307276516054e6 9.290629446368298e6 0.0
9.290629446368298e6 -4.061804066617831e7 0.0
0.0 0.0 0.0

-985917.6431152744 3.052201757392466e7 0.0
3.052201757392466e7 618757.3159578603 0.0
0.0 0.0 0.0

-3.7274405149444602e6 2.2767123307234406e7 0.0
2.2767123307234406e7 1.0342636975437991e7 0.0
0.0 0.0 0.0

-439389.07320411876 1.3836078568161769e7 0.0
1.3836078568161769e7 -3.537316713812685e7 0.0
0.0 0.0 0.0

-3.4889825491226064e6 2.671487673882076e7 0.0
2.671487673882076e7 5.830689377081411e6 0.0
0.0 0.0 0.0

-1.1148047815730628e7 1.057217472296562e7 0.0
1.057217472296562e7 2.959312474626437e7 0.0
0.0 0.0 0.0

1.2678880253294138e6 1.1053168885994315e7 0.0
1.1053168885994315e7 -1.6752253754515199e7 0.0
0.0 0.0 0.0

2.0204377823066846e6 2.1667500296968937e7 0.0
2.1667500296968937e7 1.0825783344088063e7 0.0
0.0 0.0 0.0

-2.60065025088434e6 2.4199970830835182e7 0.0
2.4199970830835182e7 7.943696262334672e6 0.0
0.0 0.0 0.0

-1.1277075186243784e6 1.4783022777268402e7 0.0
1.4783022777268402e7 -3.495864627010211e7 0.0
0.0 0.0 0.0

-2.631009552423653e6 5.494313546007358e7 0.0
5.494313546007358e7 -8.285743114035575e6 0.0
0.0 0.0 0.0

-8.064184186012302e6 1.7942863393299386e7 0.0
1.7942863393299386e7 2.269202000559667e7 0.0
0.0 0.0 0.0

-1.1729206190675916e7 1.822713495137682e7 0.0
1.822713495137682e7 -5.7321554777934894e7 0.0
0.0 0.0 0.0

-5.236721804027444e6 1.0300669380404683e7 0.0
1.0300669380404683e7 1.0027418259248247e7 0.0
0.0 0.0 0.0

-4.1344210121089593e6 2.061525542847845e7 0.0
2.061525542847845e7 1.2021799617450677e7 0.0
0.0 0.0 0.0

-4.227017654013008e6 1.8512717846486222e7 0.0
1.8512717846486222e7 3.0961092477534436e7 0.0
0.0 0.0 0.0

-5.013615134610009e6 1.6658422669397403e7 0.0
1.6658422669397403e7 1.5202618664336724e7 0.0
0.0 0.0 0.0

284065.538986288 1.7090732620137952e7 0.0
1.7090732620137952e7 5.883474341316915e7 0.0
0.0 0.0 0.0

-3.0356527104495573e6 2.0647126922622625e7 0.0
2.0647126922622625e7 1.1500774674823772e7 0.0
0.0 0.0 0.0

-1.5011857029420286e6 1.8319405071750212e7 0.0
1.8319405071750212e7 -2.3633476918314237e7 0.0
0.0 0.0 0.0

706069.5044576144 2.102520121951511e7 0.0
2.102520121951511e7 -1.4400661811291356e7 0.0
0.0 0.0 0.0

1.5735909539426613e8 2.7855253738105554e7 0.0
2.7855253738105554e7 1.4743547761175178e7 0.0
0.0 0.0 0.0

-8.354664762802482e6 -2.840200346883261e6 0.0
-2.840200346883261e6 3.623934787718336e7 0.0
0.0 0.0 0.0

3.317538524779858e6 1.683521700976676e6 0.0
1.683521700976676e6 -3.594839975447705e7 0.0
0.0 0.0 0.0

-9.111734057948608e6 1.1457110534368223e6 0.0
1.1457110534368223e6 1.2614599683161952e7 0.0
0.0 0.0 0.0

-1.444610849283109e6 2.585413474148543e7 0.0
2.585413474148543e7 -3.2903530268909936e6 0.0
0.0 0.0 0.0

-7.552138150364561e6 -1.97066145304002e6 0.0
-1.97066145304002e6 4.653409714849763e7 0.0
0.0 0.0 0.0

-7.616480528753024e6 1.7271090431514464e7 0.0
1.7271090431514464e7 -3.411777390796045e7 0.0
0.0 0.0 0.0

-1.037382644344181e7 1.3913353373960981e7 0.0
1.3913353373960981e7 2.6143876949882314e7 0.0
0.0 0.0 0.0

-6.839499962023289e6 1.9044105326662034e7 0.0
1.9044105326662034e7 2.0131245132187426e7 0.0
0.0 0.0 0.0

3.0097896144021153e6 1.5866185551392022e6 0.0
1.5866185551392022e6 -4.069189335916063e7 0.0
0.0 0.0 0.0

836206.6107046166 1.8214050046645418e7 0.0
1.8214050046645418e7 -1.55067858028687e7 0.0
0.0 0.0 0.0

130601.81655191665 3.7950738224033184e7 0.0
3.7950738224033184e7 -1.2715479479065542e6 0.0
0.0 0.0 0.0

913848.3953838134 1.1757388633168042e7 0.0
1.1757388633168042e7 -1.5641456510469677e7 0.0
0.0 0.0 0.0

-3.595436927180462e6 2.2073598888805658e7 0.0
2.2073598888805658e7 -4.089494315232548e6 0.0
0.0 0.0 0.0

129222.30569104478 8.779998333192447e6 0.0
8.779998333192447e6 1.0187776659947537e8 0.0
0.0 0.0 0.0

-2.7579972165045664e6 8.40695216588087e6 0.0
8.40695216588087e6 -9.602155669963512e7 0.0
0.0 0.0 0.0

-6.44535609941804e6 1.7185791224691175e7 0.0
1.7185791224691175e7 -8.078836427714147e7 0.0
0.0 0.0 0.0

1.2267930227111774e6 1.6389462168430762e7 0.0
1.6389462168430762e7 -1.9189316170880023e7 0.0
0.0 0.0 0.0

2.1623564139675424e6 7.109291982395794e6 0.0
7.109291982395794e6 -4.390925000552717e7 0.0
0.0 0.0 0.0

-2.540815884733824e7 2.915339076927035e7 0.0
2.915339076927035e7 2.3751746268114075e6 0.0
0.0 0.0 0.0

929003.6033572508 2.2309428640176907e7 0.0
2.2309428640176907e7 -1.2148640716741187e7 0.0
0.0 0.0 0.0

-8.202433703418726e6 -2.7715385284425626e6 0.0
-2.7715385284425626e6 3.745673910768002e7 0.0
0.0 0.0 0.0

-7.789057482299002e6 1.237339086764189e7 0.0
1.237339086764189e7 1.5273791609742176e7 0.0
0.0 0.0 0.0

-2.456220175992974e6 2.665869672913344e7 0.0
2.665869672913344e7 4.589089055628692e6 0.0
0.0 0.0 0.0

-3.753308060564326e6 2.2733921150467943e7 0.0
2.2733921150467943e7 1.1716262821741872e7 0.0
0.0 0.0 0.0

-8.267831414349434e6 1.5451160908867352e7 0.0
1.5451160908867352e7 1.6453379540309943e7 0.0
0.0 0.0 0.0

-8.619156818168096e6 8.000324692098322e6 0.0
8.000324692098322e6 1.591658377632156e7 0.0
0.0 0.0 0.0

7.442274375248064e6 2.1097751071047273e7 0.0
2.1097751071047273e7 4.983550376288251e6 0.0
0.0 0.0 0.0

-202573.1604874106 2.447280894056425e7 0.0
2.447280894056425e7 -8.055698462219382e6 0.0
0.0 0.0 0.0

-3.302490198897913e6 6.654977405266933e6 0.0
6.654977405266933e6 549058.937726242 0.0
0.0 0.0 0.0

160264.48701927566 2.8102301480016097e7 0.0
2.8102301480016097e7 -2.6410948239365714e6 0.0
0.0 0.0 0.0

-9.438093887503734e6 1.6787761981992405e7 0.0
1.6787761981992405e7 2.4732770471683994e7 0.0
0.0 0.0 0.0

-4.1464576782778436e6 1.74438090704626e7 0.0
1.74438090704626e7 1.3239110260009406e7 0.0
0.0 0.0 0.0

-8.071631984552704e6 -2.634379355475541e6 0.0
-2.634379355475541e6 3.867203371375041e7 0.0
0.0 0.0 0.0

3.115343479457658e6 1.6579844228181625e6 0.0
1.6579844228181625e6 -3.827898414845915e7 0.0
0.0 0.0 0.0

1.955563007620275e6 7.396702157415102e6 0.0
7.396702157415102e6 -4.687214727257205e7 0.0
0.0 0.0 0.0

-1.1434578474372651e7 1.2888838814880697e7 0.0
1.2888838814880697e7 2.4688615618436635e7 0.0
0.0 0.0 0.0

-657091.9348627441 5.09130522548026e6 0.0
5.09130522548026e6 -8.30586309830132e7 0.0
0.0 0.0 0.0

-6.116888270422921e6 -457069.04666620254 0.0
-457069.04666620254 6.165405079858197e7 0.0
0.0 0.0 0.0

1.711923158978723e6 1.0690142772081316e7 0.0
1.0690142772081316e7 -2.0665596732982464e7 0.0
0.0 0.0 0.0

2.8089747572547533e6 9.225046467435794e6 0.0
9.225046467435794e6 -2.2975420843096785e7 0.0
0.0 0.0 0.0

5.846325468618156e6 3.476962423342503e7 0.0
3.476962423342503e7 -2.9383613682273007e6 0.0
0.0 0.0 0.0

-7.084070371565341e6 3.0859333168275688e7 0.0
3.0859333168275688e7 5.91204624160834e6 0.0
0.0 0.0 0.0

-2.760366568038337e6 2.362330243562261e7 0.0
2.362330243562261e7 9.072709551849157e6 0.0
0.0 0.0 0.0

403796.8722315442 2.6900025503386904e7 0.0
2.6900025503386904e7 -4.426437982412774e6 0.0
0.0 0.0 0.0

-1.0081880503340056e6 3.551355609261063e7 0.0
3.551355609261063e7 1.1746433480459687e6 0.0
0.0 0.0 0.0

-2.9444099277014565e6 2.5102917620930765e7 0.0
2.5102917620930765e7 8.563379605393905e6 0.0
0.0 0.0 0.0

575267.5809848891 1.9816689182315208e7 0.0
1.9816689182315208e7 1.23706633717176e7 0.0
0.0 0.0 0.0

923377.5587279499 2.674917992278599e6 0.0
2.674917992278599e6 -6.962667646251571e7 0.0
0.0 0.0 0.0

2.7954281075985692e6 1.466717215392292e6 0.0
1.466717215392292e6 -4.572160643590523e7 0.0
0.0 0.0 0.0

1.8162811568940878e6 1.7844867576837393e6 0.0
1.7844867576837393e6 -5.978219681234086e7 0.0
0.0 0.0 0.0

-2.474859050315578e6 2.690656997445387e7 0.0
2.690656997445387e7 1.3275453162837531e6 0.0
0.0 0.0 0.0

-6.877833523266405e6 1.1214306746700998e7 0.0
1.1214306746700998e7 8.483503220862899e6 0.0
0.0 0.0 0.0

-7.287704586528674e6 -1.8140398717951907e6 0.0
-1.8140398717951907e6 4.789421397585163e7 0.0
0.0 0.0 0.0

-1.1373846735899108e7 1.3238305752275346e7 0.0
1.3238305752275346e7 2.3067183100935124e7 0.0
0.0 0.0 0.0

3.649011517231604e6 3.58233914319707e6 0.0
3.58233914319707e6 -2.4356802448530994e7 0.0
0.0 0.0 0.0

-1.4737488093950145e7 2.8595990020265937e7 0.0
2.8595990020265937e7 4.904525410024266e6 0.0
0.0 0.0 0.0

-7.293569058452917e6 1.8223806356483124e7 0.0
1.8223806356483124e7 -2.898909058776282e7 0.0
0.0 0.0 0.0

-8.598572184383437e6 -3.5315807720287526e6 0.0
-3.5315807720287526e6 3.1034729794283453e7 0.0
0.0 0.0 0.0

-1.1717381710235108e7 4.834565898197794e6 0.0
4.834565898197794e6 2.1770438575193733e7 0.0
0.0 0.0 0.0

-1.0424598646766227e7 9.815904099471394e6 0.0
9.815904099471394e6 3.4254944082845755e7 0.0
0.0 0.0 0.0

-3.831223737525909e6 2.1086131622275066e7 0.0
2.1086131622275066e7 1.9349553343437035e7 0.0
0.0 0.0 0.0

1.1672716872952748e6 1.3134798928187944e7 0.0
1.3134798928187944e7 -2.7495285250431187e7 0.0
0.0 0.0 0.0

1.6165025044502094e6 2.233364266622864e6 0.0
2.233364266622864e6 -6.587407728584901e7 0.0
0.0 0.0 0.0

3.3571960187419914e6 1.7871998042728421e6 0.0
1.7871998042728421e6 -3.2588465147940677e7 0.0
0.0 0.0 0.0

1.390372047378042e7 3.7137381658835664e7 0.0
3.7137381658835664e7 -6.955279796546385e6 0.0
0.0 0.0 0.0

-6.4356818405682035e6 -676359.7240288449 0.0
-676359.7240288449 5.9196984560091645e7 0.0
0.0 0.0 0.0

1.9745873868477587e6 8.687929942994816e6 0.0
8.687929942994816e6 -3.9746665398223676e7 0.0
0.0 0.0 0.0

-4.875286748603087e6 2.355054584689358e6 0.0
2.355054584689358e6 7.863774707825147e7 0.0
0.0 0.0 0.0

694592.4228305854 3.4762236584187616e6 0.0
3.4762236584187616e6 -7.50236331966067e7 0.0
0.0 0.0 0.0

-3.7827859082704466e6 2.6486637892926224e7 0.0
2.6486637892926224e7 8.577569719917597e6 0.0
0.0 0.0 0.0

-1.2906578050326975e6 1.2995766819326138e7 0.0
1.2995766819326138e7 -7.159814879909768e6 0.0
0.0 0.0 0.0

-578919.4162993622 1.915958113360214e7 0.0
1.915958113360214e7 -1.2449942286925532e7 0.0
0.0 0.0 0.0

308875.29999867454 1.777921848236623e7 0.0
1.777921848236623e7 -2.0662003267155744e7 0.0
0.0 0.0 0.0

-5.713634708780378e6 -113778.18616785118 0.0
-113778.18616785118 6.468281114489721e7 0.0
0.0 0.0 0.0

1.597689365488235e6 2.0330569242961488e6 0.0
2.0330569242961488e6 -6.260602798985109e7 0.0
0.0 0.0 0.0

-8.545080183746595e6 1.7553142444042552e7 0.0
1.7553142444042552e7 2.5413874423704118e7 0.0
0.0 0.0 0.0

-9.84774413952247e6 1.622364773033495e7 0.0
1.622364773033495e7 2.4177546680261746e7 0.0
0.0 0.0 0.0

-1.0866787155730726e7 1.1590675547487497e7 0.0
1.1590675547487497e7 3.0283958037700754e7 0.0
0.0 0.0 0.0

-6.183794076647975e6 1.591220348055439e7 0.0
1.591220348055439e7 1.720671594119836e7 0.0
0.0 0.0 0.0

4.366006048405368e6 1.9537327419879295e7 0.0
1.9537327419879295e7 3.8361457028232194e7 0.0
0.0 0.0 0.0

767512.1940301913 2.505178650320747e7 0.0
2.505178650320747e7 -7.142276947700825e6 0.0
0.0 0.0 0.0

-2.281669353695998e6 2.8640919855960548e7 0.0
2.8640919855960548e7 682663.6674280657 0.0
0.0 0.0 0.0

543732.3212366446 2.6488068138845887e7 0.0
2.6488068138845887e7 -6.031236665786812e6 0.0
0.0 0.0 0.0

2.443499722838956e6 1.0719527665528905e7 0.0
1.0719527665528905e7 -2.0624768409499846e7 0.0
0.0 0.0 0.0

-4.052807337388905e6 2.9348729299707785e7 0.0
2.9348729299707785e7 5.579329396965282e6 0.0
0.0 0.0 0.0

-2.0741003364656286e6 2.109299566091369e7 0.0
2.109299566091369e7 -5.761757764979544e6 0.0
0.0 0.0 0.0

1.514114089681087e6 1.5241576133990113e7 0.0
1.5241576133990113e7 -2.1654301885935973e7 0.0
0.0 0.0 0.0

-8.660190445471294e6 1.5675414900503894e7 0.0
1.5675414900503894e7 3.131110714409857e7 0.0
0.0 0.0 0.0

-1.1057665383053832e7 1.3640786250307241e7 0.0
1.3640786250307241e7 2.5477144951288056e7 0.0
0.0 0.0 0.0

2.0479654296085965e6 9.765371687571866e6 0.0
9.765371687571866e6 -2.382446107284304e7 0.0
0.0 0.0 0.0

-7.858476937970184e6 -2.3418832596527054e6 0.0
-2.3418832596527054e6 4.246589782978934e7 0.0
0.0 0.0 0.0

2.9043827573890686e6 1.588648855681007e6 0.0
1.588648855681007e6 -4.190447890516442e7 0.0
0.0 0.0 0.0

-58348.055604401976 1.9668203420751058e7 0.0
1.9668203420751058e7 2.3875139534546383e7 0.0
0.0 0.0 0.0

-6.5605713098149e6 -884963.5315284765 0.0
-884963.5315284765 5.68869170265894e7 0.0
0.0 0.0 0.0

2.0226225197222494e6 1.6648351530944293e6 0.0
1.6648351530944293e6 -5.530750846341508e7 0.0
0.0 0.0 0.0

2.8045829116780106e6 1.6305934183687249e6 0.0
1.6305934183687249e6 -4.31040833929947e7 0.0
0.0 0.0 0.0

-7.71058627186485e6 -2.1769203938038074e6 0.0
-2.1769203938038074e6 4.373926419635293e7 0.0
0.0 0.0 0.0

-3.2019063241563793e6 1.737826527508053e7 0.0
1.737826527508053e7 3.987212175772425e7 0.0
0.0 0.0 0.0

2.254875059488874e6 1.581020048866745e6 0.0
1.581020048866745e6 -5.351370047269078e7 0.0
0.0 0.0 0.0

-6.708502036469668e6 -1.1746239166446642e6 0.0
-1.1746239166446642e6 5.469541042752139e7 0.0
0.0 0.0 0.0

-3.4724129943794003e6 2.0690603617368985e7 0.0
2.0690603617368985e7 2.194133381636947e7 0.0
0.0 0.0 0.0

-8.674345387862302e6 105805.65822574042 0.0
105805.65822574042 3.8634380404437274e7 0.0
0.0 0.0 0.0

-7.637374486580513e6 -2.0315078167342038e6 0.0
-2.0315078167342038e6 4.516657905580039e7 0.0
0.0 0.0 0.0

2.942989124186648e6 1.587666206990558e6 0.0
1.587666206990558e6 -4.448049931185626e7 0.0
0.0 0.0 0.0

2.3408746705761626e6 1.6047387483881856e6 0.0
1.6047387483881856e6 -5.178007096795811e7 0.0
0.0 0.0 0.0

-6.912220078682825e6 -1.4238835779980898e6 0.0
-1.4238835779980898e6 5.2788642766100384e7 0.0
0.0 0.0 0.0

-2.861132016983223e8 6.3580203876616485e7 0.0
6.3580203876616485e7 -3.389185764161167e7 0.0
0.0 0.0 0.0

2.671552516118181e8 5.397326528921784e7 0.0
5.397326528921784e7 2.576271817608574e7 0.0
0.0 0.0 0.0

-8.2878748868196355e6 1.5987657497704143e7 0.0
1.5987657497704143e7 1.7595044376173493e7 0.0
0.0 0.0 0.0

2.2846056556785647e6 1.510860648777979e6 0.0
1.510860648777979e6 -5.008917040143617e7 0.0
0.0 0.0 0.0

-7.179945542123228e6 -1.5441437906797081e6 0.0
-1.5441437906797081e6 5.120579077620027e7 0.0
0.0 0.0 0.0

282499.80668156187 1.930694223883198e7 0.0
1.930694223883198e7 -1.4375208195150862e6 0.0
0.0 0.0 0.0

-1.0695163173302466e7 1.4716709933112118e7 0.0
1.4716709933112118e7 2.4523425696100682e7 0.0
0.0 0.0 0.0

-2.257598405246343e6 2.716087092191648e7 0.0
2.716087092191648e7 3.686023700687656e6 0.0
0.0 0.0 0.0

697271.2702284232 2.0231085573106922e7 0.0
2.0231085573106922e7 2.468970395024575e7 0.0
0.0 0.0 0.0

-7.278207370691385e6 -1.6260660949792806e6 0.0
-1.6260660949792806e6 4.957026865495658e7 0.0
0.0 0.0 0.0

2.5257468567501865e6 1.3964428539658342e6 0.0
1.3964428539658342e6 -4.86936089909173e7 0.0
0.0 0.0 0.0

-225905.0957921918 2.5186156898788523e7 0.0
2.5186156898788523e7 -7.050364080634439e6 0.0
0.0 0.0 0.0

-8.670899991176458e6 1.7896325095923837e7 0.0
1.7896325095923837e7 -5.879144401511014e7 0.0
0.0 0.0 0.0

-925754.3247524879 2.8192140983630285e7 0.0
2.8192140983630285e7 -2.4353887706307992e6 0.0
0.0 0.0 0.0

1.1368633258648347e6 1.6995422196291067e7 0.0
1.6995422196291067e7 -1.7944870538926803e7 0.0
0.0 0.0 0.0

403186.00970293675 1.5872621645638652e7 0.0
1.5872621645638652e7 -2.505719151446487e7 0.0
0.0 0.0 0.0

-151390.59728775546 1.9923544630020384e7 0.0
1.9923544630020384e7 7.102040994513697e6 0.0
0.0 0.0 0.0

2.1780737013013186e6 2.5071673773200065e7 0.0
2.5071673773200065e7 -8.469995221893903e6 0.0
0.0 0.0 0.0

1.0310578398960489e6 2.292523589966108e7 0.0
2.292523589966108e7 -1.0833627966911748e7 0.0
0.0 0.0 0.0

-6.103958426502988e6 1.6705304595209103e7 0.0
1.6705304595209103e7 -4.534271017626739e7 0.0
0.0 0.0 0.0

-1.5313607784947525e6 2.831913857683184e7 0.0
2.831913857683184e7 1.1769226082266425e6 0.0
0.0 0.0 0.0

-3.2372335335790734e6 2.3178984104243908e7 0.0
2.3178984104243908e7 9.8193079829941e6 0.0
0.0 0.0 0.0

-7.726296174320567e6 2.4413895922437705e7 0.0
2.4413895922437705e7 -1.168660289804026e7 0.0
0.0 0.0 0.0

94420.78491677623 1.634590512064711e7 0.0
1.634590512064711e7 -2.506575649549269e7 0.0
0.0 0.0 0.0

-1.1147337720319757e7 1.358382658709388e7 0.0
1.358382658709388e7 2.1383616416485634e7 0.0
0.0 0.0 0.0

2.6375296268131165e6 1.8811575656396203e7 0.0
1.8811575656396203e7 1.260839628968965e7 0.0
0.0 0.0 0.0

-1.0191126034099847e7 1.5089379460293362e7 0.0
1.5089379460293362e7 2.1227905587495998e7 0.0
0.0 0.0 0.0

-1.8474076206815327e6 1.9472401279271107e7 0.0
1.9472401279271107e7 -2.351579891181077e6 0.0
0.0 0.0 0.0

-1.7831451853486262e6 2.8011269304815687e7 0.0
2.8011269304815687e7 2.0779222131830766e6 0.0
0.0 0.0 0.0

-2.307116268864697e6 1.660080050093026e7 0.0
1.660080050093026e7 -3.14345133856435e7 0.0
0.0 0.0 0.0

-2.5653129940234376e6 2.0769074434304014e7 0.0
2.0769074434304014e7 2.149809511960549e7 0.0
0.0 0.0 0.0

-1.1947724249514216e6 3.643779359650876e7 0.0
3.643779359650876e7 1.6109516457397258e6 0.0
0.0 0.0 0.0

-2.6446863923671963e6 1.9890875456797037e7 0.0
1.9890875456797037e7 -3.052989008227203e6 0.0
0.0 0.0 0.0

-457414.06482520094 2.646530910731622e7 0.0
2.646530910731622e7 -5.100491661433581e6 0.0
0.0 0.0 0.0

1.7151575745684914e7 2.4094422686796766e7 0.0
2.4094422686796766e7 1.2410379609215772e7 0.0
0.0 0.0 0.0

-2.0618181475073912e6 2.76144314104667e7 0.0
2.76144314104667e7 2.838323650183209e6 0.0
0.0 0.0 0.0

-9.033352210752407e6 1.6519924685941493e7 0.0
1.6519924685941493e7 -576732.490627436 0.0
0.0 0.0 0.0

-1.4878961623190115e6 3.0210261811046332e7 0.0
3.0210261811046332e7 1.2821035920788352e6 0.0
0.0 0.0 0.0

3.6545051311620865e6 2.0419940187619682e6 0.0
2.0419940187619682e6 -2.568340910911889e7 0.0
0.0 0.0 0.0

3.733532033091083e6 2.113262927218093e6 0.0
2.113262927218093e6 -2.470106558216774e7 0.0
0.0 0.0 0.0

-265601.1991976956 2.5852757895981103e7 0.0
2.5852757895981103e7 -5.893375641037866e6 0.0
0.0 0.0 0.0

1.680598862713052e6 1.967611327754158e7 0.0
1.967611327754158e7 3.204858029562295e7 0.0
0.0 0.0 0.0

-938114.8230308103 3.1142494860140607e7 0.0
3.1142494860140607e7 744227.1486340216 0.0
0.0 0.0 0.0

-1.108317417611718e7 1.1960135406548383e7 0.0
1.1960135406548383e7 2.8329776613602772e7 0.0
0.0 0.0 0.0

-936277.4761923798 3.399380002850184e7 0.0
3.399380002850184e7 1.0129999834094935e6 0.0
0.0 0.0 0.0

-2.835659063477719e6 2.1764090269252248e7 0.0
2.1764090269252248e7 1.3030936475680163e7 0.0
0.0 0.0 0.0

149486.48316431348 1.835818786975278e7 0.0
1.835818786975278e7 5.105702829170999e6 0.0
0.0 0.0 0.0

1.5833827670275085e6 1.2876428733471707e7 0.0
1.2876428733471707e7 -2.89116150133323e7 0.0
0.0 0.0 0.0

-3.1568436068364587e6 2.7034229127160653e7 0.0
2.7034229127160653e7 3.9841695764024025e6 0.0
0.0 0.0 0.0

-9.026241942561667e6 -2.2965865048024454e6 0.0
-2.2965865048024454e6 2.8021535862652384e7 0.0
0.0 0.0 0.0

-3.32269531382348e6 1.6577561472647747e7 0.0
1.6577561472647747e7 4.20943462487274e7 0.0
0.0 0.0 0.0

-5.449859331221709e6 1.627978645320035e7 0.0
1.627978645320035e7 -5.1060459251844786e7 0.0
0.0 0.0 0.0

-9.914448569989132e6 1.283854767662326e7 0.0
1.283854767662326e7 3.1891259182411186e7 0.0
0.0 0.0 0.0

6.594301080131566e6 2.5866730270598788e7 0.0
2.5866730270598788e7 -5.923063301625091e6 0.0
0.0 0.0 0.0

1.7363310798539966e6 1.3457459430798665e7 0.0
1.3457459430798665e7 -2.5629798777122095e7 0.0
0.0 0.0 0.0

-2.8680927408538535e6 1.950983939026678e7 0.0
1.950983939026678e7 -1.989398939294743e6 0.0
0.0 0.0 0.0

-692325.9040973086 2.767492855662205e7 0.0
2.767492855662205e7 -3.2869448431424843e6 0.0
0.0 0.0 0.0

-801459.6871702161 1.869830247604227e7 0.0
1.869830247604227e7 -5.608497287474536e6 0.0
0.0 0.0 0.0

-1.0686306325261567e7 1.3143486905918278e7 0.0
1.3143486905918278e7 2.546356310085682e7 0.0
0.0 0.0 0.0

-9.282515775753995e6 1.4833988384865826e7 0.0
1.4833988384865826e7 3.0914593860669244e7 0.0
0.0 0.0 0.0

-554861.365448821 2.708163111304335e7 0.0
2.708163111304335e7 -4.200385072030324e6 0.0
0.0 0.0 0.0

-7.54860823367918e6 1.5204563104000024e7 0.0
1.5204563104000024e7 1.8991785025757298e7 0.0
0.0 0.0 0.0

2.8128410397749674e6 4.444372611294866e6 0.0
4.444372611294866e6 -4.1243516812015355e7 0.0
0.0 0.0 0.0

-6.071426696270577e6 1.7833390191701017e7 0.0
1.7833390191701017e7 1.5094036840112053e7 0.0
0.0 0.0 0.0

-1.7489639366378586e6 1.8569978142220255e7 0.0
1.8569978142220255e7 -1.163346114476343e7 0.0
0.0 0.0 0.0

594689.2088010578 1.9550939634479202e7 0.0
1.9550939634479202e7 1.5681224273284315e6 0.0
0.0 0.0 0.0

-3.66154292469881e6 2.112896784908443e7 0.0
2.112896784908443e7 -1.2997186126313291e7 0.0
0.0 0.0 0.0

-1.7586468877251507e6 1.92795598297285e7 0.0
1.92795598297285e7 -7.699445834804624e6 0.0
0.0 0.0 0.0

417783.1114083724 1.6381454262004755e7 0.0
1.6381454262004755e7 -2.3546906800215602e7 0.0
0.0 0.0 0.0

2.1715247301151846e6 8.450777962626867e6 0.0
8.450777962626867e6 -3.0057167131813675e7 0.0
0.0 0.0 0.0

-1.330635299245156e6 1.8622071261240143e7 0.0
1.8622071261240143e7 -8.627276259522859e6 0.0
0.0 0.0 0.0

1.660771264823272e6 1.1197370732217943e7 0.0
1.1197370732217943e7 -2.1384822159289632e7 0.0
0.0 0.0 0.0

3.628140034306784e6 3.8796510123980045e6 0.0
3.8796510123980045e6 -1.9798865568986796e7 0.0
0.0 0.0 0.0

-2.7893106000963273e6 2.7961401416312806e7 0.0
2.7961401416312806e7 2.2671364946755124e6 0.0
0.0 0.0 0.0

-1.1655153003474083e6 1.3483914871735958e7 0.0
1.3483914871735958e7 -8.577082448350687e6 0.0
0.0 0.0 0.0

-3.4671907718331395e6 2.1138766004377455e7 0.0
2.1138766004377455e7 1.88194052455139e7 0.0
0.0 0.0 0.0

-7.527454670555325e6 -5.764510451920565e6 0.0
-5.764510451920565e6 1.788434680887693e7 0.0
0.0 0.0 0.0

4.208844486234687e6 2.1071072546978034e7 0.0
2.1071072546978034e7 2.402802645580884e6 0.0
0.0 0.0 0.0

-4.97001319451393e6 2.1443446680751543e7 0.0
2.1443446680751543e7 -1.4202745534938617e7 0.0
0.0 0.0 0.0

2.2073161125601362e6 8.97928229874705e6 0.0
8.97928229874705e6 -2.5010914301974e7 0.0
0.0 0.0 0.0

-1.0832472939833172e8 1.8246336863387283e7 0.0
1.8246336863387283e7 4.372769595739894e6 0.0
0.0 0.0 0.0

-4.883762918556582e6 2.0152497617332797e7 0.0
2.0152497617332797e7 2.2568873559390116e7 0.0
0.0 0.0 0.0

839206.1058445871 1.9715089453875672e7 0.0
1.9715089453875672e7 -1.5310504301819222e7 0.0
0.0 0.0 0.0

-1.3649796052909046e6 1.761806527029607e7 0.0
1.761806527029607e7 -9.407247004909828e6 0.0
0.0 0.0 0.0

1.1941354318369739e6 1.465474704173646e7 0.0
1.465474704173646e7 -2.6228446733939353e7 0.0
0.0 0.0 0.0

1.452649077561589e6 1.9406054845432807e7 0.0
1.9406054845432807e7 1.2639264744245837e7 0.0
0.0 0.0 0.0

793222.6143928617 1.3292006320441384e7 0.0
1.3292006320441384e7 -3.2783180163362604e7 0.0
0.0 0.0 0.0

1.5683824131409554e6 1.97569803285244e7 0.0
1.97569803285244e7 1.4699431386155313e7 0.0
0.0 0.0 0.0

318356.1684283707 1.7812430264291804e7 0.0
1.7812430264291804e7 -1.7098383955133695e7 0.0
0.0 0.0 0.0

2.8862194732086305e6 8.730447827898424e6 0.0
8.730447827898424e6 -2.6596725106380075e7 0.0
0.0 0.0 0.0

2.2760860594999623e6 2.455381787350831e6 0.0
2.455381787350831e6 -4.7581828460425615e7 0.0
0.0 0.0 0.0

4.562955613112051e6 2.7615381340498373e7 0.0
2.7615381340498373e7 -6.231151912011088e6 0.0
0.0 0.0 0.0

1.292551073046269e6 1.3025670021425437e7 0.0
1.3025670021425437e7 -3.0846981110404324e7 0.0
0.0 0.0 0.0

-4.1707892096802453e6 2.8592699108741075e7 0.0
2.8592699108741075e7 6.293335422843144e6 0.0
0.0 0.0 0.0

-8.182781716772101e6 2.302494105569727e7 0.0
2.302494105569727e7 1.7779371611658018e6 0.0
0.0 0.0 0.0

2.380953183270228e6 8.238159931898942e6 0.0
8.238159931898942e6 -1.2419480750577938e7 0.0
0.0 0.0 0.0

-1.615327308372963e6 3.741585960738425e7 0.0
3.741585960738425e7 1.9526858336609735e6 0.0
0.0 0.0 0.0

2.6752158814866114e6 9.803472569511035e6 0.0
9.803472569511035e6 -2.3657750752701428e7 0.0
0.0 0.0 0.0

856035.1430816948 1.8395910104012296e7 0.0
1.8395910104012296e7 4.3131176710648745e7 0.0
0.0 0.0 0.0

-810818.8967937283 2.0114290778738324e7 0.0
2.0114290778738324e7 1.9459657432284884e6 0.0
0.0 0.0 0.0

-7.384293052282782e6 2.9764685063638393e7 0.0
2.9764685063638393e7 6.488141685008291e6 0.0
0.0 0.0 0.0

-9.785717859726695e6 1.4410391724164814e7 0.0
1.4410391724164814e7 2.2588144335185196e7 0.0
0.0 0.0 0.0

934455.828276176 1.4296456388904013e7 0.0
1.4296456388904013e7 -2.629484660204964e7 0.0
0.0 0.0 0.0

-2.9023162691294244e6 1.178072826540521e7 0.0
1.178072826540521e7 -1.844215958571392e6 0.0
0.0 0.0 0.0

-936526.6703951124 1.9893539386992864e7 0.0
1.9893539386992864e7 -6.728482318325075e6 0.0
0.0 0.0 0.0

1.3816876888429916e7 2.187130851385772e7 0.0
2.187130851385772e7 3.541611684075308e6 0.0
0.0 0.0 0.0

758700.5909039164 1.967598748948144e7 0.0
1.967598748948144e7 -1.682662320115709e7 0.0
0.0 0.0 0.0

719116.6025247076 9.491818479199305e6 0.0
9.491818479199305e6 -6.3949519654896455e6 0.0
0.0 0.0 0.0

633450.7418707861 1.5352306527012767e7 0.0
1.5352306527012767e7 -2.497781203872054e7 0.0
0.0 0.0 0.0

-8.832762990221139e6 -1.5751817870175177e6 0.0
-1.5751817870175177e6 3.3950406716964036e7 0.0
0.0 0.0 0.0

-3.6570774388142116e6 2.198361547279158e7 0.0
2.198361547279158e7 1.6553241897129133e7 0.0
0.0 0.0 0.0

-1.0285200653644376e7 1.5308109850973738e7 0.0
1.5308109850973738e7 2.522905613596381e7 0.0
0.0 0.0 0.0

-1.740524465761184e7 2.650674726750768e7 0.0
2.650674726750768e7 -7.302607867383657e6 0.0
0.0 0.0 0.0

-5.603192968801519e6 1.7079931241377287e7 0.0
1.7079931241377287e7 -4.3355348250959024e7 0.0
0.0 0.0 0.0

-3.1463412687032027e6 2.582258691728734e7 0.0
2.582258691728734e7 8.290293481017149e6 0.0
0.0 0.0 0.0

-4.578871364323825e6 2.6939382967166387e7 0.0
2.6939382967166387e7 7.894590408307506e6 0.0
0.0 0.0 0.0

2.0105119756167838e6 2.3127712548033655e7 0.0
2.3127712548033655e7 -1.0405054682559958e7 0.0
0.0 0.0 0.0

-3.632818324283177e6 1.5524858679816695e7 0.0
1.5524858679816695e7 -4.485207261724626e7 0.0
0.0 0.0 0.0

-2.881381502403003e6 2.0675914411658753e7 0.0
2.0675914411658753e7 1.9469821510967847e7 0.0
0.0 0.0 0.0

-8.433441931806102e6 5.995861898306023e6 0.0
5.995861898306023e6 4.533387374959865e7 0.0
0.0 0.0 0.0

2.3389358349982505e6 2.825647752112201e6 0.0
2.825647752112201e6 -7.376554968356323e6 0.0
0.0 0.0 0.0

-1.4219287463906556e6 1.793231643562705e7 0.0
1.793231643562705e7 -2.301908724650561e7 0.0
0.0 0.0 0.0

1.9554284547409122e6 2.425123468009584e7 0.0
2.425123468009584e7 -9.347407130088558e6 0.0
0.0 0.0 0.0

-1.8365212164106427e6 2.0485243594612002e7 0.0
2.0485243594612002e7 -2.10068988904987e6 0.0
0.0 0.0 0.0

-627698.0622946871 1.6317975172856528e7 0.0
1.6317975172856528e7 -1.1994569552115068e7 0.0
0.0 0.0 0.0

-8.765763135661483e6 1.7993424669364084e7 0.0
1.7993424669364084e7 -3.497073115572654e7 0.0
0.0 0.0 0.0

-1.023057345784007e7 1.382912727290608e7 0.0
1.382912727290608e7 2.9587948088638037e7 0.0
0.0 0.0 0.0

244900.44725703192 3.0928551705242567e7 0.0
3.0928551705242567e7 -728139.6692165788 0.0
0.0 0.0 0.0

-2.481168353145157e7 2.700116291808426e7 0.0
2.700116291808426e7 -2.5556542663746513e6 0.0
0.0 0.0 0.0

4.610069836597184e6 2.1643836190298494e7 0.0
2.1643836190298494e7 2.6739073708932246e6 0.0
0.0 0.0 0.0

1.7224823860422634e6 8.060732051104068e6 0.0
8.060732051104068e6 -1.4529427435412005e7 0.0
0.0 0.0 0.0

-2.0369645617938167e6 2.0082412578821793e7 0.0
2.0082412578821793e7 -1.069959892499797e6 0.0
0.0 0.0 0.0

-9.609890391477466e6 1.1125956474521963e7 0.0
1.1125956474521963e7 3.581973112670872e7 0.0
0.0 0.0 0.0

-5.526619536904216e6 3.047274881628956e7 0.0
3.047274881628956e7 5.470826799367284e6 0.0
0.0 0.0 0.0

-3.490640991570577e6 2.072097319502081e7 0.0
2.072097319502081e7 2.018884955651529e7 0.0
0.0 0.0 0.0

-1.8920812763992958e6 2.890260702678179e7 0.0
2.890260702678179e7 -54501.82426642603 0.0
0.0 0.0 0.0

481007.1513854163 1.722446055173655e7 0.0
1.722446055173655e7 -1.8302630439846344e7 0.0
0.0 0.0 0.0

-9.097267091279997e6 1.3018757754287258e7 0.0
1.3018757754287258e7 3.5324710324598685e7 0.0
0.0 0.0 0.0

65964.9278204292 1.8139033504075665e7 0.0
1.8139033504075665e7 -2.0537272814064942e7 0.0
0.0 0.0 0.0

-6.95776898905989e6 2.247777203692699e7 0.0
2.247777203692699e7 -4.306372534551421e6 0.0
0.0 0.0 0.0

217870.6221043538 3.14884316676097e7 0.0
3.14884316676097e7 -840212.270123045 0.0
0.0 0.0 0.0

3.109616621274201e6 4.973414501860449e6 0.0
4.973414501860449e6 -2.099827252599054e7 0.0
0.0 0.0 0.0

2.113917678137804e6 2.262089649215367e7 0.0
2.262089649215367e7 -9.171799033774715e6 0.0
0.0 0.0 0.0

-2.877594070302869e6 2.5734490482341453e7 0.0
2.5734490482341453e7 7.4681396575095765e6 0.0
0.0 0.0 0.0

-1.0489158291785492e7 1.3512016018642655e7 0.0
1.3512016018642655e7 2.3671654736774877e7 0.0
0.0 0.0 0.0

-5.955324101588644e6 2.3721736782711465e7 0.0
2.3721736782711465e7 -1.0387663261891019e7 0.0
0.0 0.0 0.0

-9.350779205665333e6 1.57691789596536e7 0.0
1.57691789596536e7 2.8752637216745477e7 0.0
0.0 0.0 0.0

-2.552131554478501e6 6.528815687340824e6 0.0
6.528815687340824e6 5.878170872488784e6 0.0
0.0 0.0 0.0

-2.7365565144315325e6 2.499608889330633e7 0.0
2.499608889330633e7 7.646904744006039e6 0.0
0.0 0.0 0.0

-1.1362108321561357e7 1.2421428177115198e7 0.0
1.2421428177115198e7 2.6453269396707572e7 0.0
0.0 0.0 0.0

-4.1862502691610567e6 2.0904101364289433e7 0.0
2.0904101364289433e7 1.305782502062166e7 0.0
0.0 0.0 0.0

4.686524106982997e6 1.9188871907731757e7 0.0
1.9188871907731757e7 3.332309076417774e7 0.0
0.0 0.0 0.0

-2.537065358970549e6 1.5430230173274733e7 0.0
1.5430230173274733e7 -3.941274634250435e7 0.0
0.0 0.0 0.0

-7.045696311003148e6 -6.101738836443758e6 0.0
-6.101738836443758e6 1.6337069447752882e7 0.0
0.0 0.0 0.0

8.960099556543615e6 2.752786650249737e7 0.0
2.752786650249737e7 -5.279190389879866e6 0.0
0.0 0.0 0.0

-1.0254704980900213e7 1.1873441361915683e7 0.0
1.1873441361915683e7 3.128562667550789e7 0.0
0.0 0.0 0.0

333342.68253647257 1.4033993588653494e7 0.0
1.4033993588653494e7 -1.485835160714772e7 0.0
0.0 0.0 0.0

-2.4850009322421234e6 2.081134651651859e7 0.0
2.081134651651859e7 1.691619791647941e7 0.0
0.0 0.0 0.0

-885181.2685011877 1.890319806773489e7 0.0
1.890319806773489e7 -7.105862783031051e6 0.0
0.0 0.0 0.0

-4.546147931937103e6 2.1508101078444436e7 0.0
2.1508101078444436e7 1.8197560635864504e7 0.0
0.0 0.0 0.0

-70016.14861124055 1.1728462987544248e7 0.0
1.1728462987544248e7 -8.079310046359053e6 0.0
0.0 0.0 0.0

-6.28613058383635e6 2.470421558000389e7 0.0
2.470421558000389e7 7.087751379311956e6 0.0
0.0 0.0 0.0

-4.154397428914725e6 2.1114310488874156e7 0.0
2.1114310488874156e7 1.3962199941164838e7 0.0
0.0 0.0 0.0

1.659472231596645e6 2.238328762924179e7 0.0
2.238328762924179e7 -1.063973442607563e7 0.0
0.0 0.0 0.0

-3.325255274141471e6 2.598587379735899e7 0.0
2.598587379735899e7 5.944566104431943e6 0.0
0.0 0.0 0.0

-859850.7926638639 3.1813729486941934e7 0.0
3.1813729486941934e7 863164.3532787448 0.0
0.0 0.0 0.0

-2.0162750186517406e6 1.551066686326219e7 0.0
1.551066686326219e7 -3.4223294923008256e7 0.0
0.0 0.0 0.0

1.0233644135808017e6 2.6620457638235167e6 0.0
2.6620457638235167e6 -1.792346816095743e6 0.0
0.0 0.0 0.0

-8.383242682676238e6 754460.728052243 0.0
754460.728052243 1.053437990682479e7 0.0
0.0 0.0 0.0

1.6786621692071669e6 4.1125637582866405e6 0.0
4.1125637582866405e6 -5.910239152131455e7 0.0
0.0 0.0 0.0

74646.28263729205 2.4133346146755654e7 0.0
2.4133346146755654e7 -7.054467979664702e6 0.0
0.0 0.0 0.0

-4.015082579468759e6 2.0653837578419965e7 0.0
2.0653837578419965e7 2.07455588161387e7 0.0
0.0 0.0 0.0

-1.105242671806013e7 1.3989119489378368e7 0.0
1.3989119489378368e7 2.3806939428295188e7 0.0
0.0 0.0 0.0

-2.1846451309222234e6 3.851081760337644e7 0.0
3.851081760337644e7 2.236892216975012e6 0.0
0.0 0.0 0.0

-1.0796195463913072e7 1.008857152388215e7 0.0
1.008857152388215e7 3.1757831284503713e7 0.0
0.0 0.0 0.0

4.1556590909458034e7 6.794648637139383e7 0.0
6.794648637139383e7 -5.1297124541427735e6 0.0
0.0 0.0 0.0

423331.2673741719 2.172767406296446e7 0.0
2.172767406296446e7 -1.2645849803881409e7 0.0
0.0 0.0 0.0

1.359474185893436e6 1.5801382725579243e7 0.0
1.5801382725579243e7 -2.039257068173776e7 0.0
0.0 0.0 0.0

-3.5134762442367394e6 2.15414223714892e7 0.0
2.15414223714892e7 1.7282562544966355e7 0.0
0.0 0.0 0.0

-9.98381852768618e6 1.2432930616335316e7 0.0
1.2432930616335316e7 3.31628689822804e7 0.0
0.0 0.0 0.0

734553.1445893869 2.3546661775994103e7 0.0
2.3546661775994103e7 -9.292786861605579e6 0.0
0.0 0.0 0.0

918821.1430504965 1.9859460268489163e7 0.0
1.9859460268489163e7 4.482513881412091e6 0.0
0.0 0.0 0.0

2.819884696353838e6 2.5471465376982875e6 0.0
2.5471465376982875e6 -3.754422611154174e7 0.0
0.0 0.0 0.0

-9.133740397600416e6 9.082809659997568e6 0.0
9.082809659997568e6 1.7057277471673213e7 0.0
0.0 0.0 0.0

-3.652770141609213e6 4.157156126854485e7 0.0
4.157156126854485e7 3.4875935792373205e6 0.0
0.0 0.0 0.0

-4.596472879702455e6 2.04924485370402e7 0.0
2.04924485370402e7 2.241788709162635e7 0.0
0.0 0.0 0.0

-1.986003446852195e6 1.8491458101164926e7 0.0
1.8491458101164926e7 -1.908037559248199e7 0.0
0.0 0.0 0.0

7.593973740344452e6 2.1453991660480164e7 0.0
2.1453991660480164e7 7.6802494667586945e6 0.0
0.0 0.0 0.0

-1.0356026170569357e7 4.347415827072192e6 0.0
4.347415827072192e6 1.6926891830343515e7 0.0
0.0 0.0 0.0

-5.778173431111058e6 1.2243165956028756e7 0.0
1.2243165956028756e7 6.701727112111803e6 0.0
0.0 0.0 0.0

-2.10172882839982e6 1.8460404111618124e7 0.0
1.8460404111618124e7 -1.4602246007891146e7 0.0
0.0 0.0 0.0

187784.31101262895 1.7377858472698953e7 0.0
1.7377858472698953e7 -1.1859260163209839e7 0.0
0.0 0.0 0.0

-6.086675100740586e6 1.9589576556197025e7 0.0
1.9589576556197025e7 1.861588653976346e7 0.0
0.0 0.0 0.0

-1.8207351182590062e6 1.763828116801429e7 0.0
1.763828116801429e7 -2.4699481571860936e7 0.0
0.0 0.0 0.0

1.5362977254525349e6 1.3475581032917164e7 0.0
1.3475581032917164e7 -2.7405871387244754e7 0.0
0.0 0.0 0.0

-3.446229226811313e6 2.5852271396326438e7 0.0
2.5852271396326438e7 8.953748585166018e6 0.0
0.0 0.0 0.0

687250.5358925397 1.7804393522611253e7 0.0
1.7804393522611253e7 -2.0738775240824297e7 0.0
0.0 0.0 0.0

-1.0070411666753642e7 1.4578399638306022e7 0.0
1.4578399638306022e7 2.6776965626813646e7 0.0
0.0 0.0 0.0

3.4036632508075647e6 5.350817797847189e6 0.0
5.350817797847189e6 -1.5085578949638307e7 0.0
0.0 0.0 0.0

-3.364835937371474e7 3.3011362517434582e7 0.0
3.3011362517434582e7 -1.2459132690453775e7 0.0
0.0 0.0 0.0

1.3801698574412055e6 7.507587612761947e6 0.0
7.507587612761947e6 -1.1491108710271932e7 0.0
0.0 0.0 0.0

3.6624938556446154e6 2.669167576301141e6 0.0
2.669167576301141e6 -1.481236774533041e7 0.0
0.0 0.0 0.0

-4.918483029172627e6 2.679476694032814e7 0.0
2.679476694032814e7 8.37626053835642e6 0.0
0.0 0.0 0.0

2.1660559633621234e6 1.8673749494165312e7 0.0
1.8673749494165312e7 7.220187084455869e6 0.0
0.0 0.0 0.0

4.902547176988949e6 2.215354511660922e7 0.0
2.215354511660922e7 -1.9768565561365294e6 0.0
0.0 0.0 0.0

-4.722895429586953e6 1.876220638104382e7 0.0
1.876220638104382e7 2.9083471632412322e7 0.0
0.0 0.0 0.0

-1.9047681661702264e6 1.9064598466812424e7 0.0
1.9064598466812424e7 3.165710859254616e7 0.0
0.0 0.0 0.0

1.1860861339383852e7 1.8662067927820105e7 0.0
1.8662067927820105e7 5.628258749773e7 0.0
0.0 0.0 0.0

181293.7953142284 1.8926588195191577e7 0.0
1.8926588195191577e7 -3.960394862812008e6 0.0
0.0 0.0 0.0

-3.8573923000285747e6 2.144584459043326e7 0.0
2.144584459043326e7 1.8079918460104365e7 0.0
0.0 0.0 0.0

-5.167787369885888e6 1.853664386043794e7 0.0
1.853664386043794e7 1.3240909450458534e7 0.0
0.0 0.0 0.0

-2.40749206423819e6 1.8368139424352232e7 0.0
1.8368139424352232e7 -1.7577051416326113e7 0.0
0.0 0.0 0.0

-3.5958758540581074e6 2.617623586525943e7 0.0
2.617623586525943e7 6.753624365157042e6 0.0
0.0 0.0 0.0

-1.043813609590777e7 1.256458957346847e7 0.0
1.256458957346847e7 3.090796149806934e7 0.0
0.0 0.0 0.0

1.3400340680179391e7 2.5941700388120443e7 0.0
2.5941700388120443e7 -3.7264489866196876e6 0.0
0.0 0.0 0.0

789853.5139152077 2.2229853684223585e7 0.0
2.2229853684223585e7 -1.1492961463907646e7 0.0
0.0 0.0 0.0

2.5125255403801277e6 7.083794456763138e6 0.0
7.083794456763138e6 -2.4832166419830017e7 0.0
0.0 0.0 0.0

4.811098868724003e6 2.4032161554388877e7 0.0
2.4032161554388877e7 -6.9624107139851395e6 0.0
0.0 0.0 0.0

-666979.0168336709 2.769778571244743e7 0.0
2.769778571244743e7 -1.3125047628872069e6 0.0
0.0 0.0 0.0

-7.395092201603842e6 1.8973267540384397e7 0.0
1.8973267540384397e7 -2.4650313987468634e7 0.0
0.0 0.0 0.0

9.046007284633936e6 2.0586054051106703e7 0.0
2.0586054051106703e7 3.015336673175386e7 0.0
0.0 0.0 0.0

-8.194403779753871e6 -66208.00829537216 0.0
-66208.00829537216 4.402839513723385e7 0.0
0.0 0.0 0.0

1.6269077264248668e6 2.1508775604809947e7 0.0
2.1508775604809947e7 6.994931223922989e6 0.0
0.0 0.0 0.0

-8.645799172795974e6 -1.2240072195753548e6 0.0
-1.2240072195753548e6 3.612148707589425e7 0.0
0.0 0.0 0.0

638612.9139724651 2.8243253930907793e7 0.0
2.8243253930907793e7 -3.2353276595353773e6 0.0
0.0 0.0 0.0

4.25736848269495e6 2.659409654786303e7 0.0
2.659409654786303e7 -6.7565801256350195e6 0.0
0.0 0.0 0.0

-2.9471847366712773e6 3.98432887653702e7 0.0
3.98432887653702e7 2.418176336118985e6 0.0
0.0 0.0 0.0

9.26730469099057e6 1.9616066839243952e7 0.0
1.9616066839243952e7 8.400640958248526e6 0.0
0.0 0.0 0.0

-9.988040852013156e6 1.1498814880007764e7 0.0
1.1498814880007764e7 3.346961767775204e7 0.0
0.0 0.0 0.0

387018.73514584335 2.8810671163077142e7 0.0
2.8810671163077142e7 -2.308504742162807e6 0.0
0.0 0.0 0.0

-3.897642684895794e6 2.185131041295824e7 0.0
2.185131041295824e7 1.2406575726467393e7 0.0
0.0 0.0 0.0

-3.2440376902337684e6 2.4671634506731223e7 0.0
2.4671634506731223e7 7.145805066705391e6 0.0
0.0 0.0 0.0

1.5873214994463865e6 9.131247606754573e6 0.0
9.131247606754573e6 -4.261528311305657e7 0.0
0.0 0.0 0.0

-3.7674736653763494e6 2.573877819612964e7 0.0
2.573877819612964e7 9.686595291291235e6 0.0
0.0 0.0 0.0

1.600462796123449e7 1.671792999292848e7 0.0
1.671792999292848e7 4.3368037227109065e6 0.0
0.0 0.0 0.0

1.660299343033569e6 1.4077292263299525e7 0.0
1.4077292263299525e7 -2.4271877248586107e7 0.0
0.0 0.0 0.0

-6.444733054565147e6 2.9869256172920424e6 0.0
2.9869256172920424e6 6.20591784529653e7 0.0
0.0 0.0 0.0

-1.0510756232968997e6 2.9889674595259815e7 0.0
2.9889674595259815e7 596707.9448995837 0.0
0.0 0.0 0.0

3.195742700366318e6 2.177918936736215e7 0.0
2.177918936736215e7 6.723219192831809e6 0.0
0.0 0.0 0.0

-9.049144912487291e7 8.32715575139274e7 0.0
8.32715575139274e7 -1.1762594877886243e7 0.0
0.0 0.0 0.0

3.2141511543538757e6 4.068814835306567e6 0.0
4.068814835306567e6 -2.0111320645439237e7 0.0
0.0 0.0 0.0

-1.990634674654217e6 2.1075690862138003e7 0.0
2.1075690862138003e7 -857731.7495807229 0.0
0.0 0.0 0.0

-1.709605227907457e7 2.789929168044425e7 0.0
2.789929168044425e7 3.157283717465288e6 0.0
0.0 0.0 0.0

-347675.7109339498 2.0409742347891618e7 0.0
2.0409742347891618e7 -1.4795133631040363e7 0.0
0.0 0.0 0.0

550554.1383330105 2.164297548618135e7 0.0
2.164297548618135e7 -1.3113300720731424e7 0.0
0.0 0.0 0.0

1.1116711751661591e7 2.2734143189827397e7 0.0
2.2734143189827397e7 1.0273503097387706e6 0.0
0.0 0.0 0.0

-3.127170820180938e6 3.399306607904867e7 0.0
3.399306607904867e7 2.9271116744332807e6 0.0
0.0 0.0 0.0

-3.9089579175423095e6 2.1501833911463544e7 0.0
2.1501833911463544e7 -1.2581078245127404e7 0.0
0.0 0.0 0.0

2.485313886621522e6 5.130394382946998e6 0.0
5.130394382946998e6 -4.531305467519901e7 0.0
0.0 0.0 0.0

-3.138105345744064e7 3.0194358526875068e7 0.0
3.0194358526875068e7 -8.211416624523973e6 0.0
0.0 0.0 0.0

-3.2245686431867136e6 2.1202805937865667e7 0.0
2.1202805937865667e7 1.3528187411384337e7 0.0
0.0 0.0 0.0

3.8873610305944937e6 2.5657153641694296e7 0.0
2.5657153641694296e7 -7.312302803039373e6 0.0
0.0 0.0 0.0

184565.69717163406 1.8508211695450846e7 0.0
1.8508211695450846e7 4.0501875065267235e7 0.0
0.0 0.0 0.0

1.4579799357154677e7 2.4504764652465757e7 0.0
2.4504764652465757e7 -2.532757727655298e6 0.0
0.0 0.0 0.0

-3.9381893160725413e6 2.4006298950227715e7 0.0
2.4006298950227715e7 1.2523849205731118e7 0.0
0.0 0.0 0.0

-452461.48770772014 1.8131708816619202e7 0.0
1.8131708816619202e7 -1.3094352432641001e7 0.0
0.0 0.0 0.0

7.342031432461048e6 1.2079703041925132e7 0.0
1.2079703041925132e7 4.21935762886075e6 0.0
0.0 0.0 0.0

2.8360927384198704e6 2.2650976523669578e7 0.0
2.2650976523669578e7 -7.617641488913217e6 0.0
0.0 0.0 0.0

-4.862427137269793e6 1.978687840708719e7 0.0
1.978687840708719e7 2.5054768236212388e7 0.0
0.0 0.0 0.0

-5.286700207859594e6 6.518492694629981e6 0.0
6.518492694629981e6 6.498838822299385e7 0.0
0.0 0.0 0.0

-5.856586342090007e6 1.0611171072094638e6 0.0
1.0611171072094638e6 6.8167528565357e7 0.0
0.0 0.0 0.0

-599963.8673236091 2.0109247856058884e7 0.0
2.0109247856058884e7 -1.1684670355679989e7 0.0
0.0 0.0 0.0

683810.9859998757 2.1302788576443695e7 0.0
2.1302788576443695e7 -1.2552068284791565e7 0.0
0.0 0.0 0.0

703931.4637648249 2.1596279541905444e7 0.0
2.1596279541905444e7 -1.3195557171516784e7 0.0
0.0 0.0 0.0

-1.3148279276946528e7 2.4459893421633963e7 0.0
2.4459893421633963e7 -3.761828177607253e6 0.0
0.0 0.0 0.0

2.0155523119982027e7 2.2294620438923687e7 0.0
2.2294620438923687e7 1.0928800087571029e7 0.0
0.0 0.0 0.0

-5.219402853872993e6 2.0601683554037124e7 0.0
2.0601683554037124e7 2.1262640211429715e7 0.0
0.0 0.0 0.0

911669.0557561368 2.152576540831032e7 0.0
2.152576540831032e7 -1.3107725866583634e7 0.0
0.0 0.0 0.0

-791084.4257035316 1.729844630003845e7 0.0
1.729844630003845e7 -1.160311079279482e7 0.0
0.0 0.0 0.0

-9.427316320724726e6 -2.487209713334307e6 0.0
-2.487209713334307e6 2.440155103793016e7 0.0
0.0 0.0 0.0

-291382.5269502364 1.4303367294684147e7 0.0
1.4303367294684147e7 -3.3081680476224504e7 0.0
0.0 0.0 0.0

-9.767922758591896e6 1.2058916732065412e6 0.0
1.2058916732065412e6 3.45238727114509e7 0.0
0.0 0.0 0.0

-8.65187190994722e6 -4.0356577848524842e6 0.0
-4.0356577848524842e6 2.738539870021978e7 0.0
0.0 0.0 0.0

-8.642290524130074e6 -4.336304620816902e6 0.0
-4.336304620816902e6 2.6576804647652306e7 0.0
0.0 0.0 0.0

-4.899605216190476e6 1.2043562510793863e7 0.0
1.2043562510793863e7 9.759270722013831e6 0.0
0.0 0.0 0.0

634115.831840381 1.6617595699625064e7 0.0
1.6617595699625064e7 -1.954806828211137e7 0.0
0.0 0.0 0.0

279442.0596051607 1.4152216505206289e7 0.0
1.4152216505206289e7 -3.2842021947748486e7 0.0
0.0 0.0 0.0

-1.3023860277131675e6 2.032511417821198e7 0.0
2.032511417821198e7 -5.238399376933146e6 0.0
0.0 0.0 0.0

2.6976751291669747e6 2.2782873633084647e7 0.0
2.2782873633084647e7 -9.076061312794596e6 0.0
0.0 0.0 0.0

5.334782211344197e6 2.1992529442762643e7 0.0
2.1992529442762643e7 603185.0517598395 0.0
0.0 0.0 0.0

-296380.6434692489 2.61707998035274e7 0.0
2.61707998035274e7 -4.0096648518268256e6 0.0
0.0 0.0 0.0

5.753621953883285e7 2.6775061891925726e7 0.0
2.6775061891925726e7 8.587013535949396e6 0.0
0.0 0.0 0.0

8.206671949156787e6 1.597052263266079e7 0.0
1.597052263266079e7 9.554924337950086e6 0.0
0.0 0.0 0.0

4.235232696219178e6 2.2405205447971832e7 0.0
2.2405205447971832e7 -4.1128426153098936e6 0.0
0.0 0.0 0.0

5.053232918451795e6 2.68031884577536e7 0.0
2.68031884577536e7 -6.429230690503977e6 0.0
0.0 0.0 0.0

-225115.23447157867 2.9709591276745737e7 0.0
2.9709591276745737e7 -791253.5792967123 0.0
0.0 0.0 0.0

548864.1166151613 1.866656232785987e7 0.0
1.866656232785987e7 -1.9428557879948817e7 0.0
0.0 0.0 0.0

-1.8825422712541528e7 2.7062560002838075e7 0.0
2.7062560002838075e7 420747.8483025171 0.0
0.0 0.0 0.0

-5.752704690775432e6 2.7332344177869935e7 0.0
2.7332344177869935e7 7.880010764855841e6 0.0
0.0 0.0 0.0

3.717364446572773e6 2.102235199369282e6 0.0
2.102235199369282e6 -2.2766862436536178e7 0.0
0.0 0.0 0.0

-1.1028335354147658e6 2.749588611907793e7 0.0
2.749588611907793e7 -2.6181321008252515e6 0.0
0.0 0.0 0.0

-5.779979425185443e6 4.317178273332871e7 0.0
4.317178273332871e7 3.7598267405001055e6 0.0
0.0 0.0 0.0

-2.423448342153741e6 1.597423547895329e7 0.0
1.597423547895329e7 -7.267802872471734e6 0.0
0.0 0.0 0.0

1.4967908524877243e6 1.4076626521410124e7 0.0
1.4076626521410124e7 -2.594852748471837e7 0.0
0.0 0.0 0.0

759644.6393404081 1.3765044471177425e7 0.0
1.3765044471177425e7 -3.1136943110231105e7 0.0
0.0 0.0 0.0

-522945.7913119253 1.5101185376123825e7 0.0
1.5101185376123825e7 -3.2800271604336217e7 0.0
0.0 0.0 0.0

1.205005987792342e7 3.793167944039109e7 0.0
3.793167944039109e7 -4.524094211765758e6 0.0
0.0 0.0 0.0

983935.537809155 2.1349523527233817e7 0.0
2.1349523527233817e7 -1.2953300570846848e7 0.0
0.0 0.0 0.0

6.042583441052457e6 1.9777432087545432e7 0.0
1.9777432087545432e7 3.416361498762536e7 0.0
0.0 0.0 0.0

-2.385760156221248e7 2.179754942402392e7 0.0
2.179754942402392e7 4.523192297696857e6 0.0
0.0 0.0 0.0

-7.047495312149115e7 3.514924797771616e7 0.0
3.514924797771616e7 -6.749043871313404e6 0.0
0.0 0.0 0.0

1.5970025890447423e6 6.497376914081282e6 0.0
6.497376914081282e6 -5.7386878634115845e7 0.0
0.0 0.0 0.0

3.3387666795897777e6 2.263093419762999e7 0.0
2.263093419762999e7 -6.009878330314394e6 0.0
0.0 0.0 0.0

4.417655548259544e6 2.488638056231764e7 0.0
2.488638056231764e7 -7.2240653371057e6 0.0
0.0 0.0 0.0

3.6765904937168052e6 2.205010054271433e6 0.0
2.205010054271433e6 -2.148989227023869e7 0.0
0.0 0.0 0.0

-1.7456619890003085e7 2.5493677532170955e7 0.0
2.5493677532170955e7 -5.999853561840502e6 0.0
0.0 0.0 0.0

-858262.679656229 1.9782419845512226e7 0.0
1.9782419845512226e7 2.2506049294336922e7 0.0
0.0 0.0 0.0

8.400902444746157e6 1.915554773877137e7 0.0
1.915554773877137e7 1.3423772034331765e7 0.0
0.0 0.0 0.0

-8.157211600610311e6 -4.798563771878842e6 0.0
-4.798563771878842e6 2.274452101165973e7 0.0
0.0 0.0 0.0

557655.1174224764 1.6811875748626333e7 0.0
1.6811875748626333e7 -2.3548525038213026e7 0.0
0.0 0.0 0.0

1.8790023394065592e6 1.050934570240356e7 0.0
1.050934570240356e7 -2.262998006693242e7 0.0
0.0 0.0 0.0

561521.5219238594 9.025150290403765e6 0.0
9.025150290403765e6 -5.21128408843372e6 0.0
0.0 0.0 0.0

-9.029505691681094e6 -4.671063419274e6 0.0
-4.671063419274e6 1.965491104627619e7 0.0
0.0 0.0 0.0

6.069181285646852e6 1.9335449259843133e7 0.0
1.9335449259843133e7 8.206897329497376e7 0.0
0.0 0.0 0.0

-8.847441858659605e6 5.077587066516893e6 0.0
5.077587066516893e6 4.41689841367455e7 0.0
0.0 0.0 0.0

3.187164705136228e6 3.0773201732492387e7 0.0
3.0773201732492387e7 -3.4281463114676336e6 0.0
0.0 0.0 0.0

-2.1560428958134567e6 2.065847009523416e7 0.0
2.065847009523416e7 185190.48766547383 0.0
0.0 0.0 0.0

-2.387564047658983e6 1.8139056617996447e7 0.0
1.8139056617996447e7 -1.2973424425190274e7 0.0
0.0 0.0 0.0

2.4465926230920344e6 2.4641519860967066e7 0.0
2.4641519860967066e7 -8.696937781416692e6 0.0
0.0 0.0 0.0

-3.836518450749299e6 2.6289442889429443e7 0.0
2.6289442889429443e7 7.54123250644153e6 0.0
0.0 0.0 0.0

7.215645226709722e6 4.424386380550205e7 0.0
4.424386380550205e7 -1.146622740029627e6 0.0
0.0 0.0 0.0

2.9443164733514483e6 4.341092160912035e6 0.0
4.341092160912035e6 -1.1680638865293223e7 0.0
0.0 0.0 0.0

-9.528634156004382e6 -2.4731351137340683e6 0.0
-2.4731351137340683e6 2.4651929227126442e7 0.0
0.0 0.0 0.0

-145966.91429525253 1.932254021334845e7 0.0
1.932254021334845e7 2.493190638130392e6 0.0
0.0 0.0 0.0

-9.42466007677049e6 2.806943682886697e7 0.0
2.806943682886697e7 6.404500060753831e6 0.0
0.0 0.0 0.0

-1.530969712262001e6 1.9659907801673036e7 0.0
1.9659907801673036e7 2.5418818723813087e7 0.0
0.0 0.0 0.0

-1.0368286540945245e7 1.3560128638240151e7 0.0
1.3560128638240151e7 2.7939223431569774e7 0.0
0.0 0.0 0.0

1.1952649012024784e6 1.523284631394888e7 0.0
1.523284631394888e7 -2.4803585697297946e7 0.0
0.0 0.0 0.0

-1.7424348133134082e8 2.8592764916861247e7 0.0
2.8592764916861247e7 -1.242510896382016e7 0.0
0.0 0.0 0.0

-1.0592430738035062e7 1.227866410285462e7 0.0
1.227866410285462e7 2.9290762383793935e7 0.0
0.0 0.0 0.0

-7.916002898066785e6 2.7998891703622498e7 0.0
2.7998891703622498e7 6.904217503267076e6 0.0
0.0 0.0 0.0

468341.56682406645 1.8212843917823266e7 0.0
1.8212843917823266e7 -2.067945924081139e7 0.0
0.0 0.0 0.0

-1.6052105612298623e6 1.5842875997645168e7 0.0
1.5842875997645168e7 -3.2110612345949925e7 0.0
0.0 0.0 0.0

5.474909515293252e6 4.182362167342587e7 0.0
4.182362167342587e7 -804203.8974989732 0.0
0.0 0.0 0.0

-1.9663322666572891e6 1.670514231634578e7 0.0
1.670514231634578e7 -2.925643414418368e7 0.0
0.0 0.0 0.0

978576.7286904752 2.1145166639005337e7 0.0
2.1145166639005337e7 -1.2517707941059247e7 0.0
0.0 0.0 0.0

787355.8170833824 1.973542177461379e7 0.0
1.973542177461379e7 4.874641697543178e6 0.0
0.0 0.0 0.0

1.8341478708910164e6 3.448195538289346e7 0.0
3.448195538289346e7 -592940.5545772449 0.0
0.0 0.0 0.0

-1.1202263875291089e7 2.7931272489123214e7 0.0
2.7931272489123214e7 5.620999840237585e6 0.0
0.0 0.0 0.0

900734.0600853702 1.6319030149584267e7 0.0
1.6319030149584267e7 -2.3472356978230447e7 0.0
0.0 0.0 0.0

684080.4721631398 2.0965837783041783e7 0.0
2.0965837783041783e7 -1.363973427324312e7 0.0
0.0 0.0 0.0

-2.6533606543964786e6 2.6512772297986817e7 0.0
2.6512772297986817e7 2.2108350234250147e6 0.0
0.0 0.0 0.0

-6.6905293031652905e6 2.771540021823716e7 0.0
2.771540021823716e7 7.390201887188374e6 0.0
0.0 0.0 0.0

-8.371876864113215e6 -2.9982779837733363e6 0.0
-2.9982779837733363e6 3.5233304543523006e7 0.0
0.0 0.0 0.0

-5.558080154483994e6 1.9251452723137267e7 0.0
1.9251452723137267e7 2.0478427299317323e7 0.0
0.0 0.0 0.0

-2.2525912174879313e6 1.7358962697379865e7 0.0
1.7358962697379865e7 -2.6488280820704672e7 0.0
0.0 0.0 0.0

1.9926795130219862e7 2.1445340886045497e7 0.0
2.1445340886045497e7 3.405988566488893e6 0.0
0.0 0.0 0.0

93535.45942703914 1.7175557444685545e7 0.0
1.7175557444685545e7 -2.3574176577386808e7 0.0
0.0 0.0 0.0

-476563.78460001945 2.016128788108695e7 0.0
2.016128788108695e7 -2.986554682353649e6 0.0
0.0 0.0 0.0

-9.850308924768891e6 1.0001067153112464e7 0.0
1.0001067153112464e7 3.522675407188641e7 0.0
0.0 0.0 0.0

-7.040778117828814e6 2.231368305111223e7 0.0
2.231368305111223e7 -1.2939026906158615e7 0.0
0.0 0.0 0.0

-1.5076188100990807e6 1.819410519835363e7 0.0
1.819410519835363e7 -6.883819859409423e6 0.0
0.0 0.0 0.0

-68324.4972477518 2.0797235362184517e7 0.0
2.0797235362184517e7 -1.2654462787670013e7 0.0
0.0 0.0 0.0

-1.3281337377936259e7 4.751919568572444e7 0.0
4.751919568572444e7 5.907522342524715e6 0.0
0.0 0.0 0.0

-5.2545217335907444e7 1.6635053049231293e7 0.0
1.6635053049231293e7 5.083521856832139e6 0.0
0.0 0.0 0.0

3.1054638159837443e6 3.1686226958856143e7 0.0
3.1686226958856143e7 -3.920832570674148e6 0.0
0.0 0.0 0.0

-8.542692751012832e6 4.518038405679988e7 0.0
4.518038405679988e7 4.908072079036092e6 0.0
0.0 0.0 0.0

2.6788787698932905e7 5.7918562080222525e7 0.0
5.7918562080222525e7 -2.8302369121914487e6 0.0
0.0 0.0 0.0

-740541.350986898 1.5433808882351784e7 0.0
1.5433808882351784e7 -3.062513652576984e7 0.0
0.0 0.0 0.0

-9.088560724659858e6 1.774510894129162e7 0.0
1.774510894129162e7 -3.3946733677125335e7 0.0
0.0 0.0 0.0

-4.276396364256494e6 2.546140509473379e7 0.0
2.546140509473379e7 9.891106950940747e6 0.0
0.0 0.0 0.0

-1.0733239162084902e7 1.2951315174722953e7 0.0
1.2951315174722953e7 2.8977950510223374e7 0.0
0.0 0.0 0.0

-1.158410888109271e7 2.472126647870647e7 0.0
2.472126647870647e7 2.8052647613089876e6 0.0
0.0 0.0 0.0

981365.0253275484 1.9981310402658366e7 0.0
1.9981310402658366e7 8.413766982395932e6 0.0
0.0 0.0 0.0

-208304.6359868287 1.8927696636494264e7 0.0
1.8927696636494264e7 -1.0242568346019316e7 0.0
0.0 0.0 0.0

9.244010868279718e6 4.719333726732758e7 0.0
4.719333726732758e7 -1.7714787462674081e6 0.0
0.0 0.0 0.0

2.2670068443181114e6 2.3805675341184758e7 0.0
2.3805675341184758e7 -9.441715160300668e6 0.0
0.0 0.0 0.0

2.9410698172713793e6 2.0882212861958705e7 0.0
2.0882212861958705e7 -3.7138679389756983e6 0.0
0.0 0.0 0.0

2.991657179540543e6 1.5586991961159306e6 0.0
1.5586991961159306e6 -3.946443579041839e7 0.0
0.0 0.0 0.0

-4.15579291394632e6 2.628729998162405e7 0.0
2.628729998162405e7 8.254339619524233e6 0.0
0.0 0.0 0.0

-2.67945055769499e6 1.978065991068715e7 0.0
1.978065991068715e7 5.264585792544983e6 0.0
0.0 0.0 0.0

1.4786683655023547e6 1.2917897267331325e7 0.0
1.2917897267331325e7 -1.524174619930841e7 0.0
0.0 0.0 0.0

-1.4365248199102823e6 1.5989704339957641e7 0.0
1.5989704339957641e7 -3.2357970211184885e7 0.0
0.0 0.0 0.0

-2.9739958120791027e6 2.147729195042762e7 0.0
2.147729195042762e7 1.8689517852247458e7 0.0
0.0 0.0 0.0

-2.6714699188279975e6 1.9300330693706933e7 0.0
1.9300330693706933e7 2.8174207481526468e7 0.0
0.0 0.0 0.0

-1.0229146240008192e6 1.8194989791053127e7 0.0
1.8194989791053127e7 -4.444830789264707e6 0.0
0.0 0.0 0.0

5.4682765796050625e6 2.591737133215166e7 0.0
2.591737133215166e7 -6.459822969862574e6 0.0
0.0 0.0 0.0

-3.531765749512499e6 2.5201292073607355e7 0.0
2.5201292073607355e7 1.0002985526131235e7 0.0
0.0 0.0 0.0

-6.953756559487592e6 3.0813871454064087e6 0.0
3.0813871454064087e6 5.544571494062477e7 0.0
0.0 0.0 0.0

-4.141812978852033e6 1.3035199443026379e7 0.0
1.3035199443026379e7 7.91768354643813e6 0.0
0.0 0.0 0.0

-87383.50729681505 1.9275526082374733e7 0.0
1.9275526082374733e7 -6.04745437841275e6 0.0
0.0 0.0 0.0

-5.515830307285172e6 2.6502585621305816e7 0.0
2.6502585621305816e7 8.74179862041554e6 0.0
0.0 0.0 0.0

-3.530666672716857e6 2.1665434814035777e7 0.0
2.1665434814035777e7 1.5248582600657307e7 0.0
0.0 0.0 0.0

2.0056598165324256e6 1.3082098141513877e7 0.0
1.3082098141513877e7 -2.1400187379094843e7 0.0
0.0 0.0 0.0

-1.5181820674461448e6 2.8960078176991206e7 0.0
2.8960078176991206e7 1.188809068189114e6 0.0
0.0 0.0 0.0

2.547031795430342e6 3.618387850333177e7 0.0
3.618387850333177e7 -677034.1847028709 0.0
0.0 0.0 0.0

-2.3933624605205343e6 2.3094330820584815e7 0.0
2.3094330820584815e7 5.70154732255282e6 0.0
0.0 0.0 0.0

1.4234651417708742e6 1.5225672747353338e7 0.0
1.5225672747353338e7 -2.314697866102918e7 0.0
0.0 0.0 0.0

-1.0381687665088042e6 2.934247501276981e7 0.0
2.934247501276981e7 -1.3679240337644261e6 0.0
0.0 0.0 0.0

2.9695211200186354e6 2.5433831670510955e7 0.0
2.5433831670510955e7 -7.896102342563182e6 0.0
0.0 0.0 0.0

785162.0240241755 1.9663936367107272e7 0.0
1.9663936367107272e7 3.044327704957494e7 0.0
0.0 0.0 0.0

-2.5343791304411343e6 2.243060799705611e7 0.0
2.243060799705611e7 6.958982254675984e6 0.0
0.0 0.0 0.0

-4.576543644212466e6 2.8331321661478065e7 0.0
2.8331321661478065e7 5.897582314970806e6 0.0
0.0 0.0 0.0

-8.349064320561625e6 642884.8607439222 0.0
642884.8607439222 4.365019815727093e7 0.0
0.0 0.0 0.0

2.1079586499008946e6 3.525612264618841e7 0.0
3.525612264618841e7 -584339.8020965405 0.0
0.0 0.0 0.0

3.0496781669767387e6 1.6167040038365207e6 0.0
1.6167040038365207e6 -3.8371088211072505e7 0.0
0.0 0.0 0.0

-172193.38159036567 2.714328250236689e7 0.0
2.714328250236689e7 -4.815345791359421e6 0.0
0.0 0.0 0.0

-8.38072918691154e6 -1.3434713376877003e6 0.0
-1.3434713376877003e6 3.854398672834289e7 0.0
0.0 0.0 0.0

-1.5817358072423139e6 1.7624846572042033e7 0.0
1.7624846572042033e7 -4.876488650645274e6 0.0
0.0 0.0 0.0

-1.0932879277048599e7 2.651441807376169e7 0.0
2.651441807376169e7 4.199525595241139e6 0.0
0.0 0.0 0.0

-2.304903015859852e6 2.1470028895585507e7 0.0
2.1470028895585507e7 -3.8011237960943608e6 0.0
0.0 0.0 0.0

-4.050414597706591e6 2.1630993317821473e7 0.0
2.1630993317821473e7 -6.059698816853209e6 0.0
0.0 0.0 0.0

-1.8120489966450697e6 1.9372611756795324e7 0.0
1.9372611756795324e7 -1.878271652249071e7 0.0
0.0 0.0 0.0

-9.635443477558583e6 1.464630952542022e7 0.0
1.464630952542022e7 3.0095609049898513e7 0.0
0.0 0.0 0.0

1.6485970597643696e6 2.0486076068806868e7 0.0
2.0486076068806868e7 1.0850681044447687e7 0.0
0.0 0.0 0.0

2.7899341410326213e6 8.721494014583843e6 0.0
8.721494014583843e6 -2.803790009413467e7 0.0
0.0 0.0 0.0

3.208158111548609e6 1.9972626032896508e7 0.0
1.9972626032896508e7 2.8913870271689072e7 0.0
0.0 0.0 0.0

-1.1658128310979396e7 1.9254306279172864e7 0.0
1.9254306279172864e7 -6.857334117216225e7 0.0
0.0 0.0 0.0

-3.6135492509588273e6 2.0523970673794135e7 0.0
2.0523970673794135e7 1.513379128378612e7 0.0
0.0 0.0 0.0

-1.8026302567918778e6 2.9545449242792882e7 0.0
2.9545449242792882e7 65730.00966223318 0.0
0.0 0.0 0.0

-2.8434870103870393e6 2.2493101195110284e7 0.0
2.2493101195110284e7 1.9597292046197357e6 0.0
0.0 0.0 0.0

1.0085149680039482e6 2.2289899800173763e7 0.0
2.2289899800173763e7 -1.1774189566050526e7 0.0
0.0 0.0 0.0

2.5895252834349377e6 2.149746603558028e7 0.0
2.149746603558028e7 -7.417309657112414e6 0.0
0.0 0.0 0.0

-4.475448362657193e6 2.622059315204872e7 0.0
2.622059315204872e7 8.886289288249856e6 0.0
0.0 0.0 0.0

-3.6562348536679847e6 2.1429983464187384e7 0.0
2.1429983464187384e7 1.9268779592077512e7 0.0
0.0 0.0 0.0

-2.6078219673331473e6 1.9479478500893686e7 0.0
1.9479478500893686e7 2.8420649876256697e7 0.0
0.0 0.0 0.0

-4.566208031028612e6 1.8745577356778003e7 0.0
1.8745577356778003e7 -1.879445554151033e7 0.0
0.0 0.0 0.0

742660.5029397039 1.6039750631331407e7 0.0
1.6039750631331407e7 -2.0768059993758664e7 0.0
0.0 0.0 0.0

-2.205194117845352e6 2.14103695369434e7 0.0
2.14103695369434e7 1.7783002005205322e7 0.0
0.0 0.0 0.0

801268.8442670666 1.0642798040683826e7 0.0
1.0642798040683826e7 -3.9569341098151244e7 0.0
0.0 0.0 0.0

-2.9897333007882917e6 2.0390523217283674e7 0.0
2.0390523217283674e7 -1.2166863854025241e7 0.0
0.0 0.0 0.0

3.128285158274713e6 3.729992713523422e7 0.0
3.729992713523422e7 -601596.4511004172 0.0
0.0 0.0 0.0

2.514679016649901e6 1.9224344120010108e7 0.0
1.9224344120010108e7 2.4689350913614534e7 0.0
0.0 0.0 0.0

2.3661686101610336e7 2.536786922002391e7 0.0
2.536786922002391e7 7.887225107059874e7 0.0
0.0 0.0 0.0

-2.4027029904547904e7 2.3996871175250836e7 0.0
2.3996871175250836e7 -8.009006563647881e7 0.0
0.0 0.0 0.0

-3.3270813660867717e6 1.9800060062754553e7 0.0
1.9800060062754553e7 3.100457603117053e6 0.0
0.0 0.0 0.0

-2.8849030040290646e7 3.795720073859353e7 0.0
3.795720073859353e7 7.546774208247861e6 0.0
0.0 0.0 0.0

-1.2787640743272488e6 2.5274186122216806e7 0.0
2.5274186122216806e7 -4.379702909120218e6 0.0
0.0 0.0 0.0

-1.8080067808369445e6 2.1595814734818928e7 0.0
2.1595814734818928e7 1.52572274929576e7 0.0
0.0 0.0 0.0

1.9685679585757256e6 1.9310884514284678e7 0.0
1.9310884514284678e7 2.79510195039672e7 0.0
0.0 0.0 0.0

8.2933131435476e6 2.0716594456661996e7 0.0
2.0716594456661996e7 4.874663110711284e7 0.0
0.0 0.0 0.0

7.83408986146466e6 2.2094583746243913e7 0.0
2.2094583746243913e7 1.0012110469264973e7 0.0
0.0 0.0 0.0

7.588992457229633e6 1.8478250544119295e7 0.0
1.8478250544119295e7 3.1335933463177525e7 0.0
0.0 0.0 0.0

4.921475475950322e6 2.5747146091795687e7 0.0
2.5747146091795687e7 -6.726695131743613e6 0.0
0.0 0.0 0.0

1.2560086005626367e6 1.9648094070908427e7 0.0
1.9648094070908427e7 1.732771553271342e7 0.0
0.0 0.0 0.0

-2.056784754177072e6 2.060771778949632e7 0.0
2.060771778949632e7 1.8569950881145336e7 0.0
0.0 0.0 0.0

4.36968529686948e6 3.3083432455888662e7 0.0
3.3083432455888662e7 -2.600489278610342e6 0.0
0.0 0.0 0.0

3.4721301029967866e6 2.1574545803294044e7 0.0
2.1574545803294044e7 1.3695148470004236e7 0.0
0.0 0.0 0.0

3.519780581652792e6 1.9483168110490965e6 0.0
1.9483168110490965e6 -2.965324498249335e7 0.0
0.0 0.0 0.0

-8.843472204793677e6 1.690967091013739e7 0.0
1.690967091013739e7 2.1660454622944478e7 0.0
0.0 0.0 0.0

-8.259388433058407e6 -2.939722649604566e6 0.0
-2.939722649604566e6 3.618384645138193e7 0.0
0.0 0.0 0.0

-4.45186128292775e6 2.0874350161068995e7 0.0
2.0874350161068995e7 2.107375981035106e7 0.0
0.0 0.0 0.0

997104.6514147146 3.0173259991276428e7 0.0
3.0173259991276428e7 -2.0655842924064714e6 0.0
0.0 0.0 0.0

6.167104707769245e6 2.130676894015232e7 0.0
2.130676894015232e7 1.8209892523021113e7 0.0
0.0 0.0 0.0

4.676775942293258e6 1.8423172730603106e7 0.0
1.8423172730603106e7 2.3309054453846376e7 0.0
0.0 0.0 0.0

-3.637602492227999e6 2.7938496585776825e7 0.0
2.7938496585776825e7 6.5268247094292035e6 0.0
0.0 0.0 0.0

3.45093423934622e6 4.141752116151651e6 0.0
4.141752116151651e6 -1.6131989138888726e7 0.0
0.0 0.0 0.0

-327943.8763015709 2.7786073049617633e7 0.0
2.7786073049617633e7 -3.918659182153945e6 0.0
0.0 0.0 0.0

2.4909911845045863e6 1.1066892662363112e7 0.0
1.1066892662363112e7 -2.2989418617176663e7 0.0
0.0 0.0 0.0

-7.964073782931921e6 2.691450963797199e7 0.0
2.691450963797199e7 7.175439741874276e6 0.0
0.0 0.0 0.0

5.775113681980709e6 2.7803620492278807e7 0.0
2.7803620492278807e7 -5.95056701344941e6 0.0
0.0 0.0 0.0

-1.0397824358875684e7 2.33653791699949e7 0.0
2.33653791699949e7 604934.8023002702 0.0
0.0 0.0 0.0

2.1231645270962305e6 1.7039832493807538e6 0.0
1.7039832493807538e6 -5.748039128873278e7 0.0
0.0 0.0 0.0

5.745272628058358e6 2.2065534569209576e7 0.0
2.2065534569209576e7 3.2947791863658633e6 0.0
0.0 0.0 0.0

2.207943044915309e6 2.8751866052209716e7 0.0
2.8751866052209716e7 -4.315349949385604e6 0.0
0.0 0.0 0.0

1.0634917548781605e6 2.497066577303889e7 0.0
2.497066577303889e7 -7.780180780167789e6 0.0
0.0 0.0 0.0

-2.4278998578921203e6 1.945841036016079e7 0.0
1.945841036016079e7 -1.308797467092482e7 0.0
0.0 0.0 0.0

3.0817863338768817e6 4.348066450536885e6 0.0
4.348066450536885e6 -2.747069613861209e7 0.0
0.0 0.0 0.0

-3.089396528594681e6 2.3756298800426353e7 0.0
2.3756298800426353e7 6.5558092663440015e6 0.0
0.0 0.0 0.0

181640.10986609943 1.352637127386243e7 0.0
1.352637127386243e7 -3.3147961899221957e7 0.0
0.0 0.0 0.0

-8.167880946442464e6 -2.5597662996331244e6 0.0
-2.5597662996331244e6 3.998172664783464e7 0.0
0.0 0.0 0.0

-4.792880616329056e6 1.978773840624174e7 0.0
1.978773840624174e7 1.8802588965826143e7 0.0
0.0 0.0 0.0

-1.5132654993321002e7 2.66225800787411e7 0.0
2.66225800787411e7 3.259750921330029e6 0.0
0.0 0.0 0.0

674435.9016722739 5.875067841008723e6 0.0
5.875067841008723e6 -8.371444911907367e7 0.0
0.0 0.0 0.0

-3.803676060405448e6 1.6848699358901847e7 0.0
1.6848699358901847e7 3.915923106314793e7 0.0
0.0 0.0 0.0

10241.92331443075 2.0450098280299343e7 0.0
2.0450098280299343e7 2.3463364147637412e7 0.0
0.0 0.0 0.0

-1.0929713277154341e6 1.8629589924039613e7 0.0
1.8629589924039613e7 3.5258598226889655e7 0.0
0.0 0.0 0.0

-2.296557845723453e6 2.115657675479864e7 0.0
2.115657675479864e7 1.3323430827397672e6 0.0
0.0 0.0 0.0

-4.731484429498352e6 2.023641745546082e7 0.0
2.023641745546082e7 1.468649442099617e7 0.0
0.0 0.0 0.0

-2.0554093772885895e6 1.954086260291879e7 0.0
1.954086260291879e7 -1.0143584626517072e7 0.0
0.0 0.0 0.0

858547.4238975225 1.545214414154372e7 0.0
1.545214414154372e7 -2.194703395559064e7 0.0
0.0 0.0 0.0

578553.4322314188 1.0128496591174772e7 0.0
1.0128496591174772e7 -4.903260487193559e7 0.0
0.0 0.0 0.0

-8.230336869325552e6 -2.7589276837563426e6 0.0
-2.7589276837563426e6 3.734824075530638e7 0.0
0.0 0.0 0.0

-7.530434012583794e6 -1.9796375903151897e6 0.0
-1.9796375903151897e6 4.642970332597827e7 0.0
0.0 0.0 0.0

-9.49392866867187e6 2.5085343203600697e7 0.0
2.5085343203600697e7 1.867414515869699e6 0.0
0.0 0.0 0.0

1.0885918483496318e6 2.227199534660097e7 0.0
2.227199534660097e7 -1.2093804764525894e7 0.0
0.0 0.0 0.0

315712.8900992833 1.8576861841886166e7 0.0
1.8576861841886166e7 4.059872198198002e7 0.0
0.0 0.0 0.0

-1.5885843717057095e6 1.9602934624791227e7 0.0
1.9602934624791227e7 -7.11840085441161e6 0.0
0.0 0.0 0.0

5.519231831042423e6 2.4787908049756184e7 0.0
2.4787908049756184e7 -6.413823244094886e6 0.0
0.0 0.0 0.0

-3.375967114339983e6 2.5407347109997388e7 0.0
2.5407347109997388e7 6.963300973469148e6 0.0
0.0 0.0 0.0

-9.1724712675365e6 -2.66659773659152e6 0.0
-2.66659773659152e6 2.567294877899708e7 0.0
0.0 0.0 0.0

1.4648924528752813e7 5.146296894920557e7 0.0
5.146296894920557e7 -2.4922261857127575e6 0.0
0.0 0.0 0.0

758088.7316613314 2.0346331517749663e7 0.0
2.0346331517749663e7 -9.417648948943825e6 0.0
0.0 0.0 0.0

-6.830489764881119e6 1.707941917435718e7 0.0
1.707941917435718e7 -5.482544774023506e7 0.0
0.0 0.0 0.0

3.445199079815995e6 2.811698060101175e6 0.0
2.811698060101175e6 -3.54734069128021e7 0.0
0.0 0.0 0.0

-477519.69273718237 1.9453054440876156e7 0.0
1.9453054440876156e7 -6.331791901032501e6 0.0
0.0 0.0 0.0

-6.389169487247532e6 1.8832852083357275e7 0.0
1.8832852083357275e7 2.1829202097988397e7 0.0
0.0 0.0 0.0

-2.568542805901714e7 2.2482463571129084e7 0.0
2.2482463571129084e7 4.88183303440485e6 0.0
0.0 0.0 0.0

-5.803901670263126e6 2.247047473787454e7 0.0
2.247047473787454e7 -9.887191205355328e6 0.0
0.0 0.0 0.0

6.365751933831043e6 1.796197063409176e7 0.0
1.796197063409176e7 2.7247409319912467e7 0.0
0.0 0.0 0.0

-3.18104728467213e6 1.9030355368268974e7 0.0
1.9030355368268974e7 -1.4343033754951859e7 0.0
0.0 0.0 0.0

-9.72672470217343e6 -380899.1889736922 0.0
-380899.1889736922 2.5322488352352925e7 0.0
0.0 0.0 0.0

-807544.4309524153 2.059080426600217e7 0.0
2.059080426600217e7 -1.0476967288463851e7 0.0
0.0 0.0 0.0

-420277.9255243102 2.0097617991430502e7 0.0
2.0097617991430502e7 4.195845420224426e6 0.0
0.0 0.0 0.0

-840430.3296073191 2.1104318233507007e7 0.0
2.1104318233507007e7 1.6280441107900381e7 0.0
0.0 0.0 0.0

351882.7578166481 1.8391460742074113e7 0.0
1.8391460742074113e7 -1.771601627070687e7 0.0
0.0 0.0 0.0

-1.0699531922287568e6 2.0119745675358064e7 0.0
2.0119745675358064e7 2.6074951961135626e7 0.0
0.0 0.0 0.0

-101847.80327877829 1.9033770106950212e7 0.0
1.9033770106950212e7 174131.66830649273 0.0
0.0 0.0 0.0

1.1766625714813988e6 2.223047310277529e7 0.0
2.223047310277529e7 -1.225870822613308e7 0.0
0.0 0.0 0.0

4.921724767157796e6 2.1171058068118405e7 0.0
2.1171058068118405e7 -1.4083354083005812e6 0.0
0.0 0.0 0.0

981616.4073219541 1.3163200507607842e7 0.0
1.3163200507607842e7 -2.9359998025072537e7 0.0
0.0 0.0 0.0

-4.856424695010089e6 2.101858821814625e7 0.0
2.101858821814625e7 1.9742298244487584e7 0.0
0.0 0.0 0.0

-389470.96977419034 1.724645129713215e7 0.0
1.724645129713215e7 -8.823600687990334e6 0.0
0.0 0.0 0.0

-5.087240250521707e7 3.0187269278571025e7 0.0
3.0187269278571025e7 1.0816087073010132e6 0.0
0.0 0.0 0.0

4.414003747094983e6 1.919984091181233e7 0.0
1.919984091181233e7 5.123623835506858e7 0.0
0.0 0.0 0.0

2.932715718404891e6 1.5427786669996786e6 0.0
1.5427786669996786e6 -4.060378192149035e7 0.0
0.0 0.0 0.0

-7.661885197039582e6 -2.0109898162764239e6 0.0
-2.0109898162764239e6 4.490437453629677e7 0.0
0.0 0.0 0.0

-4.440390639066435e6 1.5856241334779749e7 0.0
1.5856241334779749e7 -4.770772154699426e7 0.0
0.0 0.0 0.0

-1.93943840342642e6 1.7003456547272187e7 0.0
1.7003456547272187e7 -2.970790533712734e7 0.0
0.0 0.0 0.0

-2.59735857225821e6 2.1046373648086153e7 0.0
2.1046373648086153e7 -5.724151907539064e6 0.0
0.0 0.0 0.0

-1.8298662026423156e7 2.8285082356276866e7 0.0
2.8285082356276866e7 -1.1891287016760923e7 0.0
0.0 0.0 0.0

-4.733115681260331e6 1.914806438373267e7 0.0
1.914806438373267e7 2.781841910434006e7 0.0
0.0 0.0 0.0

1.1767788880047477e6 2.2114303672091708e7 0.0
2.2114303672091708e7 -1.2262645492459388e7 0.0
0.0 0.0 0.0

-6.462901559397411e6 -672993.5211618807 0.0
-672993.5211618807 5.963001621941504e7 0.0
0.0 0.0 0.0

-7.841887913695177e6 1.79080953717524e7 0.0
1.79080953717524e7 2.44598323292375e7 0.0
0.0 0.0 0.0

1.1394425043800771e6 3.8999965334854466e6 0.0
3.8999965334854466e6 -7.79164741096916e7 0.0
0.0 0.0 0.0

-1.837552913208533e6 3.019633487208235e7 0.0
3.019633487208235e7 114186.98788168572 0.0
0.0 0.0 0.0

1.5720587842528336e6 2.2368342380450084e6 0.0
2.2368342380450084e6 -6.744556743205339e7 0.0
0.0 0.0 0.0

-2.3473413473129362e7 4.896192442307482e7 0.0
4.896192442307482e7 7.568240767993759e6 0.0
0.0 0.0 0.0

-6.295478649329267e6 -377711.8640635457 0.0
-377711.8640635457 6.2372823936708055e7 0.0
0.0 0.0 0.0

1.1874686729217637e6 1.3521719108652512e7 0.0
1.3521719108652512e7 -2.927058555185128e7 0.0
0.0 0.0 0.0

-1.153128155793596e7 2.62357108860526e7 0.0
2.62357108860526e7 4.654108132817789e6 0.0
0.0 0.0 0.0

-4.8655480033226065e7 3.095437139803329e7 0.0
3.095437139803329e7 -2.5254526715429407e6 0.0
0.0 0.0 0.0

1.3549412632040605e6 2.979858532067863e6 0.0
2.979858532067863e6 -7.239899429402985e7 0.0
0.0 0.0 0.0

-2.769088915521426e6 2.4533725171630736e7 0.0
2.4533725171630736e7 2.962929666696783e6 0.0
0.0 0.0 0.0

-3.2813546105783535e6 2.2451094357010707e7 0.0
2.2451094357010707e7 1.432210269119817e7 0.0
0.0 0.0 0.0

1.7436088247317694e7 1.765247561013929e7 0.0
1.765247561013929e7 7.226199699874563e6 0.0
0.0 0.0 0.0

-758912.7658434138 1.6739730194606058e7 0.0
1.6739730194606058e7 -2.6043966062583223e7 0.0
0.0 0.0 0.0

-2.538931827514954e6 1.7792400011044603e7 0.0
1.7792400011044603e7 -2.7121264931100827e7 0.0
0.0 0.0 0.0

211165.27797189262 2.447244082755489e7 0.0
2.447244082755489e7 -8.58501815711886e6 0.0
0.0 0.0 0.0

-1.8800100470905548e6 3.0798553447287746e7 0.0
3.0798553447287746e7 206053.5272672975 0.0
0.0 0.0 0.0

-9.556930115485245e6 1.2521469203097962e7 0.0
1.2521469203097962e7 3.4057223934077434e7 0.0
0.0 0.0 0.0

1.920354921872422e6 1.7801571112576015e6 0.0
1.7801571112576015e6 -6.087548533565473e7 0.0
0.0 0.0 0.0

-1.1658049062937181e7 3.436884373057402e7 0.0
3.436884373057402e7 4.662108557284943e6 0.0
0.0 0.0 0.0

3.6266765794171123e6 5.472724224312753e6 0.0
5.472724224312753e6 -2.1980253441438153e7 0.0
0.0 0.0 0.0

-2.2559955300250184e6 1.9502008164987538e7 0.0
1.9502008164987538e7 -1.7494272790016014e7 0.0
0.0 0.0 0.0

1.7798611388311163e6 2.1020432636384848e6 0.0
2.1020432636384848e6 -6.3473462574577324e7 0.0
0.0 0.0 0.0

-2.7092560961920423e6 1.839498954868782e7 0.0
1.839498954868782e7 -2.439818963413116e7 0.0
0.0 0.0 0.0

-9.407510203010147e6 9.254835116514342e6 0.0
9.254835116514342e6 3.957789525413276e7 0.0
0.0 0.0 0.0

-4.322057411587465e6 1.648292515677206e6 0.0
1.648292515677206e6 3.379906838863972e6 0.0
0.0 0.0 0.0

-3.7762587902050456e6 1.8197403373845387e7 0.0
1.8197403373845387e7 4.602729178328118e6 0.0
0.0 0.0 0.0

3.620747693298904e6 1.996769528366465e7 0.0
1.996769528366465e7 2.5816219394588247e7 0.0
0.0 0.0 0.0

2.652808354741417e6 1.3898365293750612e6 0.0
1.3898365293750612e6 -4.490692205513564e7 0.0
0.0 0.0 0.0

-4.153473594661514e6 2.5423921439419135e7 0.0
2.5423921439419135e7 9.968081814000376e6 0.0
0.0 0.0 0.0

-8.799277354464414e6 -1.104454089549251e6 0.0
-1.104454089549251e6 3.5846015629583344e7 0.0
0.0 0.0 0.0

-20079.07969319453 2.0357119237781625e7 0.0
2.0357119237781625e7 72542.0595761704 0.0
0.0 0.0 0.0

955794.7851262856 1.3737488841587178e7 0.0
1.3737488841587178e7 -2.7815849462612405e7 0.0
0.0 0.0 0.0

-3.5753484518669927e6 2.105788273928185e7 0.0
2.105788273928185e7 2.063320495468582e7 0.0
0.0 0.0 0.0

2.870185928679727e6 1.9317939016215477e7 0.0
1.9317939016215477e7 3.541578719207133e7 0.0
0.0 0.0 0.0

-935974.3867293894 1.943553084316717e7 0.0
1.943553084316717e7 -4.456483372835061e6 0.0
0.0 0.0 0.0

722834.8880906049 2.4254735389114317e7 0.0
2.4254735389114317e7 -8.236385995965691e6 0.0
0.0 0.0 0.0

-3.2803688410813836e6 2.6536314852206886e7 0.0
2.6536314852206886e7 4.939214362115639e6 0.0
0.0 0.0 0.0

-1.1212589391679196e6 2.015375891375147e7 0.0
2.015375891375147e7 -7.0713808371114135e6 0.0
0.0 0.0 0.0

2.0929252484515302e7 5.811288491605135e6 0.0
5.811288491605135e6 -2.530817983110736e6 0.0
0.0 0.0 0.0

-6.726382383358147e6 -787833.104933287 0.0
-787833.104933287 5.6989710332969114e7 0.0
0.0 0.0 0.0

8.272179651645452e6 2.2725016209799327e7 0.0
2.2725016209799327e7 1.191115360168106e7 0.0
0.0 0.0 0.0

-7.405951016176231e6 -1.7536287129411213e6 0.0
-1.7536287129411213e6 4.810740790998189e7 0.0
0.0 0.0 0.0

-1.4166038379858846e6 2.0498690339829575e7 0.0
2.0498690339829575e7 -965414.5078101305 0.0
0.0 0.0 0.0

-7.514464772364432e6 1.0240426090046875e7 0.0
1.0240426090046875e7 3.0016707553701058e7 0.0
0.0 0.0 0.0

-3.068110772694633e6 1.8100336878571372e7 0.0
1.8100336878571372e7 6.983206135521687e6 0.0
0.0 0.0 0.0

-187804.89340018737 909078.8760817404 0.0
909078.8760817404 922296.2350141624 0.0
0.0 0.0 0.0

-124218.19223816635 1.6567338018066979e6 0.0
1.6567338018066979e6 956533.0815880939 0.0
0.0 0.0 0.0

947145.3392928867 2.162007660884017e7 0.0
2.162007660884017e7 -1.3271320550127074e7 0.0
0.0 0.0 0.0

-9.168751720678888e6 2.3289186487554293e7 0.0
2.3289186487554293e7 -4.244310320553636e6 0.0
0.0 0.0 0.0

1.2344550224575945e6 2.2013802311406795e7 0.0
2.2013802311406795e7 -1.1983372986219333e7 0.0
0.0 0.0 0.0

-1.0522738247084973e7 1.1172700164664226e7 0.0
1.1172700164664226e7 3.2417939359144095e7 0.0
0.0 0.0 0.0

-2.8289993338717003e6 1.9352455236599043e7 0.0
1.9352455236599043e7 -1.6029065546967113e7 0.0
0.0 0.0 0.0

712760.0684113037 1.3236324838122884e7 0.0
1.3236324838122884e7 -3.117370693664345e7 0.0
0.0 0.0 0.0

-3.9044646806620182e6 2.4789809606006052e7 0.0
2.4789809606006052e7 1.088345220337648e7 0.0
0.0 0.0 0.0

1.1178582051976398e6 1.3723197793451896e7 0.0
1.3723197793451896e7 -2.6053785648895983e7 0.0
0.0 0.0 0.0

-1.0594387568233138e8 3.6873787349781826e7 0.0
3.6873787349781826e7 -6.916826646308579e6 0.0
0.0 0.0 0.0

503031.1041539544 1.7798032556651343e7 0.0
1.7798032556651343e7 -1.8927825711174905e7 0.0
0.0 0.0 0.0

-3.115596489797047e6 3.5945630580601454e7 0.0
3.5945630580601454e7 852030.3407237635 0.0
0.0 0.0 0.0

506901.68931814306 1.9617113357879966e7 0.0
1.9617113357879966e7 5.81222107422431e6 0.0
0.0 0.0 0.0

-4.673336532255187e6 2.0124951650514103e7 0.0
2.0124951650514103e7 2.3767311675273918e7 0.0
0.0 0.0 0.0

-4.836126422215706e6 2.220140594061146e7 0.0
2.220140594061146e7 -1.3218704892411422e7 0.0
0.0 0.0 0.0

1.477352263048513e7 3.971206879287041e7 0.0
3.971206879287041e7 -5.602499438652367e6 0.0
0.0 0.0 0.0

-7.873452035969008e6 -2.327024706455516e6 0.0
-2.327024706455516e6 4.23689676726836e7 0.0
0.0 0.0 0.0

2.831233636144139e6 1.5471480131932283e6 0.0
1.5471480131932283e6 -4.1798373392938934e7 0.0
0.0 0.0 0.0

37858.09859327157 2.4853288232366953e7 0.0
2.4853288232366953e7 -6.032661416309861e6 0.0
0.0 0.0 0.0

-9.153206619395273e6 -3.644592733217239e6 0.0
-3.644592733217239e6 1.876019366096607e7 0.0
0.0 0.0 0.0

2.2699659704612903e6 1.5781473391298885e6 0.0
1.5781473391298885e6 -5.369596313030666e7 0.0
0.0 0.0 0.0

-6.860866112449214e6 -1.1053080599212318e6 0.0
-1.1053080599212318e6 5.507203082075463e7 0.0
0.0 0.0 0.0

-8.537424935507748e6 -3.279221231002263e6 0.0
-3.279221231002263e6 3.2536512838623084e7 0.0
0.0 0.0 0.0

-1.738488078906913e6 1.9195738472297773e7 0.0
1.9195738472297773e7 -5.251899609549786e6 0.0
0.0 0.0 0.0

-7.7670583885231875e6 -2.1423156217556098e6 0.0
-2.1423156217556098e6 4.367800095563273e7 0.0
0.0 0.0 0.0

2.7449146106174197e6 1.598778483444332e6 0.0
1.598778483444332e6 -4.331428252738389e7 0.0
0.0 0.0 0.0

2.3936521262019314e6 1.6381365642146843e6 0.0
1.6381365642146843e6 -5.169553198251448e7 0.0
0.0 0.0 0.0

-6.980916936237074e6 -1.3923524136198205e6 0.0
-1.3923524136198205e6 5.322350487274971e7 0.0
0.0 0.0 0.0

-5.280910393848274e6 2.0658984271373328e7 0.0
2.0658984271373328e7 -1.4772595057186358e7 0.0
0.0 0.0 0.0

869659.6811615089 2.098609789285726e7 0.0
2.098609789285726e7 -1.441763808265468e7 0.0
0.0 0.0 0.0

-2.737930298525378e6 2.6840217707262937e7 0.0
2.6840217707262937e7 5.419915492781871e6 0.0
0.0 0.0 0.0

2.42800838008862e6 1.5486808279940626e6 0.0
1.5486808279940626e6 -5.029029723197543e7 0.0
0.0 0.0 0.0

-7.117234312848154e6 -1.5819889793508353e6 0.0
-1.5819889793508353e6 5.1204015797955915e7 0.0
0.0 0.0 0.0

-1.1311124714472513e6 1.9694168895702604e7 0.0
1.9694168895702604e7 -4.1077094947477854e6 0.0
0.0 0.0 0.0

1.4734925502129663e6 1.4660376468498675e7 0.0
1.4660376468498675e7 -2.461794883955423e7 0.0
0.0 0.0 0.0

-318147.46662443003 2.674445404153596e7 0.0
2.674445404153596e7 -3.08524842612995e6 0.0
0.0 0.0 0.0

-2.848248551274034e6 2.1063249475796975e7 0.0
2.1063249475796975e7 -482296.1469628027 0.0
0.0 0.0 0.0

-2.2785168380212747e6 1.9247849991235796e7 0.0
1.9247849991235796e7 2.9997233284632936e7 0.0
0.0 0.0 0.0

-7.268121236146949e6 -1.6303246814529914e6 0.0
-1.6303246814529914e6 4.952892610891788e7 0.0
0.0 0.0 0.0

2.5422006773776766e6 1.4713665803275425e6 0.0
1.4713665803275425e6 -4.835145009796176e7 0.0
0.0 0.0 0.0

3.861742747705525e6 2.9528940192664124e7 0.0
2.9528940192664124e7 -5.180367859485136e6 0.0
0.0 0.0 0.0

2.457861670225594e6 1.8996983918357335e7 0.0
1.8996983918357335e7 4.735951565388097e7 0.0
0.0 0.0 0.0

7.869249588505998e7 8.179491378203817e7 0.0
8.179491378203817e7 -1.3680423303407442e7 0.0
0.0 0.0 0.0

-359193.6899913475 1.1557226098224457e7 0.0
1.1557226098224457e7 -8.391055416698122e6 0.0
0.0 0.0 0.0

-1.968063000909363e6 2.9817690949697386e7 0.0
2.9817690949697386e7 1.7791079479475624e6 0.0
0.0 0.0 0.0

-9.323588394033697e6 39370.24578931102 0.0
39370.24578931102 1.341630759089864e7 0.0
0.0 0.0 0.0

-2.5723162410448906e6 2.7395398571916558e7 0.0
2.7395398571916558e7 4.546116485744307e6 0.0
0.0 0.0 0.0

3.3865810835310593e6 2.696931340946086e6 0.0
2.696931340946086e6 -1.3525596357340835e7 0.0
0.0 0.0 0.0

1.1020474101130765e7 2.6932734320207816e7 0.0
2.6932734320207816e7 -4.684140298196293e6 0.0
0.0 0.0 0.0

2.8133300181704774e6 2.5432147326180812e7 0.0
2.5432147326180812e7 -7.8905888471657e6 0.0
0.0 0.0 0.0

-7.189357571502106e6 1.764887409484583e7 0.0
1.764887409484583e7 1.794556119302146e7 0.0
0.0 0.0 0.0

-1.516900445843122e6 2.1253003472616483e7 0.0
2.1253003472616483e7 -1.3193578136424874e6 0.0
0.0 0.0 0.0

-4.999275340606179e6 640403.9163211988 0.0
640403.9163211988 6.857309507614262e7 0.0
0.0 0.0 0.0

415508.6427269761 3.7619006347877304e6 0.0
3.7619006347877304e6 -925581.8479542673 0.0
0.0 0.0 0.0

-5.024731355707592e6 -1.0989243616449314e6 0.0
-1.0989243616449314e6 1.9318140239861074e6 0.0
0.0 0.0 0.0

807729.2091341863 -1.7066533668759e6 0.0
-1.7066533668759e6 -2.154397839482483e6 0.0
0.0 0.0 0.0

3.5261796689972803e6 2.572745763086709e7 0.0
2.572745763086709e7 -7.417806462695487e6 0.0
0.0 0.0 0.0

-6.269676761192994e6 1.6355431547895899e7 0.0
1.6355431547895899e7 -5.378449825130385e7 0.0
0.0 0.0 0.0

4.349682078952945e6 1.9165361631422665e7 0.0
1.9165361631422665e7 3.1308582712797336e7 0.0
0.0 0.0 0.0

-3.1394443334560366e6 2.020955974006793e7 0.0
2.020955974006793e7 -1.2286320025507996e7 0.0
0.0 0.0 0.0

3.8148884796784446e6 2.1287257886954485e6 0.0
2.1287257886954485e6 -2.5667820925885774e7 0.0
0.0 0.0 0.0

-1.816223680372414e6 1.8101192662916068e7 0.0
1.8101192662916068e7 -4.56706686475146e6 0.0
0.0 0.0 0.0

192295.01352530438 2.0835604386961114e7 0.0
2.0835604386961114e7 -1.3627890592608808e7 0.0
0.0 0.0 0.0

-3.6938211742700133e6 1.5787310125649748e7 0.0
1.5787310125649748e7 -3.8509620389135584e7 0.0
0.0 0.0 0.0

329814.85754685244 2.752800751636542e7 0.0
2.752800751636542e7 -3.515904185373189e6 0.0
0.0 0.0 0.0

-4.211298942984494e6 2.034934151348726e7 0.0
2.034934151348726e7 2.2239092912415873e7 0.0
0.0 0.0 0.0

-1.4384059018720866e6 1.865131990788437e7 0.0
1.865131990788437e7 -3.5824666569479425e6 0.0
0.0 0.0 0.0

267288.14399449807 2.062243140448764e7 0.0
2.062243140448764e7 3.072809185139144e6 0.0
0.0 0.0 0.0

-5.901157132866569e6 1.7037684442344207e7 0.0
1.7037684442344207e7 -2.683786443818378e7 0.0
0.0 0.0 0.0

-2.3820411999554656e7 2.9029117897502515e7 0.0
2.9029117897502515e7 -6.218929810255213e6 0.0
0.0 0.0 0.0

1.3214005003956895e7 4.321064823295075e7 0.0
4.321064823295075e7 -4.270213212794185e6 0.0
0.0 0.0 0.0

-2.479596764208124e6 -167132.39729094945 0.0
-167132.39729094945 5.013651098178452e6 0.0
0.0 0.0 0.0

-1.749073513406089e6 -1.0484131870729855e6 0.0
-1.0484131870729855e6 4.518160949484492e6 0.0
0.0 0.0 0.0

-4.294293078624944e6 2.124227231031383e7 0.0
2.124227231031383e7 1.974369927939377e7 0.0
0.0 0.0 0.0

-1.152704509283024e6 2.3926231792398278e7 0.0
2.3926231792398278e7 -6.360536748907523e6 0.0
0.0 0.0 0.0

-1.5024860538589743e6 3.0843010386894017e7 0.0
3.0843010386894017e7 1.4594121261282263e6 0.0
0.0 0.0 0.0

-2.3679857602492217e6 2.7892060344096154e7 0.0
2.7892060344096154e7 3.72416668074678e6 0.0
0.0 0.0 0.0

1.250112122089906e7 2.2101510765480388e7 0.0
2.2101510765480388e7 9.96860859134344e6 0.0
0.0 0.0 0.0

3.3085229016501885e6 2.206927821961054e7 0.0
2.206927821961054e7 -4.787928420484477e6 0.0
0.0 0.0 0.0

4.755750104056871e6 1.8529678786995396e7 0.0
1.8529678786995396e7 5.279111167652394e7 0.0
0.0 0.0 0.0

-4.618403857653022e7 2.980155447851489e7 0.0
2.980155447851489e7 -1.4672274716595482e7 0.0
0.0 0.0 0.0

-1.2093178108896658e8 4.113710995389026e7 0.0
4.113710995389026e7 3.5909231333002374e6 0.0
0.0 0.0 0.0

-7.09834125008708e6 1.6714182710803155e7 0.0
1.6714182710803155e7 1.5749146614044948e7 0.0
0.0 0.0 0.0

-2.804404504021691e6 2.1869993314538743e7 0.0
2.1869993314538743e7 1.6633875876251988e7 0.0
0.0 0.0 0.0

2.996622879161765e6 5.156692843716177e6 0.0
5.156692843716177e6 -2.377220502462149e7 0.0
0.0 0.0 0.0

-7.323451999115719e6 1.7913186367746297e7 0.0
1.7913186367746297e7 2.2436593434207354e7 0.0
0.0 0.0 0.0

-6.982755760583089e6 -6.033831417419259e6 0.0
-6.033831417419259e6 1.6776000561375827e7 0.0
0.0 0.0 0.0

9.885729908543956e6 2.345330128123047e7 0.0
2.345330128123047e7 1.2654527185965287e7 0.0
0.0 0.0 0.0

-2.5627821509747636e6 1.6112202451869488e7 0.0
1.6112202451869488e7 -3.6953520377759986e7 0.0
0.0 0.0 0.0

3.510533010987064e6 4.5093095927868e6 0.0
4.5093095927868e6 -2.9936744902334318e7 0.0
0.0 0.0 0.0

5.876942449620939e6 2.1208063782539338e7 0.0
2.1208063782539338e7 6.570088256894923e6 0.0
0.0 0.0 0.0

-1.711156075181149e6 4.596034931015752e6 0.0
4.596034931015752e6 8.819496590676004e7 0.0
0.0 0.0 0.0

-4.674184509596455e6 2.916678939165308e7 0.0
2.916678939165308e7 6.222715399130698e6 0.0
0.0 0.0 0.0

-1.766025256578256e7 2.5533014403324544e7 0.0
2.5533014403324544e7 411838.2315002475 0.0
0.0 0.0 0.0

1.7814782999833226e6 2.4211057937226873e7 0.0
2.4211057937226873e7 -9.291767688596478e6 0.0
0.0 0.0 0.0

-8.658572878756592e6 -3.8832323808954405e6 0.0
-3.8832323808954405e6 2.957473017191901e7 0.0
0.0 0.0 0.0

487418.8877089808 1.9187266426525507e7 0.0
1.9187266426525507e7 6.871969946791793e6 0.0
0.0 0.0 0.0

-8.048260897756971e6 -2.6504793377670026e6 0.0
-2.6504793377670026e6 3.8766050040125035e7 0.0
0.0 0.0 0.0

5.909213614614971e6 2.2201800415274594e7 0.0
2.2201800415274594e7 6.465217867922997e6 0.0
0.0 0.0 0.0

-2.1913199053255133e6 2.3127065260804296e7 0.0
2.3127065260804296e7 1.294523063210794e6 0.0
0.0 0.0 0.0

3.5914057337681632e6 2.960727049523452e6 0.0
2.960727049523452e6 -3.3115275254307866e7 0.0
0.0 0.0 0.0

-5.256769965898035e6 2.1296450354321383e7 0.0
2.1296450354321383e7 -1.411918077532447e7 0.0
0.0 0.0 0.0

3.8023239373039305e6 2.2647515355239357e6 0.0
2.2647515355239357e6 -2.3055987275860216e7 0.0
0.0 0.0 0.0

241517.86708929483 1.7325071433373563e7 0.0
1.7325071433373563e7 -2.2126463687915143e7 0.0
0.0 0.0 0.0

-5.974650718434395e6 3.537441621061259e7 0.0
3.537441621061259e7 2.906209063166344e6 0.0
0.0 0.0 0.0

-310318.1909662873 1.6944897157446984e7 0.0
1.6944897157446984e7 -187290.00671650784 0.0
0.0 0.0 0.0

250900.24923494132 2.37261479570352e7 0.0
2.37261479570352e7 -9.574134856443238e6 0.0
0.0 0.0 0.0

-4.34858552017906e6 3.3537485179885466e7 0.0
3.3537485179885466e7 2.2253496854039393e6 0.0
0.0 0.0 0.0

-2.8225853472652407e6 2.6300860164159384e7 0.0
2.6300860164159384e7 6.454504939040646e6 0.0
0.0 0.0 0.0

-2.9702869096170533e6 2.7514003816095527e7 0.0
2.7514003816095527e7 3.117873669725752e6 0.0
0.0 0.0 0.0

-253379.7611092643 3.346661958751927e7 0.0
3.346661958751927e7 -989964.7720264898 0.0
0.0 0.0 0.0

778437.0532928663 2.2890572531632416e7 0.0
2.2890572531632416e7 -1.0395788963328164e7 0.0
0.0 0.0 0.0

-3.7347691470669927e6 3.688624189473835e7 0.0
3.688624189473835e7 1.1226473422840245e6 0.0
0.0 0.0 0.0

-1.0570611379331836e7 1.3153058082081133e7 0.0
1.3153058082081133e7 1.8373864669201992e7 0.0
0.0 0.0 0.0

910848.5802876446 1.4224150886639101e7 0.0
1.4224150886639101e7 -1.745102758705976e7 0.0
0.0 0.0 0.0

-1.0290929802813713e7 -927015.2747006341 0.0
-927015.2747006341 2.4179592030344553e7 0.0
0.0 0.0 0.0

-1.2804400714469567e7 2.74766634267033e7 0.0
2.74766634267033e7 4.5979630662871925e6 0.0
0.0 0.0 0.0

-7.526000623289354e6 792552.238471425 0.0
792552.238471425 5.104866826039977e7 0.0
0.0 0.0 0.0

3.5488038962219222e6 3.065785684845634e7 0.0
3.065785684845634e7 -4.611113499782865e6 0.0
0.0 0.0 0.0

636496.7900523394 1.730346986550147e7 0.0
1.730346986550147e7 -2.2117148064872682e7 0.0
0.0 0.0 0.0

1.2184511866309308e6 2.1259542407633614e7 0.0
2.1259542407633614e7 8.411915992496647e6 0.0
0.0 0.0 0.0

-984692.7561104367 1.695120644745858e7 0.0
1.695120644745858e7 -1.0723297941029895e7 0.0
0.0 0.0 0.0

364522.5992765818 1.4663167812213339e7 0.0
1.4663167812213339e7 -3.095881152448128e7 0.0
0.0 0.0 0.0

3.2683020482569467e6 4.024148946713311e6 0.0
4.024148946713311e6 -1.641366162481601e7 0.0
0.0 0.0 0.0

4.412673577008549e6 2.588930879764807e7 0.0
2.588930879764807e7 -6.946162381291512e6 0.0
0.0 0.0 0.0

-78604.2833225578 2.0646515891680703e7 0.0
2.0646515891680703e7 6.627437744349858e6 0.0
0.0 0.0 0.0

-2.758598732292499e6 2.048649340309934e7 0.0
2.048649340309934e7 -1.7534324583482635e6 0.0
0.0 0.0 0.0

2.0308970724346228e6 1.611688586307952e6 0.0
1.611688586307952e6 -5.824648684336701e7 0.0
0.0 0.0 0.0

-1.0931506966573505e7 5.0005300652242815e6 0.0
5.0005300652242815e6 2.4586990794403307e7 0.0
0.0 0.0 0.0

1.621756047801666e6 4.1103553354820698e6 0.0
4.1103553354820698e6 -5.807728615126139e7 0.0
0.0 0.0 0.0

-8.609098852084873e6 -5.086193953534355e6 0.0
-5.086193953534355e6 2.2156312107806154e7 0.0
0.0 0.0 0.0

-2.569903213786443e6 2.300571354740234e7 0.0
2.300571354740234e7 -212982.2233340385 0.0
0.0 0.0 0.0

-526685.4912326862 2.071006661004391e7 0.0
2.071006661004391e7 3.8800590136523135e6 0.0
0.0 0.0 0.0

638944.3310437312 2.090533986042761e7 0.0
2.090533986042761e7 5.984192148240294e6 0.0
0.0 0.0 0.0

-6.422806129799079e6 1.6411828599976921e7 0.0
1.6411828599976921e7 1.828713865211278e7 0.0
0.0 0.0 0.0

-8.46936817370264e6 -3.0020593012050516e6 0.0
-3.0020593012050516e6 3.3279728316669792e7 0.0
0.0 0.0 0.0

5.5643518980702935e6 2.7803995795794703e7 0.0
2.7803995795794703e7 -5.935548146973244e6 0.0
0.0 0.0 0.0

6.01504386103449e6 2.1684356772097487e7 0.0
2.1684356772097487e7 1.5860259950817572e7 0.0
0.0 0.0 0.0

2.218403580968689e6 8.85865685711178e6 0.0
8.85865685711178e6 -2.66165784183938e7 0.0
0.0 0.0 0.0

-8.656807406909868e6 -1.3635087975590576e6 0.0
-1.3635087975590576e6 3.552887537767735e7 0.0
0.0 0.0 0.0

3.865004415328498e6 2.1794499508943815e7 0.0
2.1794499508943815e7 1.2417022574578252e7 0.0
0.0 0.0 0.0

-2.685032484165609e6 1.7117579718983542e7 0.0
1.7117579718983542e7 4.2786557004241794e7 0.0
0.0 0.0 0.0

6.84176439663828e6 2.2823404695444264e7 0.0
2.2823404695444264e7 1.2350836350517796e7 0.0
0.0 0.0 0.0

-5.234674873050673e6 1.5822740628993135e7 0.0
1.5822740628993135e7 -5.041463295462047e7 0.0
0.0 0.0 0.0

-3.19331777737502e6 2.0009337297375444e7 0.0
2.0009337297375444e7 2.5921432227121864e7 0.0
0.0 0.0 0.0

1.1836339532326758e6 1.9329425400557015e7 0.0
1.9329425400557015e7 2.025758221582213e7 0.0
0.0 0.0 0.0

1.741375123051032e6 2.2498214422922596e7 0.0
2.2498214422922596e7 -1.1433099804188777e7 0.0
0.0 0.0 0.0

-3.124201395187058e6 2.1800724338507406e7 0.0
2.1800724338507406e7 -6.073463131166111e6 0.0
0.0 0.0 0.0

1.1628001256095897e6 8.54057521083515e6 0.0
8.54057521083515e6 -4.263435437363715e7 0.0
0.0 0.0 0.0

1.2493282936186753e6 7.685742965385058e6 0.0
7.685742965385058e6 -4.484120965028199e7 0.0
0.0 0.0 0.0

-70145.3723447267 1.6590850078573124e7 0.0
1.6590850078573124e7 -1.0157660663929138e7 0.0
0.0 0.0 0.0

-6.930994058133936e6 1.7655191899866156e7 0.0
1.7655191899866156e7 2.9949893489864193e7 0.0
0.0 0.0 0.0

600214.6604042798 2.0968523777152605e7 0.0
2.0968523777152605e7 -1.4338070592502167e7 0.0
0.0 0.0 0.0

-5.4910455366771e6 3.610282358097118e6 0.0
3.610282358097118e6 6.547427200875614e7 0.0
0.0 0.0 0.0

-2.73048884123471e6 1.5562540889947804e7 0.0
1.5562540889947804e7 -4.232568230911225e7 0.0
0.0 0.0 0.0

1.1189416699797139e6 1.5755074554416256e7 0.0
1.5755074554416256e7 5.5841692948447935e7 0.0
0.0 0.0 0.0

2.1573041725273207e6 1.7082229546280883e6 0.0
1.7082229546280883e6 -5.587809464878782e7 0.0
0.0 0.0 0.0

1.002548050704916e6 2.3990321057311986e7 0.0
2.3990321057311986e7 -9.384931869171616e6 0.0
0.0 0.0 0.0

5.569594471405497e6 2.2533181174064443e7 0.0
2.2533181174064443e7 1.2968566019122923e7 0.0
0.0 0.0 0.0

-6.803715883170186e6 1.7274895146917325e7 0.0
1.7274895146917325e7 -4.615995119980538e7 0.0
0.0 0.0 0.0

1.1102819528417254e7 1.1236733716028376e7 0.0
1.1236733716028376e7 1.286838781016237e6 0.0
0.0 0.0 0.0

-2.08107287737016e6 2.0961277749146927e7 0.0
2.0961277749146927e7 -7.572035104576629e6 0.0
0.0 0.0 0.0

4.631629426268842e6 2.2088725428516153e7 0.0
2.2088725428516153e7 1.3535909211878838e7 0.0
0.0 0.0 0.0

-3.138356143214965e6 2.2867439296983004e7 0.0
2.2867439296983004e7 1.1419711379760614e7 0.0
0.0 0.0 0.0

-3.1732181511103585e6 2.1768018649864905e7 0.0
2.1768018649864905e7 1.7071800882268615e7 0.0
0.0 0.0 0.0

603900.9734507632 1.2920529311468052e7 0.0
1.2920529311468052e7 -1.5337764614104036e7 0.0
0.0 0.0 0.0

-9.067079098019851e6 1.6683436532119455e7 0.0
1.6683436532119455e7 2.767174736559314e7 0.0
0.0 0.0 0.0

-4.281125620855594e6 1.5373988076383814e7 0.0
1.5373988076383814e7 -4.699566605944067e7 0.0
0.0 0.0 0.0

-2.5437042807214963e6 2.080541110825275e7 0.0
2.080541110825275e7 -1.1396936850700652e7 0.0
0.0 0.0 0.0

-6.719185277410254e6 2.3899592607676677e7 0.0
2.3899592607676677e7 6.401526679083068e6 0.0
0.0 0.0 0.0

438976.69295316515 1.151258070399035e7 0.0
1.151258070399035e7 -8.83209254275528e6 0.0
0.0 0.0 0.0

-4.499826220290031e6 6.176658914514128e6 0.0
6.176658914514128e6 8.546731489038189e7 0.0
0.0 0.0 0.0

-7.641866626617853e6 1.6992410361256856e7 0.0
1.6992410361256856e7 -5.7625950127002e7 0.0
0.0 0.0 0.0

-2.2992702846936863e6 1.912554503967463e7 0.0
1.912554503967463e7 2.984577305214556e7 0.0
0.0 0.0 0.0

-1.8563933404076993e6 3.1443130932948366e7 0.0
3.1443130932948366e7 281925.8344920216 0.0
0.0 0.0 0.0

1.8917655229760077e7 2.227919227454876e7 0.0
2.227919227454876e7 7.618333356459005e6 0.0
0.0 0.0 0.0

-315856.7330810707 1.8756240497432847e7 0.0
1.8756240497432847e7 3.8078786656731986e7 0.0
0.0 0.0 0.0

-4.1469183829715876e6 2.095166872907941e7 0.0
2.095166872907941e7 1.967877961604958e7 0.0
0.0 0.0 0.0

535514.65201433 1.5288005041393638e7 0.0
1.5288005041393638e7 -1.7018290554502565e7 0.0
0.0 0.0 0.0

-3.1218622208772604e6 1.9894136581990644e7 0.0
1.9894136581990644e7 -1.3154479109383373e7 0.0
0.0 0.0 0.0

-5.355220836452571e6 1.9272393752867248e7 0.0
1.9272393752867248e7 1.5412375857395403e7 0.0
0.0 0.0 0.0

-5.614790636152336e6 1.7961399560875136e7 0.0
1.7961399560875136e7 1.837647993801002e7 0.0
0.0 0.0 0.0

3.093679696526218e6 2.990357524008986e6 0.0
2.990357524008986e6 -3.0742153069472127e7 0.0
0.0 0.0 0.0

-4.073018172609322e6 2.552743888580358e7 0.0
2.552743888580358e7 1.0126154256836548e7 0.0
0.0 0.0 0.0

-1.7024741176106639e6 1.7272109862697143e7 0.0
1.7272109862697143e7 -2.975706013521282e6 0.0
0.0 0.0 0.0

4.0780507591369003e6 3.3473901082618986e6 0.0
3.3473901082618986e6 -2.206204194789514e7 0.0
0.0 0.0 0.0

2.112343009646517e6 2.9614766485504795e7 0.0
2.9614766485504795e7 -4.66915159853204e6 0.0
0.0 0.0 0.0

6.579900940474414e6 2.2608990133150056e7 0.0
2.2608990133150056e7 1.406494376896058e7 0.0
0.0 0.0 0.0

-6.529587635159865e6 1.9717350880953458e6 0.0
1.9717350880953458e6 5.75016588483929e7 0.0
0.0 0.0 0.0

9.12880056410004e6 2.3942237441830974e7 0.0
2.3942237441830974e7 1.1863872364603572e7 0.0
0.0 0.0 0.0

6.124081208819725e6 2.259911317064955e7 0.0
2.259911317064955e7 9.26836418629246e6 0.0
0.0 0.0 0.0

-43920.91552327108 1.996807006545779e7 0.0
1.996807006545779e7 -1.4076526198052742e7 0.0
0.0 0.0 0.0

2.6887704659999125e6 3.0029122630435647e6 0.0
3.0029122630435647e6 -4.0719915923655406e7 0.0
0.0 0.0 0.0

3.093706940375526e6 1.8158292617678575e7 0.0
1.8158292617678575e7 1.3382419963401292e7 0.0
0.0 0.0 0.0

437955.8790558828 2.041924189127616e7 0.0
2.041924189127616e7 -1.2761590124156568e7 0.0
0.0 0.0 0.0

1.3915699826576246e6 2.0920537827028513e7 0.0
2.0920537827028513e7 9.773720774726905e6 0.0
0.0 0.0 0.0

-1.1033577572509918e7 6.929598667905783e6 0.0
6.929598667905783e6 1.9442163870809313e7 0.0
0.0 0.0 0.0

-7.712730769889347e6 -5.3886867559134895e6 0.0
-5.3886867559134895e6 2.099590017205213e7 0.0
0.0 0.0 0.0

-5.30990366757857e6 2.3183461539282158e7 0.0
2.3183461539282158e7 4.234839381573172e6 0.0
0.0 0.0 0.0

809759.3614894114 1.5246640133980153e7 0.0
1.5246640133980153e7 -2.645912618526357e7 0.0
0.0 0.0 0.0

-3.653914425378449e6 1.9012338398147862e7 0.0
1.9012338398147862e7 -1.7377472195021596e7 0.0
0.0 0.0 0.0

-4.838761882834077e6 2.570916086113834e6 0.0
2.570916086113834e6 8.280804469239429e7 0.0
0.0 0.0 0.0

-4.767491312189481e6 3.792243687251819e7 0.0
3.792243687251819e7 1.3175450141225695e6 0.0
0.0 0.0 0.0

752688.9608214697 5.924629226919333e6 0.0
5.924629226919333e6 -2.902109824259716e6 0.0
0.0 0.0 0.0

-1.328288810939105e6 2.090899016228113e7 0.0
2.090899016228113e7 1.3425537035428856e6 0.0
0.0 0.0 0.0

3.2002137992045325e6 2.177228600937305e7 0.0
2.177228600937305e7 1.225522359360865e7 0.0
0.0 0.0 0.0

-7.341393413876792e6 1.8057588773610536e7 0.0
1.8057588773610536e7 2.6872393180769816e7 0.0
0.0 0.0 0.0

-1.4489165148178542e7 2.696092517461682e7 0.0
2.696092517461682e7 2.7471128884370336e6 0.0
0.0 0.0 0.0

4.534732733990613e6 2.263215262390069e7 0.0
2.263215262390069e7 1.0274102875726618e7 0.0
0.0 0.0 0.0

2.457157734597506e6 2.2373872298612874e7 0.0
2.2373872298612874e7 1.1493020490631359e7 0.0
0.0 0.0 0.0

544827.3877944062 1.938836723834276e7 0.0
1.938836723834276e7 -1.812305380171016e7 0.0
0.0 0.0 0.0

2.2206819166639596e6 5.4773628197253775e6 0.0
5.4773628197253775e6 -1.269888436609323e7 0.0
0.0 0.0 0.0

-803998.2013357952 2.000038731568314e7 0.0
2.000038731568314e7 -1.6054193419274138e7 0.0
0.0 0.0 0.0

338728.5241563525 2.2336877934050314e7 0.0
2.2336877934050314e7 -1.163247655990597e7 0.0
0.0 0.0 0.0

-2.5058353460063594e6 2.5405518729593046e7 0.0
2.5405518729593046e7 5.69360837142296e6 0.0
0.0 0.0 0.0

2.0957723775222488e6 2.3469152952320866e7 0.0
2.3469152952320866e7 -9.600759939032594e6 0.0
0.0 0.0 0.0

1.4256952600614214e6 2.2627280061715696e7 0.0
2.2627280061715696e7 -1.0522615309998449e7 0.0
0.0 0.0 0.0

3.1022722529508304e6 4.0491522189804353e6 0.0
4.0491522189804353e6 -3.658511364485339e7 0.0
0.0 0.0 0.0

3.1820505226151794e6 2.181359888545862e7 0.0
2.181359888545862e7 7.39743262082687e6 0.0
0.0 0.0 0.0

277172.661390529 2.300010075960397e7 0.0
2.300010075960397e7 -1.0544539462998344e7 0.0
0.0 0.0 0.0

-1.0594906405890122e7 1.48969850753056e7 0.0
1.48969850753056e7 2.29296982506732e7 0.0
0.0 0.0 0.0

-9.025392450617807e7 3.3388181181345146e7 0.0
3.3388181181345146e7 -8.8249908682402e6 0.0
0.0 0.0 0.0

3.0877498883563213e7 3.02940021945684e7 0.0
3.02940021945684e7 1.0292520261841516e8 0.0
0.0 0.0 0.0

-3.0335559252348e7 2.832750667134687e7 0.0
2.832750667134687e7 -1.0111873021580988e8 0.0
0.0 0.0 0.0

-4.334186692389643e6 2.001657335359307e7 0.0
2.001657335359307e7 2.3668934642542914e7 0.0
0.0 0.0 0.0

968372.5707984604 1.4888813859402841e7 0.0
1.4888813859402841e7 -2.3209104573133487e7 0.0
0.0 0.0 0.0

-3.902377989892105e6 2.093067778861216e7 0.0
2.093067778861216e7 -1.3466470028311146e7 0.0
0.0 0.0 0.0

2.79403827439245e6 3.831806090681758e7 0.0
3.831806090681758e7 -2.6587964584270986e6 0.0
0.0 0.0 0.0

-1.8950618923589839e6 1.8147010112567376e7 0.0
1.8147010112567376e7 -2.1930622151771232e7 0.0
0.0 0.0 0.0

-4.914119512864178e6 2.2005793164317098e7 0.0
2.2005793164317098e7 -8.121694584502103e6 0.0
0.0 0.0 0.0

-9.246487431445545e6 1.6816627783193644e7 0.0
1.6816627783193644e7 2.3568999901328128e7 0.0
0.0 0.0 0.0

-936677.1844761551 2.6117730159335017e7 0.0
2.6117730159335017e7 -1.7864294522168587e6 0.0
0.0 0.0 0.0

-2.8225033136975057e6 1.6862590511756245e7 0.0
1.6862590511756245e7 -3.403104884452068e7 0.0
0.0 0.0 0.0

-2.0010374574311455e6 2.086558116290825e7 0.0
2.086558116290825e7 -7.428279564896921e6 0.0
0.0 0.0 0.0

-3.82944977191805e6 2.2910340461196277e7 0.0
2.2910340461196277e7 1.253263881817658e7 0.0
0.0 0.0 0.0

1.84422078028402e7 2.276363658581761e7 0.0
2.276363658581761e7 276754.891895744 0.0
0.0 0.0 0.0

1.0961963689886103e6 2.0251364721227277e7 0.0
2.0251364721227277e7 7.273471234469507e6 0.0
0.0 0.0 0.0

-4.519562420184679e6 2.047647840327964e7 0.0
2.047647840327964e7 2.1088487055130493e7 0.0
0.0 0.0 0.0

-2.1472793821772095e7 2.5640837716158446e7 0.0
2.5640837716158446e7 -2.1277198659448177e6 0.0
0.0 0.0 0.0

676122.4198826752 2.0581784888819654e7 0.0
2.0581784888819654e7 7.277539247894525e6 0.0
0.0 0.0 0.0

2.811445561029811e6 3.0146572470341288e7 0.0
3.0146572470341288e7 -4.494628129033431e6 0.0
0.0 0.0 0.0

9.562445983014636e6 2.7421335690462835e7 0.0
2.7421335690462835e7 -5.440528824880566e6 0.0
0.0 0.0 0.0

1.519857941962e6 1.422951948959859e7 0.0
1.422951948959859e7 -1.772413093058113e7 0.0
0.0 0.0 0.0

-4.3724636900238395e6 1.884848315289362e7 0.0
1.884848315289362e7 2.9224472816163998e7 0.0
0.0 0.0 0.0

-214260.6959887063 1.895391743288252e7 0.0
1.895391743288252e7 -1.8697851161667608e7 0.0
0.0 0.0 0.0

-2.8431913137760456e6 1.869601714668465e7 0.0
1.869601714668465e7 5.408995962005084e6 0.0
0.0 0.0 0.0

-6.110497404954889e6 1.911072970387058e7 0.0
1.911072970387058e7 1.8051805451276474e7 0.0
0.0 0.0 0.0

2.0040605400651288e6 7.626251817063622e6 0.0
7.626251817063622e6 -9.431906304519711e6 0.0
0.0 0.0 0.0

1.183324196527401e6 1.944030751087985e7 0.0
1.944030751087985e7 1.0427098502598966e7 0.0
0.0 0.0 0.0

5.368847539919459e6 2.674045696991929e7 0.0
2.674045696991929e7 -6.348602930541168e6 0.0
0.0 0.0 0.0

-1.0974184823260717e6 1.1543591273407714e7 0.0
1.1543591273407714e7 -6.514819652312655e7 0.0
0.0 0.0 0.0

-1.0927956851621168e7 1.427171632419013e7 0.0
1.427171632419013e7 2.2185377309942983e7 0.0
0.0 0.0 0.0

2.08867151401937e7 4.106422869547346e7 0.0
4.106422869547346e7 -6.569085765880957e6 0.0
0.0 0.0 0.0

2.1442087324823234e6 7.909650649583944e6 0.0
7.909650649583944e6 -4.17552387415707e7 0.0
0.0 0.0 0.0

663076.9004695073 1.9321478385486968e7 0.0
1.9321478385486968e7 8.280430054218917e6 0.0
0.0 0.0 0.0

2.6047719863368846e6 2.4593706736797992e7 0.0
2.4593706736797992e7 -8.622278003716817e6 0.0
0.0 0.0 0.0

1.4034975927830167e7 2.4075631754245095e7 0.0
2.4075631754245095e7 1.4405245201764548e8 0.0
0.0 0.0 0.0

-1.4842251292178012e7 2.3328437468731023e7 0.0
2.3328437468731023e7 -1.3621683029731938e8 0.0
0.0 0.0 0.0

2.8827722776038624e7 2.0703758352418173e7 0.0
2.0703758352418173e7 5.991221475407707e6 0.0
0.0 0.0 0.0

1.1238533233999956e7 2.6755783901159298e7 0.0
2.6755783901159298e7 -5.004670583386611e6 0.0
0.0 0.0 0.0

472669.4575750623 1.0925533988909217e7 0.0
1.0925533988909217e7 -7.81540343053234e6 0.0
0.0 0.0 0.0

2.1130788996644653e7 3.673075179801691e7 0.0
3.673075179801691e7 -6.728381358586443e6 0.0
0.0 0.0 0.0

-1.42125217913034e6 2.0826154603721615e7 0.0
2.0826154603721615e7 2.0705285933514208e7 0.0
0.0 0.0 0.0

1.5151737231222043e7 2.2443480693579018e7 0.0
2.2443480693579018e7 411807.4844180858 0.0
0.0 0.0 0.0

-3.4203491295661274e6 2.4767592968775768e7 0.0
2.4767592968775768e7 8.051613535328398e6 0.0
0.0 0.0 0.0

-5.241542141874386e6 1.7109079637649234e7 0.0
1.7109079637649234e7 1.6415552501302872e7 0.0
0.0 0.0 0.0

-144251.7593233995 3.9328619182483396e6 0.0
3.9328619182483396e6 -3.194986731830034e6 0.0
0.0 0.0 0.0

7.171296650296166e6 2.2249637934673652e7 0.0
2.2249637934673652e7 1.4840398074492827e7 0.0
0.0 0.0 0.0

99269.6749851522 2.5972183804463543e7 0.0
2.5972183804463543e7 -6.189061290169563e6 0.0
0.0 0.0 0.0

-4.364224348034069e6 1.9789900033989202e7 0.0
1.9789900033989202e7 2.5143450833652064e7 0.0
0.0 0.0 0.0

-5.420449426010607e6 2.588514242849748e7 0.0
2.588514242849748e7 9.508562050351754e6 0.0
0.0 0.0 0.0

-2.7661657645986667e6 2.4344952373729687e7 0.0
2.4344952373729687e7 8.827706119177062e6 0.0
0.0 0.0 0.0

-2.3148508700536788e6 1.8569972869543344e7 0.0
1.8569972869543344e7 -6.514976952665196e6 0.0
0.0 0.0 0.0

-1.933825055958515e6 1.894820085921715e7 0.0
1.894820085921715e7 3.1513683688430004e7 0.0
0.0 0.0 0.0

-3.201689906374426e6 2.518064446612514e7 0.0
2.518064446612514e7 9.367177005234374e6 0.0
0.0 0.0 0.0

-4.544169546386264e6 1.3566190913224444e7 0.0
1.3566190913224444e7 9.558166029597951e6 0.0
0.0 0.0 0.0

-4.105651041989497e7 3.302022465136474e7 0.0
3.302022465136474e7 -4.92957885462239e6 0.0
0.0 0.0 0.0

-6.464867121345807e6 4.817432388944269e6 0.0
4.817432388944269e6 5.7409534201502234e7 0.0
0.0 0.0 0.0

-7.385380096339122e6 2.62783579697914e7 0.0
2.62783579697914e7 7.885466367921545e6 0.0
0.0 0.0 0.0

-7.715445604166551e6 3.1426528447662495e7 0.0
3.1426528447662495e7 5.809162631203258e6 0.0
0.0 0.0 0.0

-1.1087719656478986e6 1.6292191519544763e7 0.0
1.6292191519544763e7 -3.0418761514896218e7 0.0
0.0 0.0 0.0

-2.3714026578182373e6 3.480689095687205e7 0.0
3.480689095687205e7 1.6255899995945627e6 0.0
0.0 0.0 0.0

-6.30033976768456e6 3.9183257664734155e7 0.0
3.9183257664734155e7 1.385157692253409e6 0.0
0.0 0.0 0.0

-7.903396380096992e6 4.039035285033715e7 0.0
4.039035285033715e7 1.8468902318644905e6 0.0
0.0 0.0 0.0

-536005.1277920204 2.8358381516224023e7 0.0
2.8358381516224023e7 -3.018672587146632e6 0.0
0.0 0.0 0.0

-9.445436504041886e6 1.375978473374614e7 0.0
1.375978473374614e7 3.246122318633844e7 0.0
0.0 0.0 0.0

3.2922763238154184e6 1.7092226781575424e6 0.0
1.7092226781575424e6 -3.413519338663314e7 0.0
0.0 0.0 0.0

-2.928028978562666e6 1.976104269317947e7 0.0
1.976104269317947e7 2.7111812897680633e7 0.0
0.0 0.0 0.0

2.4280159440342e6 3.1064736788750853e7 0.0
3.1064736788750853e7 -3.8865822273408147e6 0.0
0.0 0.0 0.0

193551.83395395707 1.681730627576313e7 0.0
1.681730627576313e7 -2.3537289431640644e7 0.0
0.0 0.0 0.0

-7.907474653076483e6 -344330.00258683413 0.0
-344330.00258683413 4.496760643715782e7 0.0
0.0 0.0 0.0

321859.09975186444 2.0469988271736737e7 0.0
2.0469988271736737e7 1.5828037395509423e6 0.0
0.0 0.0 0.0

789860.2262369893 2.092045714219235e7 0.0
2.092045714219235e7 -1.1696733211415892e7 0.0
0.0 0.0 0.0

-426647.4175339136 1.9508287686993796e7 0.0
1.9508287686993796e7 -1.533682599217682e7 0.0
0.0 0.0 0.0

-3.8927873854374355e6 1.7235362754621e7 0.0
1.7235362754621e7 -1.5215995480488924e7 0.0
0.0 0.0 0.0

-9.366889269438028e6 -3.2958372796164798e6 0.0
-3.2958372796164798e6 1.9954711932937004e7 0.0
0.0 0.0 0.0

-431126.4408884599 1.8825202339033406e7 0.0
1.8825202339033406e7 -2.5703329367573513e6 0.0
0.0 0.0 0.0

3.0686711072613746e6 2.078882839682481e7 0.0
2.078882839682481e7 6.638722004319376e6 0.0
0.0 0.0 0.0

2.026772675110003e7 2.1207514438395176e7 0.0
2.1207514438395176e7 7.341768245925615e6 0.0
0.0 0.0 0.0

-8.908739405605428e6 4.253110267982821e7 0.0
4.253110267982821e7 2.6660688016175497e6 0.0
0.0 0.0 0.0

-5.476563352670303e6 1.7526745450881124e7 0.0
1.7526745450881124e7 1.7519864073043533e7 0.0
0.0 0.0 0.0

-1.0630019156224664e7 1.8742694704112448e7 0.0
1.8742694704112448e7 -6.454154027243917e7 0.0
0.0 0.0 0.0

2.7591973385393266e6 7.076839559120365e6 0.0
7.076839559120365e6 -3.493507059893808e7 0.0
0.0 0.0 0.0

-8.65128317471381e6 -3.705170568342784e6 0.0
-3.705170568342784e6 2.9903914990910273e7 0.0
0.0 0.0 0.0

-2.1649785436099384e7 2.9028127272728965e7 0.0
2.9028127272728965e7 -9.090863904151434e6 0.0
0.0 0.0 0.0

-2.138539408840281e7 2.6164813444448095e7 0.0
2.6164813444448095e7 -4.5697745067525245e6 0.0
0.0 0.0 0.0

-2.255224269440983e6 1.9120517269787256e7 0.0
1.9120517269787256e7 -8.344439171827351e6 0.0
0.0 0.0 0.0

314679.18444520095 3.0530350897932272e7 0.0
3.0530350897932272e7 -2.693639939170844e6 0.0
0.0 0.0 0.0

261846.41682177782 6.671519125149712e6 0.0
6.671519125149712e6 -6.182042466301378e7 0.0
0.0 0.0 0.0

9.11189967362155e6 2.3674007975028593e7 0.0
2.3674007975028593e7 -3.3830469073955487e6 0.0
0.0 0.0 0.0

6.264429062009666e6 2.312671950162416e7 0.0
2.312671950162416e7 1.1444476408174532e7 0.0
0.0 0.0 0.0

1.5858910624749828e6 1.4680309982820649e7 0.0
1.4680309982820649e7 -2.2929047563848905e7 0.0
0.0 0.0 0.0

-1.820755001806114e6 2.439221245562596e7 0.0
2.439221245562596e7 742529.15155755 0.0
0.0 0.0 0.0

1.4921319782826612e6 1.3699677726473328e7 0.0
1.3699677726473328e7 -1.6816540762591366e7 0.0
0.0 0.0 0.0

990616.5073411064 1.4342363963832082e7 0.0
1.4342363963832082e7 -2.4690268505214002e7 0.0
0.0 0.0 0.0

-2.7401949127634065e6 1.808701093706597e7 0.0
1.808701093706597e7 -1.5914113237676118e7 0.0
0.0 0.0 0.0

-8.014299198530514e6 3.0405283903038938e7 0.0
3.0405283903038938e7 5.714583984365772e6 0.0
0.0 0.0 0.0

-1.6491406445675906e7 2.2394143447413944e7 0.0
2.2394143447413944e7 -7.483558128097962e7 0.0
0.0 0.0 0.0

1.7394870256055184e7 3.600964366266434e7 0.0
3.600964366266434e7 -5.554059906755604e6 0.0
0.0 0.0 0.0

6.67487005068194e6 2.672521527575957e7 0.0
2.672521527575957e7 -5.866299562011386e6 0.0
0.0 0.0 0.0

-2.449787024740748e6 3.2345471643922765e7 0.0
3.2345471643922765e7 2.3588879244893813e6 0.0
0.0 0.0 0.0

-3.7806994632919813e6 2.4571324845956698e7 0.0
2.4571324845956698e7 1.0919096812775567e7 0.0
0.0 0.0 0.0

376790.25716535375 5.494827147502452e6 0.0
5.494827147502452e6 -6.467461953207047e7 0.0
0.0 0.0 0.0

-3.779196900660878e6 2.2605027208305914e7 0.0
2.2605027208305914e7 1.5401424575485626e7 0.0
0.0 0.0 0.0

1.3768305083026625e6 5.308347695216711e6 0.0
5.308347695216711e6 -5.210347013123696e7 0.0
0.0 0.0 0.0

-336024.29002107866 2.1691889910814874e7 0.0
2.1691889910814874e7 -8.834515690580757e6 0.0
0.0 0.0 0.0

-371072.6431232374 2.0838878269179657e7 0.0
2.0838878269179657e7 -9.215288382002462e6 0.0
0.0 0.0 0.0

-1.093214781775958e6 1.8319789393879335e7 0.0
1.8319789393879335e7 -3.7910466216380205e6 0.0
0.0 0.0 0.0

-2.970302838148712e6 2.1043160542836204e7 0.0
2.1043160542836204e7 1.8020684932515174e7 0.0
0.0 0.0 0.0

-1.4800399347137497e6 2.7214210048171192e7 0.0
2.7214210048171192e7 -2.0269101995527481e6 0.0
0.0 0.0 0.0

-4.1088380196363917e6 2.1235450751244612e7 0.0
2.1235450751244612e7 1.4751178028603189e7 0.0
0.0 0.0 0.0

-8.339679666683136e6 -3.1257275443285247e6 0.0
-3.1257275443285247e6 3.409126848377614e7 0.0
0.0 0.0 0.0

2.132225522208322e6 6.721663331492696e6 0.0
6.721663331492696e6 -3.689836070453751e7 0.0
0.0 0.0 0.0

2.1314209940097407e6 9.140578995133651e6 0.0
9.140578995133651e6 -2.872814045351462e7 0.0
0.0 0.0 0.0

1.7097853201783055e6 3.356441909563141e7 0.0
3.356441909563141e7 -1.8042523050822169e6 0.0
0.0 0.0 0.0

-3.0142075831083213e6 2.092839889243646e7 0.0
2.092839889243646e7 -1.135540425530339e7 0.0
0.0 0.0 0.0

-299020.3445837293 1.5494606090853097e7 0.0
1.5494606090853097e7 -3.07150335868302e7 0.0
0.0 0.0 0.0

3.4010948921465613e6 2.013477399513412e7 0.0
2.013477399513412e7 1.619101326749514e7 0.0
0.0 0.0 0.0

-1.026451008129583e7 2.405765044523921e6 0.0
2.405765044523921e6 2.3428874210533537e7 0.0
0.0 0.0 0.0

7.071786616898324e6 2.3725762070332367e7 0.0
2.3725762070332367e7 1.2618638332042377e7 0.0
0.0 0.0 0.0

-1.4848320883562032e7 3.360945506055262e7 0.0
3.360945506055262e7 6.509852909689073e6 0.0
0.0 0.0 0.0

4.460005863899321e6 2.1400691683852565e7 0.0
2.1400691683852565e7 7.307431590390841e6 0.0
0.0 0.0 0.0

2.769211204042883e6 1.864903535067817e7 0.0
1.864903535067817e7 1.5568968814409602e7 0.0
0.0 0.0 0.0

-5.526573614697616e6 2.96665530393486e7 0.0
2.96665530393486e7 5.949584121221544e6 0.0
0.0 0.0 0.0

-3.5954152313769087e6 2.1767992284061268e7 0.0
2.1767992284061268e7 1.7764720217055127e7 0.0
0.0 0.0 0.0

-628642.5824709963 1.8310402710488368e7 0.0
1.8310402710488368e7 3.75106808621235e7 0.0
0.0 0.0 0.0

-2.048040005042988e7 2.6801894333923332e7 0.0
2.6801894333923332e7 -2.60774181071802e6 0.0
0.0 0.0 0.0

-1.345931761235205e7 2.5399254100455888e7 0.0
2.5399254100455888e7 2.407900008891009e6 0.0
0.0 0.0 0.0

-1.2053977900225477e7 1.7387213787461177e7 0.0
1.7387213787461177e7 922917.622887711 0.0
0.0 0.0 0.0

-8.178420859658018e7 3.64897668541711e7 0.0
3.64897668541711e7 -3.4680125621332675e6 0.0
0.0 0.0 0.0

1.225752700189039e7 2.1284120495072138e7 0.0
2.1284120495072138e7 7.173958990917487e6 0.0
0.0 0.0 0.0

-2.2618357482178835e6 1.6567838191537129e7 0.0
1.6567838191537129e7 -3.1393377091327175e7 0.0
0.0 0.0 0.0

-3.3743606938875075e6 2.4035333687733002e7 0.0
2.4035333687733002e7 8.388516095810594e6 0.0
0.0 0.0 0.0

469129.1817314336 2.0361349995306965e7 0.0
2.0361349995306965e7 -1.5563320443470724e7 0.0
0.0 0.0 0.0

4.4796656819807984e7 1.690123588423161e7 0.0
1.690123588423161e7 2.53389250993257e6 0.0
0.0 0.0 0.0

-6.634220426202266e6 -1.956885849219906e6 0.0
-1.956885849219906e6 1.1961475592790432e7 0.0
0.0 0.0 0.0

3.5389086889334004e6 2.590131770742519e6 0.0
2.590131770742519e6 -1.5049154358818922e7 0.0
0.0 0.0 0.0

168649.3139994461 2.102831233167467e7 0.0
2.102831233167467e7 -1.333989951479158e7 0.0
0.0 0.0 0.0

-712024.0557982227 1.9805281899647087e7 0.0
1.9805281899647087e7 -1.0371979677468436e6 0.0
0.0 0.0 0.0

-8.450554625236684e6 5.066333254962639e6 0.0
5.066333254962639e6 4.460152426866199e7 0.0
0.0 0.0 0.0

8.029154777469626e6 2.7787033268923208e7 0.0
2.7787033268923208e7 -5.660248763765489e6 0.0
0.0 0.0 0.0

-1.3643193974037979e7 4.405387328316622e7 0.0
4.405387328316622e7 3.1192649054414425e6 0.0
0.0 0.0 0.0

1.1544932484011048e7 2.211605647959081e7 0.0
2.211605647959081e7 6.38298303517702e6 0.0
0.0 0.0 0.0

-8.493588075884374e6 -4.1560555299945497e6 0.0
-4.1560555299945497e6 2.789100550894904e7 0.0
0.0 0.0 0.0

-2.3879795667867098e7 2.737068215412634e7 0.0
2.737068215412634e7 -2.248457299992267e6 0.0
0.0 0.0 0.0

1.0487263698563608e6 1.9343625470639374e7 0.0
1.9343625470639374e7 6.751222594027865e6 0.0
0.0 0.0 0.0

-1.907395866428832e7 4.620777733584503e7 0.0
4.620777733584503e7 3.9213432712114267e6 0.0
0.0 0.0 0.0

-7.027018904141411e6 1.844002036993508e7 0.0
1.844002036993508e7 2.3326205011992145e7 0.0
0.0 0.0 0.0

2.19507794379286e6 2.082177510341697e7 0.0
2.082177510341697e7 -1.6570205301070376e6 0.0
0.0 0.0 0.0

-6.81305595453001e6 1.803695816356898e7 0.0
1.803695816356898e7 -2.543324867012564e7 0.0
0.0 0.0 0.0

-2.8122312212084313e6 1.9142783673388146e7 0.0
1.9142783673388146e7 -1.1323548798767215e7 0.0
0.0 0.0 0.0

8.043648641916285e6 2.3282946283359367e7 0.0
2.3282946283359367e7 -3.9268672523015477e6 0.0
0.0 0.0 0.0

3.6172628329861484e7 4.5135290804330766e7 0.0
4.5135290804330766e7 -1.1656280934411623e7 0.0
0.0 0.0 0.0

-9.483497758831898e6 -2.5057015793580455e6 0.0
-2.5057015793580455e6 2.166669144935577e7 0.0
0.0 0.0 0.0

2.3610623992626076e6 3.674790118408986e7 0.0
3.674790118408986e7 -2.8509446934004696e6 0.0
0.0 0.0 0.0

4.000991601892637e6 3.1368722268863007e7 0.0
3.1368722268863007e7 -3.426705411486357e6 0.0
0.0 0.0 0.0

-9.308651758147802e6 212361.63318490473 0.0
212361.63318490473 3.61872253053666e7 0.0
0.0 0.0 0.0

3.2410803491023146e6 1.7474380901923212e6 0.0
1.7474380901923212e6 -3.455078417988511e7 0.0
0.0 0.0 0.0

-4.1878438079620665e6 2.7118764587727517e7 0.0
2.7118764587727517e7 8.18694143482712e6 0.0
0.0 0.0 0.0

5.672407178385325e6 2.3394403022555146e7 0.0
2.3394403022555146e7 1.3130053272801876e7 0.0
0.0 0.0 0.0

-4.744562412400592e6 5.992825486661535e6 0.0
5.992825486661535e6 6.931186058901651e6 0.0
0.0 0.0 0.0

-8.561813532806799e6 1.6798634771459512e7 0.0
1.6798634771459512e7 2.3487563005897738e7 0.0
0.0 0.0 0.0

4.577200123584417e6 2.2954514799528703e7 0.0
2.2954514799528703e7 1.365424248102723e7 0.0
0.0 0.0 0.0

-630982.7817860157 1.770694562554563e7 0.0
1.770694562554563e7 -1.2378599126326911e7 0.0
0.0 0.0 0.0

-3.39869271461792e6 1.773632543078384e7 0.0
1.773632543078384e7 -1.726605906175961e7 0.0
0.0 0.0 0.0

1.5856758009527747e6 2.8985366080065634e7 0.0
2.8985366080065634e7 -4.680390268989534e6 0.0
0.0 0.0 0.0

-7.607571200548458e6 -2.601722406419986e6 0.0
-2.601722406419986e6 1.4784350591966536e7 0.0
0.0 0.0 0.0

-2.4962010420695106e6 2.0290773612797216e7 0.0
2.0290773612797216e7 3.9502199204637553e6 0.0
0.0 0.0 0.0

-6.729777153974259e6 1.8103059546127725e7 0.0
1.8103059546127725e7 2.8361634479128893e7 0.0
0.0 0.0 0.0

892474.959552886 1.4689241620453767e7 0.0
1.4689241620453767e7 -1.3914530132766537e7 0.0
0.0 0.0 0.0

1.3628562372400425e6 2.3817412512056794e7 0.0
2.3817412512056794e7 -1.0113885104262732e7 0.0
0.0 0.0 0.0

3.5693946420893203e6 4.0164381733252496e7 0.0
4.0164381733252496e7 -802593.5492882947 0.0
0.0 0.0 0.0

-928030.9571695458 1.5076129183108807e7 0.0
1.5076129183108807e7 -3.2770385786138665e7 0.0
0.0 0.0 0.0

-4.455641081487703e7 4.722561357517154e7 0.0
4.722561357517154e7 6.176848124501158e6 0.0
0.0 0.0 0.0

809892.2079788244 2.10026546388412e6 0.0
2.10026546388412e6 -1.6799409193922372e6 0.0
0.0 0.0 0.0

489174.3763444453 2.3139316247700313e6 0.0
2.3139316247700313e6 -2.661323746598396e6 0.0
0.0 0.0 0.0

5.0317759012485035e6 1.993427423940352e7 0.0
1.993427423940352e7 2.7294336150171686e7 0.0
0.0 0.0 0.0

5.036119213081491e6 2.1769894110997472e7 0.0
2.1769894110997472e7 1.593280893087274e7 0.0
0.0 0.0 0.0

81798.16800702969 2.0471440178552933e7 0.0
2.0471440178552933e7 9.321489570752637e6 0.0
0.0 0.0 0.0

-9.590200515219517e6 1.5026399168914784e7 0.0
1.5026399168914784e7 2.3324886634877868e7 0.0
0.0 0.0 0.0

6.646707742086644e6 5.65555637012411e6 0.0
5.65555637012411e6 -1.4534355475339857e6 0.0
0.0 0.0 0.0

-2.421511274048551e6 2.225522758689538e7 0.0
2.225522758689538e7 1.0468208286826905e7 0.0
0.0 0.0 0.0

-190922.59195054413 3.0343617900274463e7 0.0
3.0343617900274463e7 -765526.7109982803 0.0
0.0 0.0 0.0

-1.8922386536025908e6 1.5968054165520445e7 0.0
1.5968054165520445e7 -3.466944958966469e7 0.0
0.0 0.0 0.0

1.065558568176059e7 2.3382958690911137e7 0.0
2.3382958690911137e7 1.1414613612028172e7 0.0
0.0 0.0 0.0

1.6365910131485645e7 2.260637329126552e7 0.0
2.260637329126552e7 1.0353123332248537e7 0.0
0.0 0.0 0.0

-2.6425412821398485e7 4.810619685260028e7 0.0
4.810619685260028e7 6.250490531073967e6 0.0
0.0 0.0 0.0

1.8014911435452583e6 2.061450530031156e7 0.0
2.061450530031156e7 9.717947172043022e6 0.0
0.0 0.0 0.0

-1.014869050926425e7 9.342468673827901e6 0.0
9.342468673827901e6 1.359230814678863e7 0.0
0.0 0.0 0.0

-1.0980116708347797e7 1.3237730522104423e7 0.0
1.3237730522104423e7 2.7198087557113677e7 0.0
0.0 0.0 0.0

-556486.1282611192 2.9589048328322385e7 0.0
2.9589048328322385e7 -1.8210039677119458e6 0.0
0.0 0.0 0.0

7.208228900446588e6 2.130986541624648e7 0.0
2.130986541624648e7 1.5326363921215001e7 0.0
0.0 0.0 0.0

-6.944297804983173e6 4.560735621074879e6 0.0
4.560735621074879e6 6.334747564899935e7 0.0
0.0 0.0 0.0

204071.4053076282 1.9983947653083734e7 0.0
1.9983947653083734e7 1.702549777487408e7 0.0
0.0 0.0 0.0

-1.0497727743169649e7 1.817994817393492e7 0.0
1.817994817393492e7 -3.796295176539309e7 0.0
0.0 0.0 0.0

5.033046511602321e6 2.2764841137123413e7 0.0
2.2764841137123413e7 1.419819463537245e7 0.0
0.0 0.0 0.0

-4.459189010746745e6 1.9322542179499514e7 0.0
1.9322542179499514e7 2.634065980094371e7 0.0
0.0 0.0 0.0

-458762.36678070854 1.6692068667216986e7 0.0
1.6692068667216986e7 -1.2799992152900644e7 0.0
0.0 0.0 0.0

5.704735414119408e6 1.9319716579198234e7 0.0
1.9319716579198234e7 7.68150980502636e7 0.0
0.0 0.0 0.0

8.195783523637918e6 2.6460543707627047e7 0.0
2.6460543707627047e7 -5.318633780842736e6 0.0
0.0 0.0 0.0

214336.18357849773 1.857614585874694e7 0.0
1.857614585874694e7 -1.9185977073721357e7 0.0
0.0 0.0 0.0

-473425.5548268538 1.3698180087039053e7 0.0
1.3698180087039053e7 -6.182911062225805e6 0.0
0.0 0.0 0.0

2.7666829879903067e6 3.0514487673489777e6 0.0
3.0514487673489777e6 -4.325791784371288e7 0.0
0.0 0.0 0.0

3.3586123809205545e6 3.834871552641884e7 0.0
3.834871552641884e7 -519946.04084116337 0.0
0.0 0.0 0.0

-1.0478168547438098e7 1.4028757277977835e7 0.0
1.4028757277977835e7 2.7913421297128122e7 0.0
0.0 0.0 0.0

3.5886077942588744e6 1.8523441685495324e7 0.0
1.8523441685495324e7 2.0511083967616104e7 0.0
0.0 0.0 0.0

-9.690988629320547e6 2.690138727005208e7 0.0
2.690138727005208e7 5.6933540263634175e6 0.0
0.0 0.0 0.0

-2.4393934768751897e6 2.2320712549700685e7 0.0
2.2320712549700685e7 2.0057715180991474e6 0.0
0.0 0.0 0.0

-8.752384501698935e6 1.7373342879766792e7 0.0
1.7373342879766792e7 2.373243828526198e7 0.0
0.0 0.0 0.0

1.7783477985830447e6 1.102917375100144e7 0.0
1.102917375100144e7 -2.3349177532052375e7 0.0
0.0 0.0 0.0

-1.2808643514016965e7 4.136340289278209e7 0.0
4.136340289278209e7 6.132814122303275e6 0.0
0.0 0.0 0.0

2.4000584831768796e7 1.2775662453731086e7 0.0
1.2775662453731086e7 691877.3014451731 0.0
0.0 0.0 0.0

-1.0579152938808586e7 -483398.56682521733 0.0
-483398.56682521733 2.001528071988208e7 0.0
0.0 0.0 0.0

-6.847816548295279e6 3.0847935922679346e7 0.0
3.0847935922679346e7 5.408698134988747e6 0.0
0.0 0.0 0.0

-2.8317875446750484e7 2.3148902684082475e7 0.0
2.3148902684082475e7 4.436951297576452e6 0.0
0.0 0.0 0.0

-3.9496628743044473e6 2.2146642565436486e7 0.0
2.2146642565436486e7 -1.097137577716509e7 0.0
0.0 0.0 0.0

-5.5320522631173275e7 3.437357928468692e7 0.0
3.437357928468692e7 -2.623487730018107e6 0.0
0.0 0.0 0.0

-4.428495179845115e6 2.2439824144464336e7 0.0
2.2439824144464336e7 -6.368450129584875e6 0.0
0.0 0.0 0.0

-4.89475429896066e6 1.9344969594014917e7 0.0
1.9344969594014917e7 1.8328781514364675e7 0.0
0.0 0.0 0.0

-1.0294532781434545e7 1.4146640995588208e7 0.0
1.4146640995588208e7 2.4401998129137434e7 0.0
0.0 0.0 0.0

-7.1720402149308985e6 1.7159273379373655e7 0.0
1.7159273379373655e7 1.6921286316115834e7 0.0
0.0 0.0 0.0

-4.469190992982897e6 2.451787963520316e7 0.0
2.451787963520316e7 1.1746590083685573e7 0.0
0.0 0.0 0.0

-8.244965182797344e6 1.5738080633175534e6 0.0
1.5738080633175534e6 4.472478758659095e7 0.0
0.0 0.0 0.0

-430897.03352967155 1.8715719761336446e7 0.0
1.8715719761336446e7 -1.1654311756816765e6 0.0
0.0 0.0 0.0

1.4922233213381013e6 1.243414060182339e7 0.0
1.243414060182339e7 -1.4524318768652959e7 0.0
0.0 0.0 0.0

845609.7011484569 1.688527236469877e7 0.0
1.688527236469877e7 -1.997104356958652e7 0.0
0.0 0.0 0.0

-8.719085533638436e6 -2.411269824303098e6 0.0
-2.411269824303098e6 3.047875145552841e7 0.0
0.0 0.0 0.0

-1.1945477582087223e6 1.913029746874695e7 0.0
1.913029746874695e7 634392.0453535493 0.0
0.0 0.0 0.0

-8.099881262416696e6 2.7092971102068212e7 0.0
2.7092971102068212e7 6.752562170145236e6 0.0
0.0 0.0 0.0

2.0690389050721098e6 2.0005909098698054e7 0.0
2.0005909098698054e7 2.752603235020822e7 0.0
0.0 0.0 0.0

317611.81286678277 2.0318701612640418e7 0.0
2.0318701612640418e7 -1.382051404897449e7 0.0
0.0 0.0 0.0

422413.4372649889 1.9532362717592727e7 0.0
1.9532362717592727e7 4.8748150748044355e6 0.0
0.0 0.0 0.0

1.9455307449230007e6 3.5600386629770346e7 0.0
3.5600386629770346e7 -2.499153927558753e6 0.0
0.0 0.0 0.0

1.4985328702776711e6 2.1431731527341813e7 0.0
2.1431731527341813e7 -1.1066919590452269e7 0.0
0.0 0.0 0.0

1.0154690745214732e8 3.640482989517211e7 0.0
3.640482989517211e7 2.6143328111606613e6 0.0
0.0 0.0 0.0

4.285376445252852e6 2.1310231533775337e7 0.0
2.1310231533775337e7 -3.372034541765657e6 0.0
0.0 0.0 0.0

-2.260062541032551e6 1.8634487323293325e7 0.0
1.8634487323293325e7 -2.2694284441933222e7 0.0
0.0 0.0 0.0

2.5033009743032674e6 2.330022271905814e7 0.0
2.330022271905814e7 -9.335910331816921e6 0.0
0.0 0.0 0.0

-2.8486601050765924e7 2.9535557922460638e7 0.0
2.9535557922460638e7 -3.892346072596739e6 0.0
0.0 0.0 0.0

-5.807748915036626e6 2.6084277870534744e7 0.0
2.6084277870534744e7 8.364413703591319e6 0.0
0.0 0.0 0.0

1.6663269917913508e7 2.2528179278880425e7 0.0
2.2528179278880425e7 5.272551272873017e6 0.0
0.0 0.0 0.0

-3.222877103774911e6 1.5441547477205316e7 0.0
1.5441547477205316e7 -4.194770799328182e7 0.0
0.0 0.0 0.0

5.939538476485001e6 1.8973859613773443e7 0.0
1.8973859613773443e7 3.496973434214987e7 0.0
0.0 0.0 0.0

3.515309513264062e6 5.304022943799817e6 0.0
5.304022943799817e6 -2.684779508214026e7 0.0
0.0 0.0 0.0

2.682728807566499e6 2.419665968656452e7 0.0
2.419665968656452e7 -8.830328239048101e6 0.0
0.0 0.0 0.0

1.68329140961387e6 4.377198231069666e6 0.0
4.377198231069666e6 -5.062860376592546e7 0.0
0.0 0.0 0.0

1.1275888567187432e6 2.354942909673502e7 0.0
2.354942909673502e7 -1.0411392110358497e7 0.0
0.0 0.0 0.0

6.746812281685267e6 2.7896853085097365e7 0.0
2.7896853085097365e7 -5.801862966914862e6 0.0
0.0 0.0 0.0

-2.182258433029891e6 2.2097273735424053e7 0.0
2.2097273735424053e7 1.4547954733220255e6 0.0
0.0 0.0 0.0

-1.3709984729740247e7 3.3202078143925894e7 0.0
3.3202078143925894e7 5.236445984814314e6 0.0
0.0 0.0 0.0

-4.762832685539793e6 1.9466164878395293e7 0.0
1.9466164878395293e7 2.6477381321309447e7 0.0
0.0 0.0 0.0

1.4403639583196698e6 1.942343548964467e7 0.0
1.942343548964467e7 1.0469647719265271e7 0.0
0.0 0.0 0.0

-3.853776420722399e7 3.697619507576376e7 0.0
3.697619507576376e7 7.28167274020467e6 0.0
0.0 0.0 0.0

1.6169164672217842e7 2.2830074205346387e7 0.0
2.2830074205346387e7 1.1453002829176357e7 0.0
0.0 0.0 0.0

-6.12172618671238e6 1.2813886710690057e7 0.0
1.2813886710690057e7 8.421298653812766e6 0.0
0.0 0.0 0.0

-5.638026813023832e6 3.025244479553598e7 0.0
3.025244479553598e7 5.170644404050951e6 0.0
0.0 0.0 0.0

-5.210679583495005e6 2.2913740611524105e7 0.0
2.2913740611524105e7 -8.498421667645661e6 0.0
0.0 0.0 0.0

996531.6190085718 1.5149102128151914e7 0.0
1.5149102128151914e7 -1.47544031210976e7 0.0
0.0 0.0 0.0

3.1746926543805115e6 1.5885310099765246e6 0.0
1.5885310099765246e6 -3.6370366264656946e7 0.0
0.0 0.0 0.0

-1.9672891587874098e6 1.8151354907528866e7 0.0
1.8151354907528866e7 -9.898628842678947e6 0.0
0.0 0.0 0.0

4.917422963062899e7 6.6216909276583595e6 0.0
6.6216909276583595e6 -1.2268762924790718e6 0.0
0.0 0.0 0.0

-4.434529347864307e6 1.9065426393123932e7 0.0
1.9065426393123932e7 2.7727017540532827e7 0.0
0.0 0.0 0.0

-7.551622861333188e6 2.962201352659569e7 0.0
2.962201352659569e7 6.196796379803779e6 0.0
0.0 0.0 0.0

-8.0135204904401e6 -2.229552202827761e6 0.0
-2.229552202827761e6 4.0549244134956144e7 0.0
0.0 0.0 0.0

-2.403942439253199e6 3.518903384552384e7 0.0
3.518903384552384e7 643561.9056322292 0.0
0.0 0.0 0.0

-2.1817659616367996e7 2.6038553287457377e7 0.0
2.6038553287457377e7 -2.159596752643764e6 0.0
0.0 0.0 0.0

293182.0475244019 1.91210841470257e7 0.0
1.91210841470257e7 -1.796313599030976e7 0.0
0.0 0.0 0.0

4.761311110550553e6 1.9667817466289558e7 0.0
1.9667817466289558e7 2.441419456234243e7 0.0
0.0 0.0 0.0

110547.99667835492 2.0286447805054724e7 0.0
2.0286447805054724e7 4.709862329437498e6 0.0
0.0 0.0 0.0

-2.8342882485500085e6 2.2982043209895782e7 0.0
2.2982043209895782e7 9.195603485567167e6 0.0
0.0 0.0 0.0

431082.77644598205 1.4482794739738852e7 0.0
1.4482794739738852e7 -1.567677703191486e7 0.0
0.0 0.0 0.0

2.5227912105446113e6 1.0529392894442247e7 0.0
1.0529392894442247e7 -2.2496566565571338e7 0.0
0.0 0.0 0.0

-834254.5738033399 9.677145049177665e6 0.0
9.677145049177665e6 -6.201449755573833e6 0.0
0.0 0.0 0.0

-5.047951187591869e6 2.967836635467856e7 0.0
2.967836635467856e7 5.094088014439136e6 0.0
0.0 0.0 0.0

-868356.796578011 1.8244439000845615e7 0.0
1.8244439000845615e7 -1.1138817528582184e7 0.0
0.0 0.0 0.0

1.970885344151572e7 1.2556780639020277e7 0.0
1.2556780639020277e7 437874.04844207596 0.0
0.0 0.0 0.0

3.1372703287308346e6 1.7139452416866138e6 0.0
1.7139452416866138e6 -3.679706535607526e7 0.0
0.0 0.0 0.0

3.385651162995062e6 1.8916015220433317e7 0.0
1.8916015220433317e7 2.562656344325146e7 0.0
0.0 0.0 0.0

88558.29423523182 9.38196476809562e6 0.0
9.38196476809562e6 -8.493954143212114e6 0.0
0.0 0.0 0.0

2.7757028745543063e6 2.9313477559426125e7 0.0
2.9313477559426125e7 -4.172332481540476e6 0.0
0.0 0.0 0.0

246735.85034696944 2.030931701320255e7 0.0
2.030931701320255e7 1.2020919382766062e7 0.0
0.0 0.0 0.0

-9.382331140968593e6 8.136051750086254e6 0.0
8.136051750086254e6 4.005866766010686e7 0.0
0.0 0.0 0.0

-7.6298636417683065e6 708759.601030752 0.0
708759.601030752 1.3215302174926173e7 0.0
0.0 0.0 0.0

7.250258148576263e6 2.7792458433686752e7 0.0
2.7792458433686752e7 -5.668049934560057e6 0.0
0.0 0.0 0.0

-5.408350097438371e7 1.6958590455122974e7 0.0
1.6958590455122974e7 7.031680961467583e6 0.0
0.0 0.0 0.0

39420.468259264715 1.764989318724471e7 0.0
1.764989318724471e7 -2.200217766482926e7 0.0
0.0 0.0 0.0

5.079877776918638e6 1.3396423450927354e7 0.0
1.3396423450927354e7 3.581125937976221e6 0.0
0.0 0.0 0.0

-4.855510378976699e6 1.8987431222962208e7 0.0
1.8987431222962208e7 1.768448777089826e7 0.0
0.0 0.0 0.0

-5.820520961794227e7 1.6299549983012125e7 0.0
1.6299549983012125e7 5.742406372689303e6 0.0
0.0 0.0 0.0

-2.3285243039099993e6 1.794523660854742e7 0.0
1.794523660854742e7 -2.3714523365571357e7 0.0
0.0 0.0 0.0

1.2272232403946938e6 2.2769535336300638e7 0.0
2.2769535336300638e7 -1.1235496273111384e7 0.0
0.0 0.0 0.0

1.3339327389979667e6 5.540046431200957e6 0.0
5.540046431200957e6 -4.422188448021911e6 0.0
0.0 0.0 0.0

-1.114388986332003e7 2.47510830469931e7 0.0
2.47510830469931e7 -8.253335918461531e6 0.0
0.0 0.0 0.0

7.213294630949769e6 3.2269625602902647e7 0.0
3.2269625602902647e7 -4.883401336632708e6 0.0
0.0 0.0 0.0

-1.894996427644574e6 3.214066821285118e7 0.0
3.214066821285118e7 367893.3667365011 0.0
0.0 0.0 0.0

-3.1336188389664125e6 2.2680093439940162e7 0.0
2.2680093439940162e7 5.129059802227777e6 0.0
0.0 0.0 0.0

-8.479942732667677e6 1.6386802055621615e7 0.0
1.6386802055621615e7 2.9575226274223417e7 0.0
0.0 0.0 0.0

-3.662645388604544e6 2.2759050924737718e7 0.0
2.2759050924737718e7 1.5220901454706762e7 0.0
0.0 0.0 0.0

-2.243683335145188e6 3.4260316784051076e7 0.0
3.4260316784051076e7 561541.2775718648 0.0
0.0 0.0 0.0

935267.7584449518 1.2261126496212466e7 0.0
1.2261126496212466e7 -1.6422671053886304e7 0.0
0.0 0.0 0.0

-2.260894062574417e6 3.3581794555681475e7 0.0
3.3581794555681475e7 427234.2092187996 0.0
0.0 0.0 0.0

5.632437787747877e6 2.1962671117635943e7 0.0
2.1962671117635943e7 1.4283621165000552e7 0.0
0.0 0.0 0.0

-1.0108557160152076e7 1.4179675000514198e7 0.0
1.4179675000514198e7 2.8528312287272185e7 0.0
0.0 0.0 0.0

2.6459971304478683e6 3.1060590055511617e6 0.0
3.1060590055511617e6 -3.811179046822321e7 0.0
0.0 0.0 0.0

-9.600374078466456e6 2.6696183744036075e7 0.0
2.6696183744036075e7 6.098798100930438e6 0.0
0.0 0.0 0.0

-806480.4560137034 2.644001258599185e7 0.0
2.644001258599185e7 -4.390086040841459e6 0.0
0.0 0.0 0.0

531721.1720751545 2.6274078403981633e7 0.0
2.6274078403981633e7 -5.26407184052619e6 0.0
0.0 0.0 0.0

-7.709461199189937e7 4.691951733917934e7 0.0
4.691951733917934e7 -2.857865281763023e7 0.0
0.0 0.0 0.0

652955.4559154697 1.9847112195441324e7 0.0
1.9847112195441324e7 -1.6779464910260174e7 0.0
0.0 0.0 0.0

-335325.2789390411 2.9079645350457598e7 0.0
2.9079645350457598e7 -961710.3219035994 0.0
0.0 0.0 0.0

-5.305034591985356e6 2.0061804899874218e7 0.0
2.0061804899874218e7 1.7077219070251208e7 0.0
0.0 0.0 0.0

-3.166540839592149e7 2.4804332029070903e7 0.0
2.4804332029070903e7 4.977767651336668e6 0.0
0.0 0.0 0.0

986609.4152163821 1.947200322298366e7 0.0
1.947200322298366e7 529200.2858152651 0.0
0.0 0.0 0.0

3.4914523121367227e6 2.0077455097444903e7 0.0
2.0077455097444903e7 1.6137015378277842e7 0.0
0.0 0.0 0.0

2.5720146690417584e6 1.3501574035180598e6 0.0
1.3501574035180598e6 -4.648695938465138e7 0.0
0.0 0.0 0.0

-1.959997151131414e7 3.883915417115626e7 0.0
3.883915417115626e7 7.860513610868597e6 0.0
0.0 0.0 0.0

-8.055533952569032e6 -614695.2514058689 0.0
-614695.2514058689 4.156252841401636e7 0.0
0.0 0.0 0.0

-7.914894415817076e6 784137.817140113 0.0
784137.817140113 4.843885896168624e7 0.0
0.0 0.0 0.0

-6.495030599173019e6 -928148.776917535 0.0
-928148.776917535 1.2295354756649923e7 0.0
0.0 0.0 0.0

-8.903467713802138e6 1.4645260054970976e7 0.0
1.4645260054970976e7 3.2806232459277786e7 0.0
0.0 0.0 0.0

3.316865483031241e6 1.7964469465290412e7 0.0
1.7964469465290412e7 1.1476462227061292e7 0.0
0.0 0.0 0.0

-184549.8251147708 1.683889618604797e7 0.0
1.683889618604797e7 -2.5261559250867937e7 0.0
0.0 0.0 0.0

-3.957308491000379e7 4.90052995874851e7 0.0
4.90052995874851e7 8.957764492514618e6 0.0
0.0 0.0 0.0

-9.626157209703062e6 1.4807081428111276e7 0.0
1.4807081428111276e7 2.9065644189372264e7 0.0
0.0 0.0 0.0

-3.4628957124768533e6 1.501519791443414e7 0.0
1.501519791443414e7 -4.4000127996145464e7 0.0
0.0 0.0 0.0

-2.09335865600237e7 2.5677901154493418e7 0.0
2.5677901154493418e7 -1.8467584333465649e6 0.0
0.0 0.0 0.0

-7.43435901458801e6 425400.5814320856 0.0
425400.5814320856 4.966764091641612e7 0.0
0.0 0.0 0.0

235379.88139202166 1.8721434778023135e7 0.0
1.8721434778023135e7 -1.6237655550676003e7 0.0
0.0 0.0 0.0

-8.304377914872271e6 1.7953613524330527e7 0.0
1.7953613524330527e7 -4.950185659821424e7 0.0
0.0 0.0 0.0

-3.313541607084311e6 2.1497082110355902e7 0.0
2.1497082110355902e7 -7.7389397943872735e6 0.0
0.0 0.0 0.0

-1.83561316149522e7 2.385791314241312e7 0.0
2.385791314241312e7 -1.2268228579403507e6 0.0
0.0 0.0 0.0

4.976808261162343e7 2.7622474269989982e7 0.0
2.7622474269989982e7 1.0614778310237478e7 0.0
0.0 0.0 0.0

-1.5981502220152137e6 1.62334497220717e7 0.0
1.62334497220717e7 -3.684458535387964e6 0.0
0.0 0.0 0.0

1.089077584575289e6 1.736049244615732e7 0.0
1.736049244615732e7 -1.8383728719081514e7 0.0
0.0 0.0 0.0

-2.936827942899294e6 1.7732321474040367e7 0.0
1.7732321474040367e7 -1.4453262415874343e7 0.0
0.0 0.0 0.0

2.655983468690537e6 1.512099135734465e6 0.0
1.512099135734465e6 -4.691401076076008e7 0.0
0.0 0.0 0.0

1.1742268339326933e6 2.825941944222337e7 0.0
2.825941944222337e7 -3.8296538214122313e6 0.0
0.0 0.0 0.0

-3.4372648480373034e6 1.7427550029303767e7 0.0
1.7427550029303767e7 -2.598726878601559e7 0.0
0.0 0.0 0.0

1.1694854610429462e6 2.176391159639856e7 0.0
2.176391159639856e7 -1.1589710960696304e7 0.0
0.0 0.0 0.0

-394076.84331551706 2.010481058929003e7 0.0
2.010481058929003e7 1.9283531078429716e6 0.0
0.0 0.0 0.0

-5.331621363817541e6 1.2587844774344562e7 0.0
1.2587844774344562e7 1.1363078939163053e7 0.0
0.0 0.0 0.0

-3.223515403352995e6 2.2680626798116565e7 0.0
2.2680626798116565e7 8.73031388576456e6 0.0
0.0 0.0 0.0

-343644.31300552376 1.9511557986300427e7 0.0
1.9511557986300427e7 2.8450832480830934e7 0.0
0.0 0.0 0.0

3.561366609297052e6 2.0048561896393804e6 0.0
2.0048561896393804e6 -3.029571638800948e7 0.0
0.0 0.0 0.0

-1.589132595381651e7 1.4955433020031212e7 0.0
1.4955433020031212e7 3.291991757026016e6 0.0
0.0 0.0 0.0

6.494965433290577e6 2.3344022319991935e7 0.0
2.3344022319991935e7 1.350338216609085e7 0.0
0.0 0.0 0.0

-1.5620258617388378e6 1.8789018871621236e7 0.0
1.8789018871621236e7 -1.7616536724131815e7 0.0
0.0 0.0 0.0

7.677722502245417e7 1.1101079063468251e7 0.0
1.1101079063468251e7 -146310.59130816907 0.0
0.0 0.0 0.0

269292.09045649227 1.7746460252592005e7 0.0
1.7746460252592005e7 -2.2104451916866936e7 0.0
0.0 0.0 0.0

296639.48131213035 2.7149453701679673e7 0.0
2.7149453701679673e7 -5.327612332983861e6 0.0
0.0 0.0 0.0

-2.5652597089569867e6 2.390318829080769e7 0.0
2.390318829080769e7 -184656.013836173 0.0
0.0 0.0 0.0

7.654864417099839e6 1.9394668614542037e7 0.0
1.9394668614542037e7 6.283210895431472e7 0.0
0.0 0.0 0.0

-9.076059815173257e6 1.3474034395342175e7 0.0
1.3474034395342175e7 3.447518638464497e7 0.0
0.0 0.0 0.0

-7.9277863162078e6 -2.69969956292065e6 0.0
-2.69969956292065e6 4.012433147197774e7 0.0
0.0 0.0 0.0

-9.474828881911136e6 6.55625945771437e6 0.0
6.55625945771437e6 4.155242243637926e7 0.0
0.0 0.0 0.0

-2.4728640767878024e6 3.1144282512994345e7 0.0
3.1144282512994345e7 998730.4743982588 0.0
0.0 0.0 0.0

1.7813806916094432e6 1.1993284266157761e7 0.0
1.1993284266157761e7 -2.4440256403632857e7 0.0
0.0 0.0 0.0

-3.235242670890045e6 2.3951273452017594e7 0.0
2.3951273452017594e7 1.1344329949030928e7 0.0
0.0 0.0 0.0

700157.604323416 2.0379493609714925e7 0.0
2.0379493609714925e7 -1.5611409927665528e7 0.0
0.0 0.0 0.0

-6.201466643401831e6 1.8221372951553077e7 0.0
1.8221372951553077e7 1.6199541348326392e7 0.0
0.0 0.0 0.0

-5.162820643560277e6 2.6463017474502154e7 0.0
2.6463017474502154e7 8.699244330591368e6 0.0
0.0 0.0 0.0

9.816385089112706e6 2.597389544732091e7 0.0
2.597389544732091e7 -4.743316842789484e6 0.0
0.0 0.0 0.0

-3.9658400199351385e6 2.213306875666559e7 0.0
2.213306875666559e7 1.6837313138173632e7 0.0
0.0 0.0 0.0

-3.2120812386427457e6 2.312848533374588e7 0.0
2.312848533374588e7 1.2845217208404845e7 0.0
0.0 0.0 0.0

-3.9430660591790285e6 1.864345019397478e7 0.0
1.864345019397478e7 -1.578302768040258e7 0.0
0.0 0.0 0.0

-1.0228470419304544e7 1.4873296688863562e7 0.0
1.4873296688863562e7 2.683390581691836e7 0.0
0.0 0.0 0.0

-2.106909255033092e6 3.1101507666130412e7 0.0
3.1101507666130412e7 2.2092831586163435e6 0.0
0.0 0.0 0.0

3.0018527948553916e6 4.712839279132902e6 0.0
4.712839279132902e6 -2.8536670888783358e7 0.0
0.0 0.0 0.0

-6.5967558249952495e6 3.0668285225622756e6 0.0
3.0668285225622756e6 6.217472612719617e7 0.0
0.0 0.0 0.0

-1.807615923941255e6 2.0780363844142072e7 0.0
2.0780363844142072e7 -9.127107398192884e6 0.0
0.0 0.0 0.0

-2.5313505442569274e6 3.181981143082995e7 0.0
3.181981143082995e7 1.088385569822214e6 0.0
0.0 0.0 0.0

1.1915736622254122e6 1.4098466736542424e7 0.0
1.4098466736542424e7 -2.7718224134547185e7 0.0
0.0 0.0 0.0

428381.57266508206 2.851336591288377e7 0.0
2.851336591288377e7 -4.221005291343395e6 0.0
0.0 0.0 0.0

1.9597515541701084e6 1.0303520989904765e7 0.0
1.0303520989904765e7 -2.448172825151617e7 0.0
0.0 0.0 0.0

-1.022414790455317e7 1.3137381550497798e7 0.0
1.3137381550497798e7 2.9920913191544846e7 0.0
0.0 0.0 0.0

-6.098032446504216e7 4.550054058298036e7 0.0
4.550054058298036e7 1.0484492774200011e7 0.0
0.0 0.0 0.0

-1.4826316992930543e7 2.5890249136201218e7 0.0
2.5890249136201218e7 -663974.8251836593 0.0
0.0 0.0 0.0

-3.608399552878008e6 2.3943121835762993e7 0.0
2.3943121835762993e7 1.239728909728399e7 0.0
0.0 0.0 0.0

-8.288685379894581e6 -5.746215858754865e6 0.0
-5.746215858754865e6 1.950803851012927e7 0.0
0.0 0.0 0.0

-1.770193424844183e7 2.4543152916615266e7 0.0
2.4543152916615266e7 -2.7521233946391707e6 0.0
0.0 0.0 0.0

-6.937741288529685e6 2.705463525261338e7 0.0
2.705463525261338e7 7.488689060600504e6 0.0
0.0 0.0 0.0

2.8959739264891483e6 2.9280748507697447e6 0.0
2.9280748507697447e6 -3.9050158601218455e7 0.0
0.0 0.0 0.0

-6.547345933271817e6 1.6899950606819797e7 0.0
1.6899950606819797e7 1.9252292848826878e7 0.0
0.0 0.0 0.0

-9.444277568674428e6 1.5570539254247164e7 0.0
1.5570539254247164e7 2.3968026831126772e7 0.0
0.0 0.0 0.0

4.776287441290764e6 3.6102003985436104e7 0.0
3.6102003985436104e7 -1.8780696684780687e6 0.0
0.0 0.0 0.0

-1.1327986470781561e7 2.309048996114609e6 0.0
2.309048996114609e6 2.1700817028977875e7 0.0
0.0 0.0 0.0

-9.679722727335824e6 1.5788003559562387e7 0.0
1.5788003559562387e7 2.7673375383737717e7 0.0
0.0 0.0 0.0

-742088.3761666563 3.2502801750700243e7 0.0
3.2502801750700243e7 905105.0585985477 0.0
0.0 0.0 0.0

-7.498866981621038e6 803821.2501294081 0.0
803821.2501294081 5.160678652699338e7 0.0
0.0 0.0 0.0

-8.524903196336199e6 -3.4505942051996617e6 0.0
-3.4505942051996617e6 2.1712561339105967e7 0.0
0.0 0.0 0.0

2.702376708288312e6 7.497597379774926e6 0.0
7.497597379774926e6 -2.707252882107019e7 0.0
0.0 0.0 0.0

-3.0247133271104014e6 2.304943139052948e7 0.0
2.304943139052948e7 9.840330170897804e6 0.0
0.0 0.0 0.0

-8.832641237236083e6 1.537864089676313e7 0.0
1.537864089676313e7 3.063772135487082e7 0.0
0.0 0.0 0.0

273642.5022287108 1.9780089733648654e7 0.0
1.9780089733648654e7 -1.5343354066755192e7 0.0
0.0 0.0 0.0

914052.5702754296 1.8855479824633863e7 0.0
1.8855479824633863e7 -1.6221957654163284e7 0.0
0.0 0.0 0.0

1.7920178611369263e6 1.1685269885449253e7 0.0
1.1685269885449253e7 -2.613490667688944e7 0.0
0.0 0.0 0.0

-18816.08185529895 1.724713332139457e7 0.0
1.724713332139457e7 -2.365861220615898e7 0.0
0.0 0.0 0.0

1.172159276709496e6 2.0121946013466187e7 0.0
2.0121946013466187e7 8.308896488594928e6 0.0
0.0 0.0 0.0

-8.660903203512732e6 1.6465117279681655e7 0.0
1.6465117279681655e7 2.9084686895675115e7 0.0
0.0 0.0 0.0

576729.0367957046 2.7725934639483407e7 0.0
2.7725934639483407e7 -5.147672091857879e6 0.0
0.0 0.0 0.0

-5.465239425873301e6 2.945291908128516e7 0.0
2.945291908128516e7 5.824559328281637e6 0.0
0.0 0.0 0.0

-1.4750697411050277e6 3.150799731578477e7 0.0
3.150799731578477e7 1.567715887166187e6 0.0
0.0 0.0 0.0

1.5721346107728042e7 2.4423844428024746e7 0.0
2.4423844428024746e7 7.440963732396314e7 0.0
0.0 0.0 0.0

-2.5433102406824525e6 2.3464820588256016e7 0.0
2.3464820588256016e7 8.257715388054248e6 0.0
0.0 0.0 0.0

998648.5650739502 1.7943117062605802e7 0.0
1.7943117062605802e7 -1.714567080718918e7 0.0
0.0 0.0 0.0

-782131.9152424131 1.8058795851534512e7 0.0
1.8058795851534512e7 -2.203923332808437e7 0.0
0.0 0.0 0.0

1.0380221364572495e6 1.76734636972092e7 0.0
1.76734636972092e7 -1.873147543206767e7 0.0
0.0 0.0 0.0

1.3811856853044431e6 3.0915038224184714e7 0.0
3.0915038224184714e7 -2.1079191174458526e6 0.0
0.0 0.0 0.0

-3.161594031844127e6 2.2357506871090863e7 0.0
2.2357506871090863e7 7.661316690852724e6 0.0
0.0 0.0 0.0

195158.674042571 1.9268542417884022e7 0.0
1.9268542417884022e7 3.10208428003379e6 0.0
0.0 0.0 0.0

-930749.91035992 1.9192285051594015e7 0.0
1.9192285051594015e7 -1.6896001906480957e7 0.0
0.0 0.0 0.0

-6.37880741257028e6 1.33263070527715e7 0.0
1.33263070527715e7 1.0052693245059036e7 0.0
0.0 0.0 0.0

5.742182792378122e6 4.200219144481284e7 0.0
4.200219144481284e7 -4.990891234109141e6 0.0
0.0 0.0 0.0

1.7474498943478875e6 3.8524232677669246e6 0.0
3.8524232677669246e6 -5.575539896916595e7 0.0
0.0 0.0 0.0

1.0567225965515405e8 4.0566842385604e7 0.0
4.0566842385604e7 2.5642877486522604e7 0.0
0.0 0.0 0.0

4.6188688119780496e7 4.24684349947181e7 0.0
4.24684349947181e7 -1.712830878971386e7 0.0
0.0 0.0 0.0

-919068.8082482526 2.0347565892645128e7 0.0
2.0347565892645128e7 1.901821351748234e7 0.0
0.0 0.0 0.0

1.9435473819073413e6 2.051143067921969e7 0.0
2.051143067921969e7 1.0692685821761254e7 0.0
0.0 0.0 0.0

-2.6611940657500092e7 2.6422768261236448e7 0.0
2.6422768261236448e7 -629429.6098027946 0.0
0.0 0.0 0.0

-6.293332899880406e7 3.120669721480682e7 0.0
3.120669721480682e7 -428596.21067044884 0.0
0.0 0.0 0.0

-7.0991306682994915e6 1.343717245446386e7 0.0
1.343717245446386e7 1.5644317401897253e7 0.0
0.0 0.0 0.0

-477161.22913627455 2.7200561287492372e7 0.0
2.7200561287492372e7 -2.1221590217796196e6 0.0
0.0 0.0 0.0

1.1006217455746215e6 1.6740250016246252e7 0.0
1.6740250016246252e7 -1.9595386903254062e7 0.0
0.0 0.0 0.0

1.4776575670924932e6 7.784479730808826e6 0.0
7.784479730808826e6 -5.053777775572257e7 0.0
0.0 0.0 0.0

608480.0025731158 1.6962025047686186e7 0.0
1.6962025047686186e7 -1.9942113221884493e7 0.0
0.0 0.0 0.0

-2.7131912473690063e6 1.511489790305716e7 0.0
1.511489790305716e7 -3.9012900746203065e7 0.0
0.0 0.0 0.0

-9.95147907038937e6 1.5689595396006355e7 0.0
1.5689595396006355e7 2.1980241326683156e7 0.0
0.0 0.0 0.0

1.106481680111887e6 1.938399118005572e7 0.0
1.938399118005572e7 2.656582248816046e7 0.0
0.0 0.0 0.0

758510.1617902445 1.8804922986375585e7 0.0
1.8804922986375585e7 7.737687450430137e6 0.0
0.0 0.0 0.0

-1.1903045944231473e7 8.550083198689722e6 0.0
8.550083198689722e6 5.743995370302203e6 0.0
0.0 0.0 0.0

-9.524313382310273e6 5.113235396150721e6 0.0
5.113235396150721e6 4.091719900968665e7 0.0
0.0 0.0 0.0

-3.019990365761789e6 2.6947624802744985e7 0.0
2.6947624802744985e7 6.227611160806239e6 0.0
0.0 0.0 0.0

16353.579490434378 1.9817152395927306e7 0.0
1.9817152395927306e7 2.8879367647546314e7 0.0
0.0 0.0 0.0

-4.674745984663649e6 1.8593933795698058e7 0.0
1.8593933795698058e7 1.6765083767900117e7 0.0
0.0 0.0 0.0

-6.819963218456879e6 2.3666940127753066e6 0.0
2.3666940127753066e6 7.071421426045786e6 0.0
0.0 0.0 0.0

-3.6361365979312584e6 1.2745675346098125e7 0.0
1.2745675346098125e7 6.533177520846484e7 0.0
0.0 0.0 0.0

-2.319141432390245e6 2.1636118939458534e7 0.0
2.1636118939458534e7 2.33975941137966e6 0.0
0.0 0.0 0.0

696391.1500848087 2.693750507994006e7 0.0
2.693750507994006e7 -6.089842802307118e6 0.0
0.0 0.0 0.0

112165.67008171044 1.9270509798405062e7 0.0
1.9270509798405062e7 2.9874131189900257e7 0.0
0.0 0.0 0.0

-5.760521747771239e6 1.3190900237945817e7 0.0
1.3190900237945817e7 1.2897105898155898e7 0.0
0.0 0.0 0.0

7.275425316317927e6 2.6755599494454514e7 0.0
2.6755599494454514e7 -5.755446479022356e6 0.0
0.0 0.0 0.0

-4.737576234229192e6 4.98562665661584e6 0.0
4.98562665661584e6 7.055354358428863e7 0.0
0.0 0.0 0.0

7.254316448839947e6 2.4635190039868537e7 0.0
2.4635190039868537e7 -5.291773145296631e6 0.0
0.0 0.0 0.0

-2.1504080432925466e6 3.1728127127840668e7 0.0
3.1728127127840668e7 2.353996147019201e6 0.0
0.0 0.0 0.0

-5.482178294779932e6 1.69842412084396e7 0.0
1.69842412084396e7 -2.355401788746914e7 0.0
0.0 0.0 0.0

-3.7204371983210323e6 2.1471021086671475e7 0.0
2.1471021086671475e7 1.7845734646296572e7 0.0
0.0 0.0 0.0

-9.847979435358515e6 1.3506755358143756e7 0.0
1.3506755358143756e7 3.1584622376145933e7 0.0
0.0 0.0 0.0

4.084337467433867e6 3.038970198476778e7 0.0
3.038970198476778e7 -4.1870312414624467e6 0.0
0.0 0.0 0.0

2.837731946056403e6 5.542384478510668e6 0.0
5.542384478510668e6 -1.0618825564317968e7 0.0
0.0 0.0 0.0

-154212.1030570434 3.9264834718516655e7 0.0
3.9264834718516655e7 -1.6274808016154212e6 0.0
0.0 0.0 0.0

4.423777235799815e6 2.216825875256422e7 0.0
2.216825875256422e7 8.038303755543258e6 0.0
0.0 0.0 0.0

-812389.1591464749 2.4943672932456046e7 0.0
2.4943672932456046e7 -3.939670703292482e6 0.0
0.0 0.0 0.0

2.375704959208155e6 5.4175826594721675e6 0.0
5.4175826594721675e6 -3.85960863079258e7 0.0
0.0 0.0 0.0

-2.573360230560644e6 2.15712847439297e7 0.0
2.15712847439297e7 -1.0583934828308286e7 0.0
0.0 0.0 0.0

7.37178667974399e6 2.2856008635344427e7 0.0
2.2856008635344427e7 1.3393064076052273e7 0.0
0.0 0.0 0.0

-1.4324708922200112e6 2.9583183968740575e7 0.0
2.9583183968740575e7 1.2933042221569316e6 0.0
0.0 0.0 0.0

4.366618614009547e6 1.9862414671743155e7 0.0
1.9862414671743155e7 3.0207306117383886e7 0.0
0.0 0.0 0.0

-4.421116288718017e6 1.2709266177924424e6 0.0
1.2709266177924424e6 8.73191544739778e6 0.0
0.0 0.0 0.0

-1.0671730332846977e6 1.8629064678002246e7 0.0
1.8629064678002246e7 3.526011975823206e7 0.0
0.0 0.0 0.0

-7.641540219982149e6 2.4932073119500116e7 0.0
2.4932073119500116e7 4.64583391581489e6 0.0
0.0 0.0 0.0

7.772888948117223e6 2.548414892540926e7 0.0
2.548414892540926e7 -5.275573570080388e6 0.0
0.0 0.0 0.0

2.9916459562216513e6 2.404704602722783e7 0.0
2.404704602722783e7 -8.591003099126043e6 0.0
0.0 0.0 0.0

7.890260077820545e6 3.2015777476355817e7 0.0
3.2015777476355817e7 -4.8246059019436445e6 0.0
0.0 0.0 0.0

715335.901682887 1.7712301381868824e7 0.0
1.7712301381868824e7 5.614368180974072e6 0.0
0.0 0.0 0.0

-4.0262281000292725e6 2.475733464136642e7 0.0
2.475733464136642e7 1.1266639891251858e7 0.0
0.0 0.0 0.0

4.1377655025186976e6 3.3067382516624548e7 0.0
3.3067382516624548e7 -4.090975650890046e6 0.0
0.0 0.0 0.0

-8.354859837920171e6 1.7240900831210654e7 0.0
1.7240900831210654e7 -4.939998566229621e7 0.0
0.0 0.0 0.0

-8.77791109179876e6 1.107590524134217e7 0.0
1.107590524134217e7 1.3333988924140826e7 0.0
0.0 0.0 0.0

1.0913906577117867e6 1.9693674644135393e7 0.0
1.9693674644135393e7 9.436103065454567e6 0.0
0.0 0.0 0.0

4.277740386671866e6 3.1240041223759934e7 0.0
3.1240041223759934e7 -4.81567790349551e6 0.0
0.0 0.0 0.0

-1.2788200388138834e6 1.9644640736929342e7 0.0
1.9644640736929342e7 -1.7500895910931215e7 0.0
0.0 0.0 0.0

3.626613704180969e6 3.3915756779164188e6 0.0
3.3915756779164188e6 -2.7056794540523108e7 0.0
0.0 0.0 0.0

-6.149002278193213e6 -9363.73500105302 0.0
-9363.73500105302 6.538212225883353e7 0.0
0.0 0.0 0.0

850410.1722534336 1.4175267738201551e7 0.0
1.4175267738201551e7 -2.9550736933828503e7 0.0
0.0 0.0 0.0

2.40658553500612e6 2.1276838865923967e7 0.0
2.1276838865923967e7 1.2048073441961547e7 0.0
0.0 0.0 0.0

-8.57980041234802e6 1.6324846471655576e7 0.0
1.6324846471655576e7 2.29384616620469e7 0.0
0.0 0.0 0.0

8.762528186465602e6 2.5073295995018214e7 0.0
2.5073295995018214e7 -4.618908373973074e6 0.0
0.0 0.0 0.0

2.7867893210907895e6 5.949785052636698e6 0.0
5.949785052636698e6 -2.2799796926465973e7 0.0
0.0 0.0 0.0

3.7749205324989455e6 2.189381641407329e7 0.0
2.189381641407329e7 -2.5603818533182894e6 0.0
0.0 0.0 0.0

7.801449710600192e6 2.371371381030611e7 0.0
2.371371381030611e7 1.2894363689597009e7 0.0
0.0 0.0 0.0

1.1500070606953017e7 4.109390649032023e7 0.0
4.109390649032023e7 -7.355902092181459e6 0.0
0.0 0.0 0.0

2.9026677059031897e6 2.3735077234750133e7 0.0
2.3735077234750133e7 -8.68512281489931e6 0.0
0.0 0.0 0.0

2.405143534372749e6 1.8510177430705704e7 0.0
1.8510177430705704e7 4.6955939633681364e7 0.0
0.0 0.0 0.0

3.3821851423017085e6 1.7685253468640496e6 0.0
1.7685253468640496e6 -3.48753154033477e7 0.0
0.0 0.0 0.0

822873.6575288682 3.2185015117785107e7 0.0
3.2185015117785107e7 -2.4045265033190097e6 0.0
0.0 0.0 0.0

5.556249287088673e6 2.0890222894652925e7 0.0
2.0890222894652925e7 4.374093152351901e6 0.0
0.0 0.0 0.0

-6.931645951665068e7 1.9976792460473385e7 0.0
1.9976792460473385e7 3.28109152577623e6 0.0
0.0 0.0 0.0

-6.344577656711288e6 2.688910627223703e7 0.0
2.688910627223703e7 8.131381360973928e6 0.0
0.0 0.0 0.0

-7.880980690863856e6 1.0172500746494014e7 0.0
1.0172500746494014e7 1.4875160343846077e7 0.0
0.0 0.0 0.0

-230584.7054816978 1.7257426435327243e7 0.0
1.7257426435327243e7 -2.539885967999567e7 0.0
0.0 0.0 0.0

-1.854687586560443e6 2.0722827182506513e7 0.0
2.0722827182506513e7 1.6250979442641327e7 0.0
0.0 0.0 0.0

-3.4159962991407122e6 1.7054776163346555e7 0.0
1.7054776163346555e7 -3.4273436150759436e7 0.0
0.0 0.0 0.0

2.910044058730861e6 2.673593300561903e6 0.0
2.673593300561903e6 -4.5556425510376774e7 0.0
0.0 0.0 0.0

5.770322451256766e7 2.0010244669427037e7 0.0
2.0010244669427037e7 4.4913559313497655e6 0.0
0.0 0.0 0.0

-1.259726326897687e8 4.844423920487164e7 0.0
4.844423920487164e7 -1.9372669365354396e7 0.0
0.0 0.0 0.0

1.4291734621859133e7 2.160576620744861e7 0.0
2.160576620744861e7 8.155696005363438e6 0.0
0.0 0.0 0.0

650648.628094859 2.436961820462349e7 0.0
2.436961820462349e7 -9.097829816233663e6 0.0
0.0 0.0 0.0

-3.384654693615523e6 2.2508286094787158e7 0.0
2.2508286094787158e7 1.4615546426681232e7 0.0
0.0 0.0 0.0

3.41694419497112e6 3.392524573284415e6 0.0
3.392524573284415e6 -2.6515652189578675e7 0.0
0.0 0.0 0.0

-7.535027504277021e6 2.503376350671821e7 0.0
2.503376350671821e7 6.610951847097628e6 0.0
0.0 0.0 0.0

2.9423652355604665e6 3.3078750515842535e7 0.0
3.3078750515842535e7 -1.9937966880283768e6 0.0
0.0 0.0 0.0

-3.445284197926282e6 1.823626862603536e7 0.0
1.823626862603536e7 -2.6267804100340564e7 0.0
0.0 0.0 0.0

-1.1828359107154112e6 2.4607770192352142e7 0.0
2.4607770192352142e7 -5.356898674437934e6 0.0
0.0 0.0 0.0

2.0234038774034157e6 5.545278144541816e6 0.0
5.545278144541816e6 -6.944714171684007e6 0.0
0.0 0.0 0.0

1.1064049215050865e7 2.3313353855291322e7 0.0
2.3313353855291322e7 1.2810907874501215e7 0.0
0.0 0.0 0.0

-1.1963340057237e7 2.383382297742547e7 0.0
2.383382297742547e7 -2.4042831296545165e6 0.0
0.0 0.0 0.0

662485.1990716141 1.9966398676921204e7 0.0
1.9966398676921204e7 -1.392376880261835e7 0.0
0.0 0.0 0.0

-2.497478486914839e6 2.5355132686646268e7 0.0
2.5355132686646268e7 1.0086691648213597e6 0.0
0.0 0.0 0.0

708461.4522694573 1.4327521959256941e7 0.0
1.4327521959256941e7 -2.806671820567991e7 0.0
0.0 0.0 0.0

-7.417812783518817e6 973439.4038996835 0.0
973439.4038996835 5.282862212769898e7 0.0
0.0 0.0 0.0

497336.4936456727 1.7528950965966724e7 0.0
1.7528950965966724e7 -1.8642852471764144e7 0.0
0.0 0.0 0.0

4.096841147994133e6 2.080903029305706e7 0.0
2.080903029305706e7 40836.483862372814 0.0
0.0 0.0 0.0

-1.563784014578238e7 2.075966085299037e7 0.0
2.075966085299037e7 -6.321835061724803e7 0.0
0.0 0.0 0.0

3.2241357716046087e6 6.708014469556863e6 0.0
6.708014469556863e6 -2.6325079878339715e7 0.0
0.0 0.0 0.0

731480.8570622373 1.9166736976406515e7 0.0
1.9166736976406515e7 -1.8120598821673036e7 0.0
0.0 0.0 0.0

-4.826357460123434e6 2.6054955051056914e7 0.0
2.6054955051056914e7 9.353903710050251e6 0.0
0.0 0.0 0.0

-768624.0043250762 2.888563920418677e7 0.0
2.888563920418677e7 -2.259677377079041e6 0.0
0.0 0.0 0.0

-2.921373313758344e6 2.3666629408482507e7 0.0
2.3666629408482507e7 1.0910634254962295e7 0.0
0.0 0.0 0.0

5.900666010458617e6 2.1714697209245767e7 0.0
2.1714697209245767e7 8.755750419954091e6 0.0
0.0 0.0 0.0

-8.64251235492305e7 2.6499811495506547e7 0.0
2.6499811495506547e7 -355425.1817863174 0.0
0.0 0.0 0.0

-687788.6457290956 1.2653024085251978e6 0.0
1.2653024085251978e6 -143067.79996084457 0.0
0.0 0.0 0.0

-1.3870809335102295e6 1.7936100589472614e7 0.0
1.7936100589472614e7 -1.9624832204308084e6 0.0
0.0 0.0 0.0

1.3239694783112563e7 2.151124108986345e7 0.0
2.151124108986345e7 3.344775433288096e6 0.0
0.0 0.0 0.0

-808549.1488969452 3.473064216257996e7 0.0
3.473064216257996e7 1.1888545203549191e6 0.0
0.0 0.0 0.0

-2.8063853175193258e6 1.5374963279170962e7 0.0
1.5374963279170962e7 -4.180977579883604e7 0.0
0.0 0.0 0.0

-2.9843641842735577e6 2.1553436554010756e7 0.0
2.1553436554010756e7 -7.795063764806931e6 0.0
0.0 0.0 0.0

3.791858941569348e6 2.5074130854291275e7 0.0
2.5074130854291275e7 -7.518976279291952e6 0.0
0.0 0.0 0.0

1.0433713032105751e6 1.601353620444578e7 0.0
1.601353620444578e7 -1.6117514873441022e7 0.0
0.0 0.0 0.0

3.7097890298040337e6 2.4297426338324968e7 0.0
2.4297426338324968e7 -7.415464022224658e6 0.0
0.0 0.0 0.0

521475.8212057762 2.008382551825772e7 0.0
2.008382551825772e7 9.727628194899498e6 0.0
0.0 0.0 0.0

-103105.34428015992 2.8598393251808323e7 0.0
2.8598393251808323e7 -1.79883571652479e6 0.0
0.0 0.0 0.0

2.568063726913305e6 9.804871561075723e6 0.0
9.804871561075723e6 -2.561037847913241e7 0.0
0.0 0.0 0.0

2.8765180493324585e6 2.916793715705783e6 0.0
2.916793715705783e6 -3.954215977904673e7 0.0
0.0 0.0 0.0

-1.624132371267788e6 815590.7251020444 0.0
815590.7251020444 -701461.2854588309 0.0
0.0 0.0 0.0

-9.852763567334078e6 463595.50938305084 0.0
463595.50938305084 2.6103412530059144e6 0.0
0.0 0.0 0.0

3.4908728757942263e6 2.145604464618623e7 0.0
2.145604464618623e7 1.470953767533431e7 0.0
0.0 0.0 0.0

2.2958329975296594e6 1.878502866206557e7 0.0
1.878502866206557e7 1.258013507464216e7 0.0
0.0 0.0 0.0

156934.69214875717 1.9897012068565186e7 0.0
1.9897012068565186e7 9.751411723627843e6 0.0
0.0 0.0 0.0

2.7799912659685668e6 5.171410554494109e6 0.0
5.171410554494109e6 -1.7072120221263498e7 0.0
0.0 0.0 0.0

3.6650370774625344e6 2.3134381717179473e7 0.0
2.3134381717179473e7 -6.934155808885327e6 0.0
0.0 0.0 0.0

2.304553760277236e6 4.2937221604564665e6 0.0
4.2937221604564665e6 -8.223112563976575e6 0.0
0.0 0.0 0.0

3.160428553220712e6 2.4353513738971695e7 0.0
2.4353513738971695e7 -8.130888750231502e6 0.0
0.0 0.0 0.0

-7.74186235627632e6 1.706553650528371e7 0.0
1.706553650528371e7 2.985290102616375e7 0.0
0.0 0.0 0.0

1.246084389403595e6 2.7492200767826464e7 0.0
2.7492200767826464e7 -4.791257889955577e6 0.0
0.0 0.0 0.0

4.911720260309001e6 3.198383591575747e7 0.0
3.198383591575747e7 -3.4007375074972855e6 0.0
0.0 0.0 0.0

2.585623783614261e6 7.410938761965761e6 0.0
7.410938761965761e6 -2.7392131556731574e7 0.0
0.0 0.0 0.0

2.716253319643464e6 6.0495047594744265e6 0.0
6.0495047594744265e6 -2.8007179287921865e7 0.0
0.0 0.0 0.0

1.605277375090283e7 2.3232895226712838e7 0.0
2.3232895226712838e7 601004.2798489658 0.0
0.0 0.0 0.0

1.1468573017742578e6 2.0064008792304683e7 0.0
2.0064008792304683e7 2.594647397225077e7 0.0
0.0 0.0 0.0

322406.2149209725 1.8139574236645695e7 0.0
1.8139574236645695e7 -1.743991598997563e7 0.0
0.0 0.0 0.0

-7.740503691975791e6 -2.4983742085445765e6 0.0
-2.4983742085445765e6 4.137946095303964e7 0.0
0.0 0.0 0.0

-838110.5496101223 3.319162662829678e7 0.0
3.319162662829678e7 905937.4879691051 0.0
0.0 0.0 0.0

-9.339189265177257e6 1.5913216209568556e7 0.0
1.5913216209568556e7 2.7826500324065417e7 0.0
0.0 0.0 0.0

-8.669890073910018e6 -3.408452466515927e6 0.0
-3.408452466515927e6 1.7453426989431966e7 0.0
0.0 0.0 0.0

-121555.02131957375 1.7942205606942486e7 0.0
1.7942205606942486e7 -1.0658704982594142e7 0.0
0.0 0.0 0.0

3.042324224918656e6 3.0011663890003394e6 0.0
3.0011663890003394e6 -3.807686586789888e7 0.0
0.0 0.0 0.0

-4.675072028811998e6 2.996252394219021e7 0.0
2.996252394219021e7 5.522426122136663e6 0.0
0.0 0.0 0.0

-577527.9152553453 2.433506165024333e7 0.0
2.433506165024333e7 -4.968668794638314e6 0.0
0.0 0.0 0.0

731317.0858152937 1.3814567047455145e7 0.0
1.3814567047455145e7 -2.968888070743729e7 0.0
0.0 0.0 0.0

1.6959093291560926e7 2.0989023521615047e7 0.0
2.0989023521615047e7 6.136154838435307e6 0.0
0.0 0.0 0.0

-5.387066358939571e6 2.888156789970359e7 0.0
2.888156789970359e7 6.566130380446874e6 0.0
0.0 0.0 0.0

-8.693315519859092e6 -1.2428041749601865e6 0.0
-1.2428041749601865e6 3.943501274978126e7 0.0
0.0 0.0 0.0

-8.684094304230697e6 -3.7471868870876613e6 0.0
-3.7471868870876613e6 3.0370285452647664e7 0.0
0.0 0.0 0.0

5.569129890104338e6 2.118542231729627e7 0.0
2.118542231729627e7 518985.79656273266 0.0
0.0 0.0 0.0

945769.938364774 2.4192562721774362e7 0.0
2.4192562721774362e7 -8.831263731570266e6 0.0
0.0 0.0 0.0

1.3360046893646722e6 2.4810488968196638e7 0.0
2.4810488968196638e7 -8.366788369485477e6 0.0
0.0 0.0 0.0

-5.685528852227978e6 7.0531706215648735e6 0.0
7.0531706215648735e6 5.848813043244986e7 0.0
0.0 0.0 0.0

3.4463924724188168e6 2.7088893487542663e6 0.0
2.7088893487542663e6 -1.2775094128933368e7 0.0
0.0 0.0 0.0

-8.632318682571985e6 2.3777581171426352e7 0.0
2.3777581171426352e7 -2.5666907194525157e6 0.0
0.0 0.0 0.0

-1.470632973795459e7 2.4151901251969337e7 0.0
2.4151901251969337e7 -8.429841681866825e6 0.0
0.0 0.0 0.0

-3.1291794652790498e7 2.9359271742876414e7 0.0
2.9359271742876414e7 -4.568483546251903e6 0.0
0.0 0.0 0.0

1.1866906896092382e6 3.363414080660309e7 0.0
3.363414080660309e7 -594148.0537077199 0.0
0.0 0.0 0.0

628431.3226065073 1.8287180155408196e7 0.0
1.8287180155408196e7 938215.322449681 0.0
0.0 0.0 0.0

-8.304267561685318e6 -613426.3548937001 0.0
-613426.3548937001 4.176379315650578e7 0.0
0.0 0.0 0.0

1.3537477842040254e7 2.2912189801304948e7 0.0
2.2912189801304948e7 599715.5874071843 0.0
0.0 0.0 0.0

97183.80041062087 1.983462928608407e7 0.0
1.983462928608407e7 -1.1305821554348292e7 0.0
0.0 0.0 0.0

-9.243119060501378e6 -292455.2578896404 0.0
-292455.2578896404 3.2412095962856267e7 0.0
0.0 0.0 0.0

-3.5959540848605055e6 2.4170481421661258e7 0.0
2.4170481421661258e7 9.755712553401487e6 0.0
0.0 0.0 0.0

-3.7530000790907885e6 2.5633840081100635e7 0.0
2.5633840081100635e7 8.615668837813366e6 0.0
0.0 0.0 0.0

-5.649331972783722e6 334367.63074669626 0.0
334367.63074669626 6.583876137753092e6 0.0
0.0 0.0 0.0

2.8691460999762025e6 5.185429855376152e6 0.0
5.185429855376152e6 -2.915730086030779e7 0.0
0.0 0.0 0.0

106029.40872297436 8.649272024767358e6 0.0
8.649272024767358e6 -5.174534103441149e7 0.0
0.0 0.0 0.0

7.845174508145008e6 2.313079576867461e7 0.0
2.313079576867461e7 1.3264407645062262e7 0.0
0.0 0.0 0.0

2.6988830830348884e6 4.413579078350294e6 0.0
4.413579078350294e6 -1.140863900695319e7 0.0
0.0 0.0 0.0

2.140538302831072e7 3.1337578710256133e7 0.0
3.1337578710256133e7 -7.5313091604793e6 0.0
0.0 0.0 0.0

3.605589367053179e6 4.446533430709023e6 0.0
4.446533430709023e6 -2.7829161966481578e7 0.0
0.0 0.0 0.0

3.634247606119439e6 5.011309173818769e6 0.0
5.011309173818769e6 -1.9029764786755446e7 0.0
0.0 0.0 0.0

3.154052209177099e6 4.767345633091664e6 0.0
4.767345633091664e6 -2.4592575219241787e7 0.0
0.0 0.0 0.0

934748.0331298492 1.9333474742874134e7 0.0
1.9333474742874134e7 2.817471212081826e6 0.0
0.0 0.0 0.0

1.5495843998979745e6 1.8784931835123006e7 0.0
1.8784931835123006e7 9.54325824901803e6 0.0
0.0 0.0 0.0

40977.34800101817 1.6211478798798101e7 0.0
1.6211478798798101e7 -2.680951250493398e7 0.0
0.0 0.0 0.0

2.0299064426430844e7 3.239470923448827e7 0.0
3.239470923448827e7 -6.181019850933831e6 0.0
0.0 0.0 0.0

-9.062131809506217e6 -1.6972094027741235e6 0.0
-1.6972094027741235e6 3.228242023269082e7 0.0
0.0 0.0 0.0

-3.533289210360125e6 2.437221843431931e7 0.0
2.437221843431931e7 1.1445242200882204e7 0.0
0.0 0.0 0.0

-1.9639353848303736e6 3.2846159681275114e7 0.0
3.2846159681275114e7 389028.06945624994 0.0
0.0 0.0 0.0

806562.3289200189 2.7607737213380422e7 0.0
2.7607737213380422e7 -4.096457871351471e6 0.0
0.0 0.0 0.0

-8.496788763502933e6 -3.1343654628167828e6 0.0
-3.1343654628167828e6 2.322016265536011e7 0.0
0.0 0.0 0.0

-9.895650177859847e6 -989429.9531406497 0.0
-989429.9531406497 1.6377220720838927e7 0.0
0.0 0.0 0.0

2.482467478928265e6 2.013346867843197e7 0.0
2.013346867843197e7 2.480966550582221e7 0.0
0.0 0.0 0.0

-2.435881521317631e6 -504624.1670344263 0.0
-504624.1670344263 2.8110611107516084e6 0.0
0.0 0.0 0.0

7.52866420865055e6 2.5483441307244644e7 0.0
2.5483441307244644e7 -5.312515593731541e6 0.0
0.0 0.0 0.0

543781.8640425685 2.2999281214197405e7 0.0
2.2999281214197405e7 -1.0698636299023055e7 0.0
0.0 0.0 0.0

397143.61251116265 1.9033549748468097e7 0.0
1.9033549748468097e7 -1.922610571515035e7 0.0
0.0 0.0 0.0

-1.8857834457662345e6 2.345921955470319e7 0.0
2.345921955470319e7 620567.5506105947 0.0
0.0 0.0 0.0

-3.6267794550977577e6 2.3346514525282633e7 0.0
2.3346514525282633e7 1.0383769479421463e7 0.0
0.0 0.0 0.0

-9.222400959237557e6 1.6067136265541803e7 0.0
1.6067136265541803e7 2.45162239142048e7 0.0
0.0 0.0 0.0

-2.0675496628569003e7 4.1729731999019586e7 0.0
4.1729731999019586e7 6.149970714698963e6 0.0
0.0 0.0 0.0

2.9266016413714057e6 4.336653728863593e6 0.0
4.336653728863593e6 -1.163888657356938e7 0.0
0.0 0.0 0.0

850949.6193541512 1.8525822825955346e7 0.0
1.8525822825955346e7 -1.5965250325713558e7 0.0
0.0 0.0 0.0

1.968080183868695e6 3.978430525398886e6 0.0
3.978430525398886e6 -5.5536837014768355e7 0.0
0.0 0.0 0.0

3.4734467470919783e6 2.4815543556005508e7 0.0
2.4815543556005508e7 -7.944510736055506e6 0.0
0.0 0.0 0.0

-7.3206320278730625e6 1.3231582835203743e7 0.0
1.3231582835203743e7 1.3824758257477641e7 0.0
0.0 0.0 0.0

-8.857747212669449e6 1.696395260941377e7 0.0
1.696395260941377e7 -3.566766152162185e7 0.0
0.0 0.0 0.0

3.365614919618904e7 2.187759430842713e7 0.0
2.187759430842713e7 7.064667526474955e6 0.0
0.0 0.0 0.0

-9.81070056383582e6 2.4920846396350833e6 0.0
2.4920846396350833e6 1.855502006402553e7 0.0
0.0 0.0 0.0

1.087301796320298e7 2.18056867758848e7 0.0
2.18056867758848e7 9.828512962072771e6 0.0
0.0 0.0 0.0

6.3836216457437305e6 1.727802990708498e7 0.0
1.727802990708498e7 2.568710911247752e7 0.0
0.0 0.0 0.0

-7.0292336337579e6 1.711730796388895e7 0.0
1.711730796388895e7 -2.232434699748294e7 0.0
0.0 0.0 0.0

4.1031670510294093e6 3.531714435848308e7 0.0
3.531714435848308e7 -3.7258768038754035e6 0.0
0.0 0.0 0.0

-543787.5301339095 2.4411196697472904e7 0.0
2.4411196697472904e7 -7.492281780854666e6 0.0
0.0 0.0 0.0

-5.659436882768698e6 1.8382486183424596e7 0.0
1.8382486183424596e7 1.9235710806652598e7 0.0
0.0 0.0 0.0

-1.0859355026151463e6 8.620604256355036e6 0.0
8.620604256355036e6 -7.310252504974668e7 0.0
0.0 0.0 0.0

-1.0293874622119702e7 393422.2183235794 0.0
393422.2183235794 1.5813126805421183e7 0.0
0.0 0.0 0.0

-1.3656493479818583e6 1.9591392657529913e7 0.0
1.9591392657529913e7 -8.347793281520908e6 0.0
0.0 0.0 0.0

9.93412775783669e6 2.25111016544339e7 0.0
2.25111016544339e7 1.1027354788364803e7 0.0
0.0 0.0 0.0

1.8022580503743049e6 1.4144316066402422e7 0.0
1.4144316066402422e7 6.6515260586094465e6 0.0
0.0 0.0 0.0

-3.796090518122214e6 2.2559512446785845e7 0.0
2.2559512446785845e7 1.5348280905610655e7 0.0
0.0 0.0 0.0

-2.952828702881638e6 2.7526885095487226e7 0.0
2.7526885095487226e7 5.284252125498557e6 0.0
0.0 0.0 0.0

-1.7847817932788532e7 4.260946443477864e7 0.0
4.260946443477864e7 7.457819779853272e6 0.0
0.0 0.0 0.0

1.0248980348442667e6 8.136602192134099e6 0.0
8.136602192134099e6 -6.562547392879024e6 0.0
0.0 0.0 0.0

-3.4684185308222827e6 2.7214988099531177e7 0.0
2.7214988099531177e7 4.823503473119843e6 0.0
0.0 0.0 0.0

-476321.05460475106 2.33380801288691e7 0.0
2.33380801288691e7 -7.460936819653988e6 0.0
0.0 0.0 0.0

1.5556095043865124e7 2.2742536159093708e7 0.0
2.2742536159093708e7 1.1513864277177908e7 0.0
0.0 0.0 0.0

-52976.86013083137 2.6528702308693327e7 0.0
2.6528702308693327e7 -5.676745741152123e6 0.0
0.0 0.0 0.0

2.24815107808429e6 4.388046455047142e6 0.0
4.388046455047142e6 -9.199273238126682e6 0.0
0.0 0.0 0.0

212775.19949660636 2.0190078748155624e7 0.0
2.0190078748155624e7 -1.428881014506334e7 0.0
0.0 0.0 0.0

-1.04069434442001e7 2.3067020678885966e6 0.0
2.3067020678885966e6 2.490777814076259e7 0.0
0.0 0.0 0.0

3.4085451756838746e6 5.910363776992233e6 0.0
5.910363776992233e6 -2.7291184641203005e7 0.0
0.0 0.0 0.0

1.7987170037893504e6 4.817017388654861e6 0.0
4.817017388654861e6 -6.0198644564523205e7 0.0
0.0 0.0 0.0

3.0736837658381145e6 2.238647556642585e7 0.0
2.238647556642585e7 1.3010746306357121e7 0.0
0.0 0.0 0.0

628276.7003138745 2.009089893178049e7 0.0
2.009089893178049e7 -1.676639942437345e7 0.0
0.0 0.0 0.0

-6.161699845709865e6 1.8658337789035846e7 0.0
1.8658337789035846e7 1.7163035930318363e7 0.0
0.0 0.0 0.0

3.7733161582297804e6 2.1926197905832585e6 0.0
2.1926197905832585e6 -2.3408777101546522e7 0.0
0.0 0.0 0.0

1.2981824564090362e6 1.6226601348594278e7 0.0
1.6226601348594278e7 -2.071773085535155e7 0.0
0.0 0.0 0.0

-104806.04705750849 1.8338509515861712e7 0.0
1.8338509515861712e7 -2.0368360047510795e7 0.0
0.0 0.0 0.0

-5.429813974931375e6 1.96411512533704e7 0.0
1.96411512533704e7 1.6334837102957448e7 0.0
0.0 0.0 0.0

-744547.1483266202 9.089582803672696e6 0.0
9.089582803672696e6 4.301324450255496e6 0.0
0.0 0.0 0.0

-9.48682763284689e6 -1.166660160151532e6 0.0
-1.166660160151532e6 2.671919334933668e7 0.0
0.0 0.0 0.0

206203.8183601452 1.933883628308153e7 0.0
1.933883628308153e7 -1.756422419108857e7 0.0
0.0 0.0 0.0

-7.061870176708353e6 1.195869997347176e7 0.0
1.195869997347176e7 1.4809870332087789e7 0.0
0.0 0.0 0.0

1.4344804310678324e7 2.0887175909189038e7 0.0
2.0887175909189038e7 1.0535997037734669e7 0.0
0.0 0.0 0.0

627798.6260607457 2.364298735789576e7 0.0
2.364298735789576e7 -1.0028175264491566e7 0.0
0.0 0.0 0.0

2.421598445047278e6 4.371022466868985e6 0.0
4.371022466868985e6 -8.028909632559558e6 0.0
0.0 0.0 0.0

-8.606728843866542e6 6.287731806573926e6 0.0
6.287731806573926e6 4.224115643572575e7 0.0
0.0 0.0 0.0

-2.1674142502277475e6 2.9887201764476996e7 0.0
2.9887201764476996e7 808121.6632917232 0.0
0.0 0.0 0.0

-9.47266613521783e6 3.1477011270229515e7 0.0
3.1477011270229515e7 5.549096287811387e6 0.0
0.0 0.0 0.0

-1.149777864955378e7 3.652775450999709e6 0.0
3.652775450999709e6 1.6292048787306525e7 0.0
0.0 0.0 0.0

-9.530920564132709e6 1.5135186984917386e6 0.0
1.5135186984917386e6 3.396714684069339e7 0.0
0.0 0.0 0.0

333923.12726002187 1.4453264454992635e7 0.0
1.4453264454992635e7 -2.993761004240273e7 0.0
0.0 0.0 0.0

-4.265005341126481e6 2.0196049216061883e7 0.0
2.0196049216061883e7 1.694461465775148e7 0.0
0.0 0.0 0.0

-8.737878750643756e6 7.57009322377113e6 0.0
7.57009322377113e6 4.277457435039486e7 0.0
0.0 0.0 0.0

-6.639919711790513e7 2.082119068070926e7 0.0
2.082119068070926e7 4.605878274513993e6 0.0
0.0 0.0 0.0

1.0418036086781602e6 1.3517394809482932e7 0.0
1.3517394809482932e7 -1.850570645381045e7 0.0
0.0 0.0 0.0

924630.4823092693 1.9263578197951987e7 0.0
1.9263578197951987e7 421913.5217872592 0.0
0.0 0.0 0.0

3.241173826298861e6 1.688986128404852e6 0.0
1.688986128404852e6 -3.721793895416696e7 0.0
0.0 0.0 0.0

4.0340630526055954e6 1.994670764763764e7 0.0
1.994670764763764e7 1.5407253365977885e7 0.0
0.0 0.0 0.0

-9.73031893442402e6 7.79314602002039e6 0.0
7.79314602002039e6 3.948611253197233e7 0.0
0.0 0.0 0.0

1.0865033487016214e6 6.891426832648341e6 0.0
6.891426832648341e6 -8.500260236453017e6 0.0
0.0 0.0 0.0

-397584.30383330537 2.3382426379885934e7 0.0
2.3382426379885934e7 -7.454448287901966e6 0.0
0.0 0.0 0.0

-2.2857597738721627e6 2.6490596601055555e7 0.0
2.6490596601055555e7 394348.65953692084 0.0
0.0 0.0 0.0

-2.919929597697381e6 2.2452394297747493e7 0.0
2.2452394297747493e7 1.022155130462896e7 0.0
0.0 0.0 0.0

-6.573295785062809e6 3.071980742640775e7 0.0
3.071980742640775e7 5.307938851236858e6 0.0
0.0 0.0 0.0

-2.7556344834037498e6 2.1587357435349207e7 0.0
2.1587357435349207e7 629611.8844954021 0.0
0.0 0.0 0.0

-7.942941891071154e6 264862.54487935774 0.0
264862.54487935774 4.726652207632352e7 0.0
0.0 0.0 0.0

3.1005614013816696e6 1.9598861851391748e7 0.0
1.9598861851391748e7 2.2504699413888853e7 0.0
0.0 0.0 0.0

991130.4382003527 1.825080052853192e7 0.0
1.825080052853192e7 -1.751849092821065e7 0.0
0.0 0.0 0.0

-1.841446423148861e7 2.7610387187447328e7 0.0
2.7610387187447328e7 -7.137832306456093e6 0.0
0.0 0.0 0.0

-7.051376482744036e6 -1.5240406405476278e6 0.0
-1.5240406405476278e6 1.0129195845889805e7 0.0
0.0 0.0 0.0

-1.501920769665158e6 3.219887133224258e7 0.0
3.219887133224258e7 1.682086775046172e6 0.0
0.0 0.0 0.0

311763.39499159623 1.849632991831778e7 0.0
1.849632991831778e7 -1.70933353397538e6 0.0
0.0 0.0 0.0

-7.45570835668334e6 1.7888801996592626e7 0.0
1.7888801996592626e7 2.8019900506042212e7 0.0
0.0 0.0 0.0

2.3332284792634835e6 1.1906183569095382e7 0.0
1.1906183569095382e7 -2.4410816700710416e7 0.0
0.0 0.0 0.0

-8.34247678998813e6 1.7299958941047695e7 0.0
1.7299958941047695e7 2.552223716226206e7 0.0
0.0 0.0 0.0

1.946334645616353e6 4.490093217738438e6 0.0
4.490093217738438e6 -7.745370406864762e6 0.0
0.0 0.0 0.0

3.1562881172179114e6 7.328345627198158e6 0.0
7.328345627198158e6 -2.6963793068768393e7 0.0
0.0 0.0 0.0

-2.7526210425481107e6 2.1553323427422408e7 0.0
2.1553323427422408e7 -9.183884663176144e6 0.0
0.0 0.0 0.0

-2.35820036304661e6 2.2976944178160474e7 0.0
2.2976944178160474e7 2.5762268245953294e6 0.0
0.0 0.0 0.0

-1.8367319583824072e6 2.6571063297233444e7 0.0
2.6571063297233444e7 1.8655503835545415e6 0.0
0.0 0.0 0.0

3.8512955023632706e6 2.4131654646882262e7 0.0
2.4131654646882262e7 -7.781756005148437e6 0.0
0.0 0.0 0.0

3.594812674792886e6 5.094255474540386e6 0.0
5.094255474540386e6 -2.446247858628407e7 0.0
0.0 0.0 0.0

1.3671559291036476e6 4.40647828798167e6 0.0
4.40647828798167e6 -5.259787457356927e6 0.0
0.0 0.0 0.0

2.514691516968051e6 6.577716996712401e6 0.0
6.577716996712401e6 -2.8705294898671623e7 0.0
0.0 0.0 0.0

1.9426933124482636e6 6.835605455099958e6 0.0
6.835605455099958e6 -8.798399459778195e6 0.0
0.0 0.0 0.0

1.9496501478808537e7 2.089150230933206e7 0.0
2.089150230933206e7 9.071377303699989e6 0.0
0.0 0.0 0.0

-2.6652475485140346e6 3.5780611362410426e7 0.0
3.5780611362410426e7 2.4553085864315704e6 0.0
0.0 0.0 0.0

-8.574885711579854e6 -1.2136933650639905e6 0.0
-1.2136933650639905e6 3.783725993110217e7 0.0
0.0 0.0 0.0

1.3543738215527013e6 8.526360856610937e6 0.0
8.526360856610937e6 -4.7589119125973165e7 0.0
0.0 0.0 0.0

3.0479482026842255e6 2.4919088496851355e7 0.0
2.4919088496851355e7 -8.105293825649629e6 0.0
0.0 0.0 0.0

-2.200694070502515e6 2.1365899608328488e7 0.0
2.1365899608328488e7 -1.0634976298668105e7 0.0
0.0 0.0 0.0

1.9862283653851878e6 7.687609565399704e6 0.0
7.687609565399704e6 -3.5927894471746325e7 0.0
0.0 0.0 0.0

-6.866209074009055e6 3.555064081950014e7 0.0
3.555064081950014e7 4.835817584215788e6 0.0
0.0 0.0 0.0

8.267531530639229e6 2.2930340012831457e7 0.0
2.2930340012831457e7 1.2088826413467344e7 0.0
0.0 0.0 0.0

-4.040888421445949e7 4.0155930956676915e7 0.0
4.0155930956676915e7 7.443018594253654e6 0.0
0.0 0.0 0.0

-2.3659024027222935e6 2.011037901625748e7 0.0
2.011037901625748e7 2.2637661698811777e7 0.0
0.0 0.0 0.0

2.1787426526460275e6 1.0840506769973015e7 0.0
1.0840506769973015e7 -2.507629207267115e7 0.0
0.0 0.0 0.0

7.648676406970459e7 2.5171657666943856e7 0.0
2.5171657666943856e7 1.0096153889033671e7 0.0
0.0 0.0 0.0

5.576108686712259e6 2.1027117053463493e7 0.0
2.1027117053463493e7 1.7366187187891796e7 0.0
0.0 0.0 0.0

-1.0830040096935274e7 3.485359307027827e6 0.0
3.485359307027827e6 2.5798452897086356e7 0.0
0.0 0.0 0.0

1.761554382669373e6 1.9328637719363775e7 0.0
1.9328637719363775e7 1.004033029155029e7 0.0
0.0 0.0 0.0

-2.87818673351694e6 1.7691971372878335e7 0.0
1.7691971372878335e7 -2.5436393499292057e7 0.0
0.0 0.0 0.0

9.12746136968012e6 2.5074787615709893e7 0.0
2.5074787615709893e7 -4.55103050838574e6 0.0
0.0 0.0 0.0

-2.894685682765407e6 2.289122830839387e7 0.0
2.289122830839387e7 8.17478169828856e6 0.0
0.0 0.0 0.0

-9.690063566082655e6 6.219415269650013e6 0.0
6.219415269650013e6 3.862027727180584e7 0.0
0.0 0.0 0.0

-6.176499880979555e6 3.626487032125263e7 0.0
3.626487032125263e7 3.6297120528471447e6 0.0
0.0 0.0 0.0

-8.072861453480141e6 2.4088478414460257e7 0.0
2.4088478414460257e7 4.87991193700628e6 0.0
0.0 0.0 0.0

-2.4832393695270913e6 2.6174101607721504e7 0.0
2.6174101607721504e7 1.212955335516478e6 0.0
0.0 0.0 0.0

3.1232301218193495e6 2.9945048061225776e7 0.0
2.9945048061225776e7 -4.1873063824169757e6 0.0
0.0 0.0 0.0

-2.1536553141823085e6 2.924816734138355e7 0.0
2.924816734138355e7 743769.378314342 0.0
0.0 0.0 0.0

164542.8713958144 1.9537975213720568e7 0.0
1.9537975213720568e7 296355.16121208726 0.0
0.0 0.0 0.0

-361058.1027211379 2.0836224806823302e7 0.0
2.0836224806823302e7 1.960987817008744e7 0.0
0.0 0.0 0.0

2.345465472042037e6 2.1286056489164375e7 0.0
2.1286056489164375e7 438564.9529349635 0.0
0.0 0.0 0.0

-8.721483017134061e6 1.788345076494845e7 0.0
1.788345076494845e7 -4.383547900741366e7 0.0
0.0 0.0 0.0

60590.97233641357 1.9545379314519517e7 0.0
1.9545379314519517e7 2.4690889126399774e6 0.0
0.0 0.0 0.0

-2.6836358311169287e6 2.291450857757423e7 0.0
2.291450857757423e7 1.1780418897433076e6 0.0
0.0 0.0 0.0

4.068703313623015e6 1.646083356479216e7 0.0
1.646083356479216e7 1.3945237963424765e7 0.0
0.0 0.0 0.0

707132.5412377091 2.165457661516089e7 0.0
2.165457661516089e7 -1.2530212928321447e7 0.0
0.0 0.0 0.0

815324.8615373978 1.5840071928587422e7 0.0
1.5840071928587422e7 -2.193463728992326e7 0.0
0.0 0.0 0.0

3.590414478655448e6 4.446589939743521e6 0.0
4.446589939743521e6 -2.553097271696054e7 0.0
0.0 0.0 0.0

4.612671199310574e6 2.071468531824181e7 0.0
2.071468531824181e7 1.4343111295034138e7 0.0
0.0 0.0 0.0

-1.7811152192376656e6 2.1674013343579818e7 0.0
2.1674013343579818e7 1.3410807444677126e7 0.0
0.0 0.0 0.0

-8.027931639172632e6 1.7688444781766385e7 0.0
1.7688444781766385e7 2.5602196997608118e7 0.0
0.0 0.0 0.0

-2.7329167202729955e6 2.2178217886104025e7 0.0
2.2178217886104025e7 9.343367299239393e6 0.0
0.0 0.0 0.0

-4.200256016595553e6 2.1704124095548935e7 0.0
2.1704124095548935e7 -9.518194891682986e6 0.0
0.0 0.0 0.0

-8.3105936828731e6 1.7882406233742204e7 0.0
1.7882406233742204e7 2.4092049676794346e7 0.0
0.0 0.0 0.0

-8.309867856712325e6 1.7339189681262713e7 0.0
1.7339189681262713e7 2.792464462536546e7 0.0
0.0 0.0 0.0

-9.688066890106471e6 1.6135686292401567e7 0.0
1.6135686292401567e7 2.266532871053684e7 0.0
0.0 0.0 0.0

-9.184053960963821e6 -2.557011591685264e6 0.0
-2.557011591685264e6 2.6299481263728168e7 0.0
0.0 0.0 0.0

-2.942726581695896e6 2.44181420038151e7 0.0
2.44181420038151e7 9.80821471965935e6 0.0
0.0 0.0 0.0

-3.705345832299806e6 1.6714848754757052e7 0.0
1.6714848754757052e7 -3.740912608478003e7 0.0
0.0 0.0 0.0

-407648.30953563657 1.6143446360846901e7 0.0
1.6143446360846901e7 -2.6749906621099662e7 0.0
0.0 0.0 0.0

-3.0624722807896186e7 3.1600625058888145e7 0.0
3.1600625058888145e7 -9.612869149425434e6 0.0
0.0 0.0 0.0

-7.705180832097372e6 5.066992453391521e6 0.0
5.066992453391521e6 4.8154972038778834e7 0.0
0.0 0.0 0.0

184555.8523333408 1.6728646157042878e7 0.0
1.6728646157042878e7 -2.5095382907325055e7 0.0
0.0 0.0 0.0

-954589.8606004133 3.002146706620409e7 0.0
3.002146706620409e7 -1.2747011711997802e6 0.0
0.0 0.0 0.0

2.991485268026434e6 1.9269396644195296e7 0.0
1.9269396644195296e7 1.744063009932697e7 0.0
0.0 0.0 0.0

-8.579076136447508e6 -5.067795026440406e6 0.0
-5.067795026440406e6 2.239294595961876e7 0.0
0.0 0.0 0.0

-320944.3974457938 1.9275576535978235e7 0.0
1.9275576535978235e7 -2.0284390187413166e6 0.0
0.0 0.0 0.0

-1.0263028654946277e6 2.1077243223585457e7 0.0
2.1077243223585457e7 -9.46975811036171e6 0.0
0.0 0.0 0.0

-1.2268346904482983e7 7.734779965654188e6 0.0
7.734779965654188e6 1.7814401695557933e7 0.0
0.0 0.0 0.0

2.6560998421250805e6 1.4474349877088203e6 0.0
1.4474349877088203e6 -4.7235933417194866e7 0.0
0.0 0.0 0.0

55146.66363431234 1.0722208005000912e7 0.0
1.0722208005000912e7 -9.55662809237722e6 0.0
0.0 0.0 0.0

-1.07635987436804e7 2.694982968984721e6 0.0
2.694982968984721e6 3.1018465503105603e7 0.0
0.0 0.0 0.0

1.1717676875399072e6 2.2156901901522752e7 0.0
2.2156901901522752e7 -1.2112175130423954e7 0.0
0.0 0.0 0.0

6.208929202509847e6 1.9001118667866457e7 0.0
1.9001118667866457e7 3.1651173357696395e7 0.0
0.0 0.0 0.0

338.1707142640371 1.0260448942040376e7 0.0
1.0260448942040376e7 -5.124619177013052e6 0.0
0.0 0.0 0.0

8.737520130590968e6 2.2890627038673256e7 0.0
2.2890627038673256e7 1.3751071128882375e7 0.0
0.0 0.0 0.0

-3.3079384731667857e6 3.6657521258932956e7 0.0
3.6657521258932956e7 2.714744056442409e6 0.0
0.0 0.0 0.0

-1.1646743292682633e7 3.740358129004223e6 0.0
3.740358129004223e6 2.2764470633631483e7 0.0
0.0 0.0 0.0

337086.5187502876 2.0027533900217492e7 0.0
2.0027533900217492e7 2.1394645359426204e7 0.0
0.0 0.0 0.0

1.6266565483166333e6 1.1175971813594628e7 0.0
1.1175971813594628e7 -2.5596872335799523e7 0.0
0.0 0.0 0.0

-2.232921704466555e7 2.8021591033742115e7 0.0
2.8021591033742115e7 1.8531435751714222e6 0.0
0.0 0.0 0.0

-8.102212112104082e6 -2.93677698031448e6 0.0
-2.93677698031448e6 1.390634601415685e7 0.0
0.0 0.0 0.0

-1.191026920183939e7 2.3612600065915003e7 0.0
2.3612600065915003e7 -8.200251412013935e6 0.0
0.0 0.0 0.0

3.406833991632075e7 2.3414466962607116e7 0.0
2.3414466962607116e7 7.745576603752051e6 0.0
0.0 0.0 0.0

-934560.0738445944 2.3514337221901163e7 0.0
2.3514337221901163e7 -7.307753346729692e6 0.0
0.0 0.0 0.0

2.210039931966978e6 1.1442316612476217e7 0.0
1.1442316612476217e7 -2.3744407165769637e7 0.0
0.0 0.0 0.0

-4.0894144549985314e6 2.4663681927109953e7 0.0
2.4663681927109953e7 1.1158115066024836e7 0.0
0.0 0.0 0.0

-7.23234543519488e6 929945.1809884383 0.0
929945.1809884383 5.3860470940246366e7 0.0
0.0 0.0 0.0

-4.680734655829275e6 2.1457946987739608e7 0.0
2.1457946987739608e7 -1.4001169021932911e7 0.0
0.0 0.0 0.0

-1.5646879129649936e6 3.2888146697022866e7 0.0
3.2888146697022866e7 1.768788789739489e6 0.0
0.0 0.0 0.0

-2.0725715255894773e6 1.5161931177198179e7 0.0
1.5161931177198179e7 -3.6538964172103666e7 0.0
0.0 0.0 0.0

97463.4798704097 1.9243338602819845e7 0.0
1.9243338602819845e7 -1.9084335276275326e7 0.0
0.0 0.0 0.0

110913.6974116033 1.8557446477396846e7 0.0
1.8557446477396846e7 -2.0621974729330145e7 0.0
0.0 0.0 0.0

-8.575353394066075e6 1.4282778970986882e7 0.0
1.4282778970986882e7 3.445560974030813e7 0.0
0.0 0.0 0.0

-3.057984482989855e6 2.330033472861242e7 0.0
2.330033472861242e7 8.681305317417568e6 0.0
0.0 0.0 0.0

-5.571242658201322e6 1.2251131318426734e7 0.0
1.2251131318426734e7 9.853580225618157e7 0.0
0.0 0.0 0.0

3.0367771035858653e6 1.230815389279391e7 0.0
1.230815389279391e7 -9.612598875051427e7 0.0
0.0 0.0 0.0

-1.7324491417371344e7 2.7594798618598577e7 0.0
2.7594798618598577e7 -1.0827811604363214e7 0.0
0.0 0.0 0.0

-2.3270488112033196e6 2.086650326365063e7 0.0
2.086650326365063e7 1.436783681882466e7 0.0
0.0 0.0 0.0

-2.604553171179961e7 2.8713305798609912e7 0.0
2.8713305798609912e7 -3.4057167389709977e6 0.0
0.0 0.0 0.0

-8.363974375669488e6 -3.074055371671269e6 0.0
-3.074055371671269e6 1.8377727966080975e7 0.0
0.0 0.0 0.0

-7.433394535215777e6 1.8643611222628277e7 0.0
1.8643611222628277e7 2.154981513529153e7 0.0
0.0 0.0 0.0

-1.346860072228182e7 2.499302990331713e7 0.0
2.499302990331713e7 -6.534364069771666e6 0.0
0.0 0.0 0.0

-9.877004541919855e6 3.902568109817808e6 0.0
3.902568109817808e6 3.326883725379906e7 0.0
0.0 0.0 0.0

3.1945343198617227e7 2.10971880526398e7 0.0
2.10971880526398e7 7.019867399342286e6 0.0
0.0 0.0 0.0

634025.148211224 1.979776330790895e7 0.0
1.979776330790895e7 2.5559614393805344e7 0.0
0.0 0.0 0.0

-4.1648155241991403e6 1.9899958400186706e7 0.0
1.9899958400186706e7 1.6637182765174782e7 0.0
0.0 0.0 0.0

-2.57042331803103e7 3.93376147300333e7 0.0
3.93376147300333e7 9.549946722400056e6 0.0
0.0 0.0 0.0

4.477714581009759e6 2.19275863500255e7 0.0
2.19275863500255e7 5.436518894997693e6 0.0
0.0 0.0 0.0

3.306688299550915e6 2.0680228553455792e7 0.0
2.0680228553455792e7 -1.2931848908029194e6 0.0
0.0 0.0 0.0

-4.6433171350955665e6 2.6095385511145458e7 0.0
2.6095385511145458e7 9.40061032853632e6 0.0
0.0 0.0 0.0

-8.127637666013944e6 2.3086782122131635e7 0.0
2.3086782122131635e7 -576967.2572783655 0.0
0.0 0.0 0.0

-1.0772895744605158e6 1.9269741640371364e7 0.0
1.9269741640371364e7 -2.3378397385168658e6 0.0
0.0 0.0 0.0

3.224678163683813e6 2.1503690837861266e7 0.0
2.1503690837861266e7 -3.2528477267284365e6 0.0
0.0 0.0 0.0

4.035543902797049e6 2.1761283860485714e7 0.0
2.1761283860485714e7 1.3697197193037698e7 0.0
0.0 0.0 0.0

4.875714426576264e6 3.39421417338156e7 0.0
3.39421417338156e7 -2.615818263216189e6 0.0
0.0 0.0 0.0

-3.4900566648024535e6 2.4157923545935582e7 0.0
2.4157923545935582e7 1.068691527520335e7 0.0
0.0 0.0 0.0

-5.180193183286048e6 3.619469801504528e7 0.0
3.619469801504528e7 1.9708072856534645e6 0.0
0.0 0.0 0.0

-7.35501394888667e6 1.716779092392939e7 0.0
1.716779092392939e7 -4.8195976974456124e7 0.0
0.0 0.0 0.0

-1.6642314443203148e7 1.996791234140785e7 0.0
1.996791234140785e7 -8.991217103683773e7 0.0
0.0 0.0 0.0

1.552749596228394e7 2.088989977995984e7 0.0
2.088989977995984e7 9.032619394168945e7 0.0
0.0 0.0 0.0

6.459828681238718e6 1.9369771489668474e7 0.0
1.9369771489668474e7 3.044311546796486e7 0.0
0.0 0.0 0.0

601603.9143985715 1.0289685910685152e7 0.0
1.0289685910685152e7 -4.1288107359859526e7 0.0
0.0 0.0 0.0

2.6040085602707327e6 3.351522826183063e7 0.0
3.351522826183063e7 -3.18765094508184e6 0.0
0.0 0.0 0.0

987566.0162571478 2.3507594648595087e7 0.0
2.3507594648595087e7 -9.815886585629445e6 0.0
0.0 0.0 0.0

-1.089537031863452e6 2.0263166220339675e7 0.0
2.0263166220339675e7 -7.145204673225453e6 0.0
0.0 0.0 0.0

1.2707965296889422e6 2.2611451387254734e7 0.0
2.2611451387254734e7 -1.1398500796048764e7 0.0
0.0 0.0 0.0

-3.382171968755118e7 4.199445734253089e7 0.0
4.199445734253089e7 1.0392631903150098e7 0.0
0.0 0.0 0.0

-2.7829060487873117e6 3.2522927320528295e7 0.0
3.2522927320528295e7 1.2123201397248798e6 0.0
0.0 0.0 0.0

-6.542963027164352e6 2.6800369444388177e7 0.0
2.6800369444388177e7 7.986616062208437e6 0.0
0.0 0.0 0.0

2.2376094882449955e6 3.1980520738116717e6 0.0
3.1980520738116717e6 -5.03534295332494e7 0.0
0.0 0.0 0.0

9.928232832429936e6 2.5848215149678845e7 0.0
2.5848215149678845e7 -4.901788489244768e6 0.0
0.0 0.0 0.0

-1.9308629002411496e6 1.5737765762804003e7 0.0
1.5737765762804003e7 -3.41853346258516e7 0.0
0.0 0.0 0.0

8.64383856614511e6 2.6376348175641593e7 0.0
2.6376348175641593e7 -5.352786150320005e6 0.0
0.0 0.0 0.0

-602276.2566578534 1.853209730358349e7 0.0
1.853209730358349e7 -1.3239443968892652e6 0.0
0.0 0.0 0.0

1.1342386576028885e6 2.0696718045871496e7 0.0
2.0696718045871496e7 2.224489424311116e7 0.0
0.0 0.0 0.0

-5.102395877471537e6 2.8893633276406527e7 0.0
2.8893633276406527e7 5.822747796813542e6 0.0
0.0 0.0 0.0

-9.343572372315286e6 -1.4752884079019749e6 0.0
-1.4752884079019749e6 3.1529336270946603e7 0.0
0.0 0.0 0.0

1.6721241151906068e7 2.1438446247560095e7 0.0
2.1438446247560095e7 2.9923445518009616e6 0.0
0.0 0.0 0.0

-7.45118970510579e7 2.7635504624863073e7 0.0
2.7635504624863073e7 1.6887607065108642e6 0.0
0.0 0.0 0.0

-9.25378908203893e6 1.4523581211214565e7 0.0
1.4523581211214565e7 3.2009510221044503e7 0.0
0.0 0.0 0.0

-6.512272021475051e6 2.40058570225443e7 0.0
2.40058570225443e7 5.319794464245448e6 0.0
0.0 0.0 0.0

4.1429877978795734e6 2.1764951620538484e7 0.0
2.1764951620538484e7 -290476.20987269096 0.0
0.0 0.0 0.0

3.5119005388907194e6 3.1282999053335516e6 0.0
3.1282999053335516e6 -3.284676870033478e7 0.0
0.0 0.0 0.0

-2.7829229047427666e6 2.1526081954534583e7 0.0
2.1526081954534583e7 1.1292104747572761e7 0.0
0.0 0.0 0.0

-7.810651785083083e6 141779.63978680098 0.0
141779.63978680098 4.785192805736704e7 0.0
0.0 0.0 0.0

-1.7216876637826964e7 2.3918640416812595e7 0.0
2.3918640416812595e7 -9.576857356484224e7 0.0
0.0 0.0 0.0

1.5667036744632982e7 2.5612006054004163e7 0.0
2.5612006054004163e7 9.518429330239734e7 0.0
0.0 0.0 0.0

418615.25497933105 1.3781483032314437e7 0.0
1.3781483032314437e7 -3.1139631429478925e7 0.0
0.0 0.0 0.0

754680.1297557598 4.610379071514006e6 0.0
4.610379071514006e6 -5.358948333280692e6 0.0
0.0 0.0 0.0

1.2525011572394712e7 1.9219333853319295e7 0.0
1.9219333853319295e7 6.264522793196086e6 0.0
0.0 0.0 0.0

-7.413104845498711e6 1.6232019274670107e6 0.0
1.6232019274670107e6 5.418227932665921e7 0.0
0.0 0.0 0.0

881305.5530341915 8.445534941621268e6 0.0
8.445534941621268e6 -7.833035217214043e6 0.0
0.0 0.0 0.0

6.142163741659525e6 3.2240890191910453e7 0.0
3.2240890191910453e7 -4.260759071977381e6 0.0
0.0 0.0 0.0

185552.51422835328 1.9598327064646143e7 0.0
1.9598327064646143e7 -1.5231064328360343e7 0.0
0.0 0.0 0.0

4.5476090517933685e6 1.944890526176529e7 0.0
1.944890526176529e7 2.188243803239629e7 0.0
0.0 0.0 0.0

-6.455170751054406e6 2.375751399664444e7 0.0
2.375751399664444e7 390480.5308224312 0.0
0.0 0.0 0.0

-3.0791942737020016e7 2.671795676800412e7 0.0
2.671795676800412e7 -6.606827702753095e6 0.0
0.0 0.0 0.0

-3.229196250716203e6 3.2045728136150643e7 0.0
3.2045728136150643e7 1.908757346888117e6 0.0
0.0 0.0 0.0

1.1369849070607093e6 1.993445060522267e7 0.0
1.993445060522267e7 1.2314974923913285e7 0.0
0.0 0.0 0.0

-1.3594280205849316e6 2.12227067217576e7 0.0
2.12227067217576e7 1.6740000661965067e7 0.0
0.0 0.0 0.0

1.0314064946446931e6 1.671662401466548e7 0.0
1.671662401466548e7 -2.1155462573011182e7 0.0
0.0 0.0 0.0

1.3348453635639222e6 2.1933941913208377e7 0.0
2.1933941913208377e7 -1.193711134563997e7 0.0
0.0 0.0 0.0

-7.93362884257764e6 3.1995716564499447e6 0.0
3.1995716564499447e6 5.2167605468678355e7 0.0
0.0 0.0 0.0

-2.7786947171037044e7 4.2423275835840575e7 0.0
4.2423275835840575e7 7.238671684224721e6 0.0
0.0 0.0 0.0

-1.263533955581523e7 3.362587004633359e7 0.0
3.362587004633359e7 5.804786696087919e6 0.0
0.0 0.0 0.0

-3.0212059810112257e7 2.8956927241805892e7 0.0
2.8956927241805892e7 -1.2741487126646899e6 0.0
0.0 0.0 0.0

152027.2877291399 2.020058644972672e7 0.0
2.020058644972672e7 4.366842112851471e6 0.0
0.0 0.0 0.0

-9.49632766840927e6 2.447244197730559e7 0.0
2.447244197730559e7 -1.3727534890705163e6 0.0
0.0 0.0 0.0

-1.7813737282000188e7 2.678137216006481e7 0.0
2.678137216006481e7 -6.971088748705838e6 0.0
0.0 0.0 0.0

1.665388999781692e6 7.607314453360539e6 0.0
7.607314453360539e6 -7.4646768597752545e6 0.0
0.0 0.0 0.0

3.6346445587421167e6 1.973438397881017e7 0.0
1.973438397881017e7 2.2706795568779636e7 0.0
0.0 0.0 0.0

1.602801463933289e6 9.441526459795887e6 0.0
9.441526459795887e6 -4.0451106231210485e7 0.0
0.0 0.0 0.0

-8.128372448835421e6 1.5502427327626847e7 0.0
1.5502427327626847e7 3.319838864531614e7 0.0
0.0 0.0 0.0

-6.907242355586924e6 1.2486624236936567e6 0.0
1.2486624236936567e6 5.5321423073302e7 0.0
0.0 0.0 0.0

2.5023134662063383e6 3.4223583006516886e6 0.0
3.4223583006516886e6 -4.9621092403842285e7 0.0
0.0 0.0 0.0

-3.442356560540331e7 2.9162854208796687e7 0.0
2.9162854208796687e7 -2.5461912580562197e6 0.0
0.0 0.0 0.0

-8.133788395477675e6 -612729.6936062145 0.0
-612729.6936062145 4.3718887527196206e7 0.0
0.0 0.0 0.0

-8.69768925715947e6 -1.1433785049778186e6 0.0
-1.1433785049778186e6 3.812754489914583e7 0.0
0.0 0.0 0.0

948854.7575860494 7.316667914358436e6 0.0
7.316667914358436e6 -9.609821798669538e6 0.0
0.0 0.0 0.0

-9.016898320009543e6 212946.06334195152 0.0
212946.06334195152 3.651087523764409e7 0.0
0.0 0.0 0.0

8.472481606046896e6 4.416243965488444e7 0.0
4.416243965488444e7 -5.212361836816184e6 0.0
0.0 0.0 0.0

-3.7006220004480435e6 2.0846094403446976e7 0.0
2.0846094403446976e7 1.5835130189636026e7 0.0
0.0 0.0 0.0

1.2868712038245648e6 4.466688575068703e6 0.0
4.466688575068703e6 -6.111119698697925e7 0.0
0.0 0.0 0.0

2.500436218256479e6 4.0141539186416212e6 0.0
4.0141539186416212e6 -3.8887560281406194e7 0.0
0.0 0.0 0.0

-3.166075780647518e6 2.3094286847375523e7 0.0
2.3094286847375523e7 7.734844077288851e6 0.0
0.0 0.0 0.0

-4.869047015911203e6 3.572991716528119e7 0.0
3.572991716528119e7 3.4656249099830193e6 0.0
0.0 0.0 0.0

5.822538372710758e6 1.1135096067683646e7 0.0
1.1135096067683646e7 2.156945652855479e6 0.0
0.0 0.0 0.0

1.1777842829609007e7 2.2509180840157837e7 0.0
2.2509180840157837e7 1.2436855546505112e7 0.0
0.0 0.0 0.0

1.002868926257416e7 2.461468671160057e7 0.0
2.461468671160057e7 -3.735991641439385e6 0.0
0.0 0.0 0.0

-8.335101929530444e6 -374756.866810245 0.0
-374756.866810245 4.2886737383459724e7 0.0
0.0 0.0 0.0

-1.8261857844131365e7 2.4070887966350254e7 0.0
2.4070887966350254e7 -1.178573310501e6 0.0
0.0 0.0 0.0

-3.0964505033486667e6 3.1364376470669746e7 0.0
3.1364376470669746e7 1.782491823627559e6 0.0
0.0 0.0 0.0

3.569586505845608e6 1.887288311092457e7 0.0
1.887288311092457e7 5.07444727655815e7 0.0
0.0 0.0 0.0

1.1993351588437438e7 2.508397096625651e7 0.0
2.508397096625651e7 -3.7150399596535293e6 0.0
0.0 0.0 0.0

-4.277123218801461e6 2.181980080466588e7 0.0
2.181980080466588e7 -9.433364466467261e6 0.0
0.0 0.0 0.0

-3.5535121328718252e6 2.1989842256242618e7 0.0
2.1989842256242618e7 1.6503240275588466e7 0.0
0.0 0.0 0.0

-3.270682097329833e6 2.1136527454533733e7 0.0
2.1136527454533733e7 -9.489850395952377e6 0.0
0.0 0.0 0.0

-7.10270442493717e7 3.8233254933922894e7 0.0
3.8233254933922894e7 -6.581590968361709e6 0.0
0.0 0.0 0.0

-4.756878264184804e6 2.0570632963220503e7 0.0
2.0570632963220503e7 1.5416516596477127e7 0.0
0.0 0.0 0.0

-3.861263508326252e6 2.2264072991700046e7 0.0
2.2264072991700046e7 -8.020129014391015e6 0.0
0.0 0.0 0.0

-3.755863219565848e6 2.270432839279372e7 0.0
2.270432839279372e7 1.5679086741235146e7 0.0
0.0 0.0 0.0

7.922631184256569e6 2.422743506432771e7 0.0
2.422743506432771e7 -4.577929233106367e6 0.0
0.0 0.0 0.0

3.1403626583444383e6 3.1133565527543025e6 0.0
3.1133565527543025e6 -3.188910765759132e7 0.0
0.0 0.0 0.0

3.1691743522098563e6 2.35088468449803e7 0.0
2.35088468449803e7 -8.182693424234169e6 0.0
0.0 0.0 0.0

-2.65402524207242e7 4.244672758649927e7 0.0
4.244672758649927e7 7.045362228749823e6 0.0
0.0 0.0 0.0

-6.382625833070291e6 3.0113312245569557e7 0.0
3.0113312245569557e7 6.211164316809244e6 0.0
0.0 0.0 0.0

-9.563794848673772e6 -2.2944476867396166e6 0.0
-2.2944476867396166e6 2.557340502753742e7 0.0
0.0 0.0 0.0

359061.62048940547 1.9816420983805064e7 0.0
1.9816420983805064e7 -1.6700244132700939e7 0.0
0.0 0.0 0.0

1.3842481003126476e7 2.2218286937255736e7 0.0
2.2218286937255736e7 4.213781630285027e6 0.0
0.0 0.0 0.0

-6.450771331894003e7 3.2697169848648567e7 0.0
3.2697169848648567e7 2.2860664605462737e6 0.0
0.0 0.0 0.0

3.8373114167924635e6 1.8168274079663374e7 0.0
1.8168274079663374e7 1.5738059875680894e7 0.0
0.0 0.0 0.0

945205.6144094951 9.230290515176713e6 0.0
9.230290515176713e6 -4.268962802681359e7 0.0
0.0 0.0 0.0

675886.5251576528 1.6442801587566415e7 0.0
1.6442801587566415e7 -2.105136203744099e7 0.0
0.0 0.0 0.0

-2.4762914550030176e6 2.1822104812631063e7 0.0
2.1822104812631063e7 1.3153047719450744e7 0.0
0.0 0.0 0.0

-7.305828287067095e6 3.602540701516532e7 0.0
3.602540701516532e7 3.2213290062694056e6 0.0
0.0 0.0 0.0

690955.9199591754 2.6927908428452093e7 0.0
2.6927908428452093e7 -5.000769844089486e6 0.0
0.0 0.0 0.0

2.9466228056153357e6 2.929193125260781e6 0.0
2.929193125260781e6 -3.81439748791607e7 0.0
0.0 0.0 0.0

6.187291792163467e6 1.9169780373629928e7 0.0
1.9169780373629928e7 4.4326796705246255e7 0.0
0.0 0.0 0.0

-671952.1605039947 1.8250726841355395e7 0.0
1.8250726841355395e7 -1.8242828849315757e6 0.0
0.0 0.0 0.0

-5.0472148866371274e7 3.8024666945381686e7 0.0
3.8024666945381686e7 1.0600624189223152e7 0.0
0.0 0.0 0.0

-9.942987201136632e6 707611.80300906 0.0
707611.80300906 3.2529029266295683e7 0.0
0.0 0.0 0.0

-9.199730532019427e6 433323.9484981052 0.0
433323.9484981052 3.4826579467319034e7 0.0
0.0 0.0 0.0

1.3241537928189227e7 2.214225891402747e7 0.0
2.214225891402747e7 6.888665715055611e6 0.0
0.0 0.0 0.0

-8.088973257185372e6 -713639.2780636542 0.0
-713639.2780636542 4.2660381468779214e7 0.0
0.0 0.0 0.0

3.2433657154369885e6 1.8675384543468695e7 0.0
1.8675384543468695e7 1.5327222409566265e7 0.0
0.0 0.0 0.0

7.673515280838396e6 1.9510932042091835e7 0.0
1.9510932042091835e7 3.2304810682452768e7 0.0
0.0 0.0 0.0

1.0197645136150721e6 3.342892058560602e7 0.0
3.342892058560602e7 -1.542242041083109e6 0.0
0.0 0.0 0.0

-7.149768353644449e6 6.225561306477186e6 0.0
6.225561306477186e6 5.70664890141137e7 0.0
0.0 0.0 0.0

-2.625485355550047e6 1.5784282348719865e7 0.0
1.5784282348719865e7 -3.51502631169475e7 0.0
0.0 0.0 0.0

481564.02507379325 8.184489646246915e6 0.0
8.184489646246915e6 -8.380618023057766e6 0.0
0.0 0.0 0.0

-2.0776005985512626e6 2.1368750591625687e7 0.0
2.1368750591625687e7 1.137769602430348e7 0.0
0.0 0.0 0.0

4.251520863229042e6 1.9669913429707877e7 0.0
1.9669913429707877e7 3.1497170823620502e7 0.0
0.0 0.0 0.0

-9.038159960044026e6 975373.4903660527 0.0
975373.4903660527 4.1496508878704704e7 0.0
0.0 0.0 0.0

-7.474158959941341e6 8.692390557573542e6 0.0
8.692390557573542e6 6.797604041869728e6 0.0
0.0 0.0 0.0

-2.6020882433575955e6 2.229123042195649e7 0.0
2.229123042195649e7 1.2313815580498117e6 0.0
0.0 0.0 0.0

993353.7534646364 1.190276629470856e7 0.0
1.190276629470856e7 1.1522071229363643e7 0.0
0.0 0.0 0.0

3.807923474058224e6 2.0871271050775602e7 0.0
2.0871271050775602e7 -2.08613733905736e6 0.0
0.0 0.0 0.0

-9.605307605898231e6 259321.49018201503 0.0
259321.49018201503 3.454607144126431e7 0.0
0.0 0.0 0.0

-6.327417127075076e6 6.147452000997144e6 0.0
6.147452000997144e6 6.071301330516144e7 0.0
0.0 0.0 0.0

3.1027365974118933e6 2.149270634400124e7 0.0
2.149270634400124e7 -991207.6004638316 0.0
0.0 0.0 0.0

832395.9052247694 2.0242676342759486e7 0.0
2.0242676342759486e7 -1.4453966564252114e7 0.0
0.0 0.0 0.0

-6.203747944586974e6 5.981543333525595e6 0.0
5.981543333525595e6 6.014257428783505e7 0.0
0.0 0.0 0.0

7.64518669646344e6 2.433097350470536e7 0.0
2.433097350470536e7 -4.447760595012683e6 0.0
0.0 0.0 0.0

3.45401722460029e6 1.88301195945075e7 0.0
1.88301195945075e7 2.3034849352822732e7 0.0
0.0 0.0 0.0

-7.947093922388662e6 1.2560071341098761e7 0.0
1.2560071341098761e7 1.3411536426948603e7 0.0
0.0 0.0 0.0

-6.015465366554903e6 1.2275509043001553e7 0.0
1.2275509043001553e7 7.543789302285887e6 0.0
0.0 0.0 0.0

-1.2665438841311105e7 8.760504224371575e6 0.0
8.760504224371575e6 5.689431475722906e6 0.0
0.0 0.0 0.0

