# vtk DataFile Version 2.0
incompressible test for cantilever beam problem
ASCII
DATASET UNSTRUCTURED_GRID
POINTS 85 float
0.0 -6.0 0.0
48.0 -6.0 0.0
48.0 6.0 0.0
0.0 6.0 0.0
2.999999999986668 -6.0 0.0
5.999999999975707 -6.0 0.0
8.999999999961364 -6.0 0.0
11.99999999995067 -6.0 0.0
14.99999999993997 -6.0 0.0
17.99999999992927 -6.0 0.0
20.99999999991858 -6.0 0.0
23.99999999990857 -6.0 0.0
26.9999999999194 -6.0 0.0
29.99999999993091 -6.0 0.0
32.99999999994242 -6.0 0.0
35.99999999995394 -6.0 0.0
38.99999999996545 -6.0 0.0
41.99999999997696 -6.0 0.0
44.99999999998848 -6.0 0.0
48.0 -3.000000000011103 0.0
48.0 -2.202238391646461e-11 0.0
48.0 2.999999999988901 0.0
45.0000000000346 6.0 0.0
42.00000000002897 6.0 0.0
39.0000000000497 6.0 0.0
36.00000000004128 6.0 0.0
33.00000000003288 6.0 0.0
30.00000000003972 6.0 0.0
27.0000000000535 6.0 0.0
24.00000000006659 6.0 0.0
21.00000000005888 6.0 0.0
18.00000000005047 6.0 0.0
15.00000000004206 6.0 0.0
12.00000000003364 6.0 0.0
9.000000000025231 6.0 0.0
6.000000000016826 6.0 0.0
3.000000000008413 6.0 0.0
0.0 3.000000000011103 0.0
0.0 2.202238391646461e-11 0.0
0.0 -2.999999999988901 0.0
2.999999999992614 -2.999999999992079 0.0
2.999999999997909 1.122996140523469e-11 0.0
3.000000000003163 3.000000000007575 0.0
5.999999999985362 -2.999999999994323 0.0
5.999999999995862 7.733313989177759e-12 0.0
6.000000000006352 3.000000000005216 0.0
8.999999999978225 -2.999999999995646 0.0
8.999999999994003 5.858702412098182e-12 0.0
9.000000000009644 3.000000000003906 0.0
11.99999999997165 -2.999999999996654 0.0
11.99999999999244 4.4763637241374e-12 0.0
12.00000000001307 3.000000000002964 0.0
14.99999999996556 -2.999999999997564 0.0
14.99999999999111 3.245265167706179e-12 0.0
15.0000000000166 3.000000000002139 0.0
17.99999999995966 -2.999999999998447 0.0
17.99999999998992 2.058936354742968e-12 0.0
18.00000000002015 3.00000000000135 0.0
20.99999999995433 -2.99999999999932 0.0
20.99999999998884 8.857914401971811e-13 0.0
21.00000000002323 3.000000000000571 0.0
23.99999999995178 -3.000000000000191 0.0
23.99999999998779 -2.836619827917275e-13 0.0
24.0000000000236 2.999999999999794 0.0
26.99999999995399 -3.000000000001061 0.0
26.99999999998715 -1.452005182756011e-12 0.0
27.00000000001991 2.999999999999019 0.0
29.99999999995971 -3.000000000001932 0.0
29.99999999998823 -2.62037613829591e-12 0.0
30.00000000001566 2.999999999998243 0.0
32.99999999996734 -3.000000000002802 0.0
32.99999999999206 -3.788525049230884e-12 0.0
33.00000000001545 2.999999999997467 0.0
35.99999999997581 -3.000000000003673 0.0
35.99999999999749 -4.95672947131709e-12 0.0
36.00000000001921 2.999999999996693 0.0
38.99999999998376 -3.000000000004543 0.0
39.00000000000207 -6.124795115525217e-12 0.0
39.00000000002137 2.999999999995917 0.0
41.99999999999061 -3.000000000005529 0.0
42.00000000000439 -7.496753218205754e-12 0.0
42.00000000001917 2.999999999994972 0.0
44.99999999999595 -3.000000000007437 0.0
45.00000000000347 -1.053609977041958e-11 0.0
45.0000000000126 2.999999999992899 0.0
CELLS 64 320
4 0 4 40 39
4 39 40 41 38
4 38 41 42 37
4 37 42 36 3
4 4 5 43 40
4 40 43 44 41
4 41 44 45 42
4 42 45 35 36
4 5 6 46 43
4 43 46 47 44
4 44 47 48 45
4 45 48 34 35
4 6 7 49 46
4 46 49 50 47
4 47 50 51 48
4 48 51 33 34
4 7 8 52 49
4 49 52 53 50
4 50 53 54 51
4 51 54 32 33
4 8 9 55 52
4 52 55 56 53
4 53 56 57 54
4 54 57 31 32
4 9 10 58 55
4 55 58 59 56
4 56 59 60 57
4 57 60 30 31
4 10 11 61 58
4 58 61 62 59
4 59 62 63 60
4 60 63 29 30
4 11 12 64 61
4 61 64 65 62
4 62 65 66 63
4 63 66 28 29
4 12 13 67 64
4 64 67 68 65
4 65 68 69 66
4 66 69 27 28
4 13 14 70 67
4 67 70 71 68
4 68 71 72 69
4 69 72 26 27
4 14 15 73 70
4 70 73 74 71
4 71 74 75 72
4 72 75 25 26
4 15 16 76 73
4 73 76 77 74
4 74 77 78 75
4 75 78 24 25
4 16 17 79 76
4 76 79 80 77
4 77 80 81 78
4 78 81 23 24
4 17 18 82 79
4 79 82 83 80
4 80 83 84 81
4 81 84 22 23
4 18 1 19 82
4 82 19 20 83
4 83 20 21 84
4 84 21 2 22
CELL_TYPES 64
9
9
9
9
9
9
9
9
9
9
9
9
9
9
9
9
9
9
9
9
9
9
9
9
9
9
9
9
9
9
9
9
9
9
9
9
9
9
9
9
9
9
9
9
9
9
9
9
9
9
9
9
9
9
9
9
9
9
9
9
9
9
9
9
POINT_DATA 85
VECTORS disp float
-2.120513574717107e-5 0.0014373177219886425 0.0
0.001520994810416919 0.01569150429654883 0.0
-0.00152099481108224 0.015691504296658092 0.0
2.120513574686489e-5 0.0014373177219894422 0.0
0.0008736249592296057 0.0013594768054598675 0.0
0.0012369132251967472 0.0019102116658178377 0.0
0.001395445569215913 0.002721191980720604 0.0
0.0014631735175282515 0.0036445977829514956 0.0
0.0014928163431946876 0.004616001322388579 0.0
0.0015060842099435614 0.0056082143203691915 0.0
0.0015123345224685209 0.006609592714428402 0.0
0.0015155275739185184 0.007615155745642827 0.0
0.0015173516408478489 0.00862274883229918 0.0
0.0015185243811196875 0.009631421165267016 0.0
0.0015193512409586822 0.010640733830193806 0.0
0.001519962248941643 0.011650465795789097 0.0
0.001520412914829549 0.012660488861990851 0.0
0.0015207275955862888 0.013670714788951223 0.0
0.00152091665010431 0.014681072706451904 0.0
0.0009614600829789471 0.015691484072490967 0.0
-3.03751375993095e-13 0.015691490497237358 0.0
-0.000961460083605085 0.015691484072546016 0.0
-0.0015209166507149279 0.014681072706577035 0.0
-0.0015207275961410891 0.01367071478907877 0.0
-0.0015204129153284305 0.012660488862128786 0.0
-0.0015199622493850978 0.011650465795926417 0.0
-0.0015193512413478004 0.010640733830329374 0.0
-0.001518524381456187 0.009631421165404762 0.0
-0.001517351641133964 0.008622748832440411 0.0
-0.0015155275741569956 0.007615155745786027 0.0
-0.0015123345226625755 0.006609592714558516 0.0
-0.0015060842100969422 0.005608214320484684 0.0
-0.0014928163433115772 0.004616001322488382 0.0
-0.0014631735176131677 0.0036445977830345646 0.0
-0.001395445569273519 0.0027211919807858713 0.0
-0.0012369132252312847 0.0019102116658634635 0.0
-0.0008736249592446646 0.0013594768054862446 0.0
8.258940353885225e-5 0.0003125774079274268 0.0
7.465481515504211e-16 -6.25258625703911e-5 0.0
-8.258940353876096e-5 0.0003125774079207 0.0
0.0005055369059376496 0.0008994790130199328 0.0
-3.4394897926872967e-15 0.0006939250093031532 0.0
-0.0005055369059474415 0.0008994790130335624 0.0
0.0007687941108870087 0.0017107994751450386 0.0
-9.359908478090442e-15 0.0016310807462198908 0.0
-0.0007687941109109359 0.00171079947516805 0.0
0.0008786788140699173 0.0026364402196629054 0.0
-1.8383243488150252e-14 0.002601171074676009 0.0
-0.0008786788141132229 0.0026364402196951977 0.0
0.0009258745106301402 0.00360802563930284 0.0
-3.0285854912636423e-14 0.0035932068576180333 0.0
-0.0009258745106981624 0.0036080256393441036 0.0
0.0009459606626036091 0.004600071176856612 0.0
-4.486705358053761e-14 0.004593695441579435 0.0
-0.0009459606627014756 0.004600071176906223 0.0
0.000954580910364452 0.005601085119305726 0.0
-6.186655476072915e-14 0.005598348449711029 0.0
-0.0009545809104968944 0.00560108511936314 0.0
0.0009583044630581168 0.006606248371997568 0.0
-8.103069885607061e-14 0.006605055620544605 0.0
-0.000958304463229409 0.0066062483720618955 0.0
0.0009599404728827259 0.007613458729108777 0.0
-1.0209278525513794e-13 0.007612927309173478 0.0
-0.0009599404730966527 0.007613458729177649 0.0
0.0009606815079660493 0.008621790415232257 0.0
-1.2479258698860108e-13 0.008621543402714905 0.0
-0.0009606815082258861 0.008621790415302179 0.0
0.0009610352950615869 0.009630814651601476 0.0
-1.4887986626099856e-13 0.009630691956469047 0.0
-0.0009610352953700798 0.009630814651670563 0.0
0.000961217752764816 0.010640314695536465 0.0
-1.740961998024548e-13 0.01064024816342792 0.0
-0.0009612177531242205 0.010640314695604914 0.0
0.000961320781293384 0.011650163931269013 0.0
-2.0015837186378353e-13 0.01165012455397219 0.0
-0.000961320781705388 0.01165016393133727 0.0
0.0009613836349318963 0.012660274204376763 0.0
-2.2678194788877732e-13 0.012660249442683376 0.0
-0.0009613836353976062 0.012660274204443928 0.0
0.0009614232210317376 0.013670573664445325 0.0
-2.536363475336256e-13 0.013670558443248269 0.0
-0.0009614232215515874 0.013670573664509727 0.0
0.0009614484873518973 0.014680999020058746 0.0
-2.8003254870232874e-13 0.014680987397282451 0.0
-0.0009614484879253544 0.014680999020119144 0.0
CELL_DATA 64
TENSORS stress float
-22.604371121450868 13.264816346729269 0.0
13.264816346729269 -22.63163933532195 0.0
0.0 0.0 -22.617552868281827
1.6649691086122687 153.40185177442012 0.0
153.40185177442012 1.6545799904602347 0.0
0.0 0.0 1.6597413540452512
-1.6649691082642732 153.401851774748 0.0
153.401851774748 -1.6545799901118414 0.0
0.0 0.0 -1.6597413536970689
22.604371121160284 13.264816351048678 0.0
13.264816351048678 22.63163933503165 0.0
0.0 0.0 22.617552867991414
-7.2974609269065525 87.64194342721208 0.0
87.64194342721208 -7.308891565851866 0.0
0.0 0.0 -7.303030182854279
-4.889868980825916 79.0247238660373 0.0
79.0247238660373 -4.894744769989224 0.0
0.0 0.0 -4.892209029270062
4.88986898082959 79.02472386565451 0.0
79.02472386565451 4.894744769993395 0.0
0.0 0.0 4.8922090292739835
7.297460926908457 87.64194342822609 0.0
87.64194342822609 7.30889156585431 0.0
0.0 0.0 7.303030182856448
-3.4968328918689906 125.29003359547616 0.0
125.29003359547616 -3.5017446902264737 0.0
0.0 0.0 -3.4992188052719126
-1.133030956837402 41.37663384299121 0.0
41.37663384299121 -1.1350298108641041 0.0
0.0 0.0 -1.1340077032430753
1.1330309568176204 41.376633841843955 0.0
41.376633841843955 1.1350298108450154 0.0
0.0 0.0 1.1340077032236415
3.496832891842786 125.29003359443328 0.0
125.29003359443328 3.5017446902010008 0.0
0.0 0.0 3.499218805246073
-1.4212205020551707 140.1551776733148 0.0
140.1551776733148 -1.4233204662744718 0.0
0.0 0.0 -1.4222420387551375
-0.6422811546057154 26.511489715994976 0.0
26.511489715994976 -0.6431458921586071 0.0
0.0 0.0 -0.642700669111694
0.642281154584742 26.511489714409212 0.0
26.511489714409212 0.6431458921385182 0.0
0.0 0.0 0.6427006690911625
1.4212205020311828 140.1551776708621 0.0
140.1551776708621 1.423320466251404 0.0
0.0 0.0 1.422242038731611
-0.6158329902713042 146.55004191824787 0.0
146.55004191824787 -0.6167417065852732 0.0
0.0 0.0 -0.6162750226813201
-0.24611822720908894 20.116625479032695 0.0
20.116625479032695 -0.24648516404235465 0.0
0.0 0.0 -0.246296769591809
0.2461182271869582 20.116625477111693 0.0
20.116625477111693 0.24648516402129417 0.0
0.0 0.0 0.24629676957021418
0.6158329902482382 146.55004191467722 0.0
146.55004191467722 0.6167417065633085 0.0
0.0 0.0 0.6162750226588054
-0.2600723007257706 149.145654348625 0.0
149.145654348625 -0.26047183105009086 0.0
0.0 0.0 -0.26026686044661307
-0.10928871460526834 17.52101305818978 0.0
17.52101305818978 -0.10944633713345375 0.0
0.0 0.0 -0.10936533851884368
0.1092887145834891 17.521013056018976 0.0
17.521013056018976 0.10944633711291485 0.0
0.0 0.0 0.10936533849768508
0.26007230070385035 149.1456543441394 0.0
149.1456543441394 0.26047183102943805 0.0
0.0 0.0 0.2602668604253271
-0.11094800476035083 150.16904908819328 0.0
150.16904908819328 -0.11112975829301197 0.0
0.0 0.0 -0.11103666074905078
-0.045714214371260775 16.497618311169603 0.0
16.497618311169603 -0.045782240351042836 0.0
0.0 0.0 -0.04574731239660467
0.04571421434983103 16.497618308783586 0.0
16.497618308783586 0.04578224033100686 0.0
0.0 0.0 0.045747312375872116
0.11094800474005373 150.16904908287512 0.0
150.16904908287512 0.11112975827413285 0.0
0.0 0.0 0.11103666072946339
-0.047133087680763186 150.52704149422297 0.0
150.52704149422297 -0.04722082416490281 0.0
0.0 0.0 -0.04717601238371456
-0.019576404033940287 16.13962586706291 0.0
16.13962586706291 -0.019606272112291823 0.0
0.0 0.0 -0.019590946246354587
0.01957640401207139 16.139625864482706 0.0
16.139625864482706 0.019606272091951538 0.0
0.0 0.0 0.019590946225250407
0.047133087658592476 150.52704148811694 0.0
150.52704148811694 0.04722082414428397 0.0
0.0 0.0 0.04717601236232021
-0.02005035609390826 150.6122605580028 0.0
150.6122605580028 -0.020096760545796566 0.0
0.0 0.0 -0.020073156848685998
-0.008303728328407062 16.05440679413802 0.0
16.05440679413802 -0.008317234616464858 0.0
0.0 0.0 -0.0083103152628065
0.008303728306762709 16.05440679136895 0.0
16.05440679136895 0.008317234596465634 0.0
0.0 0.0 0.00831031524198515
0.020050356071643405 150.61226055113409 0.0
150.61226055113409 0.020096760525199597 0.0
0.0 0.0 0.020073156827255505
-0.008520289290592009 150.59056233554665 0.0
150.59056233554665 -0.008547768735144068 0.0
0.0 0.0 -0.008533858332287793
-0.003534671955649993 16.07610497726921 0.0
16.07610497726921 -0.0035411029771452995 0.0
0.0 0.0 -0.003537816708648315
0.0035346719340476063 16.07610497432103 0.0
16.07610497432103 0.003541102957286213 0.0
0.0 0.0 0.003537816687918001
0.008520289269507098 150.59056232793856 0.0
150.59056232793856 0.008547768715824688 0.0
0.0 0.0 0.00853385831208603
-0.00361999799765797 150.53269265169777 0.0
150.53269265169777 -0.0036380864626991416 0.0
0.0 0.0 -0.0036289696493339556
-0.0015026895007810154 16.133974683178728 0.0
16.133974683178728 -0.0015059933448561338 0.0
0.0 0.0 -0.0015043113359901185
0.0015026894774595664 16.13397468005794 0.0
16.13397468005794 0.001505993323358136 0.0
0.0 0.0 0.0015043113135808446
0.003619997974003447 150.53269264335998 0.0
150.53269264335998 0.003638086440889754 0.0
0.0 0.0 0.0036289696266024567
-0.0015408744161544419 150.46871070436686 0.0
150.46871070436686 -0.0015536302040480288 0.0
0.0 0.0 -0.0015472213650550334
-0.0006392713775143465 16.1979566262038 0.0
16.1979566262038 -0.000641128591114138 0.0
0.0 0.0 -0.0006401871803145538
0.0006392713546692075 16.197956622895664 0.0
16.197956622895664 0.0006411285701525479 0.0
0.0 0.0 0.000640187158411629
0.0015408743918914614 150.4687106952554 0.0
150.4687106952554 0.001553630181690635 0.0
0.0 0.0 0.0015472213417453082
-0.0006626668292507853 150.41143470214928 0.0
150.41143470214928 -0.0006718226942044742 0.0
0.0 0.0 -0.0006672314168323926
-0.00028507645247665726 16.25523256181342 0.0
16.25523256181342 -0.0002862052681951322 0.0
0.0 0.0 -0.00028563514751868733
0.00028507643177914065 16.255232558334622 0.0
16.255232558334622 0.0002862052494208827 0.0
0.0 0.0 0.0002856351277832003
0.0006626668057271995 150.4114346922832 0.0
150.4114346922832 0.000671822672625555 0.0
0.0 0.0 0.0006672313942815888
-0.00033356963456399047 150.3662912033862 0.0
150.3662912033862 -0.0003398811390410289 0.0
0.0 0.0 -0.0003367186522947745
-8.78300022618319e-5 16.300376033369787 0.0
16.300376033369787 -8.853727731114938e-5 0.0
0.0 0.0 -8.818187611369545e-5
8.782998577128165e-5 16.30037602972684 0.0
16.30037602972684 8.853726276391097e-5 0.0
0.0 0.0 8.818186059511023e-5
0.0003335696117905823 150.3662911927549 0.0
150.3662911927549 0.0003398811182297873 0.0
0.0 0.0 0.000336718630502892
-0.00010699611121350178 150.33612487400623 0.0
150.33612487400623 -0.00011081059017556405 0.0
0.0 0.0 -0.00010890117262751948
-0.00035036347369576167 16.330542324813713 0.0
16.330542324813713 -0.00035082667303190044 0.0
0.0 0.0 -0.00035058806146236356
0.00035036346104879487 16.330542321072322 0.0
16.330542321072322 0.00035082666233331866 0.0
0.0 0.0 0.00035058804978982297
0.00010699608576806435 150.33612486269618 0.0
150.33612486269618 0.0001108105666876788 0.0
0.0 0.0 0.00010890114816134289
-0.0009224030137705078 150.31996085474904 0.0
150.31996085474904 -0.0009240355930426707 0.0
0.0 0.0 -0.0009232008390205209
0.0014217465022062126 16.346705889340882 0.0
16.346705889340882 0.001421597226482134 0.0
0.0 0.0 0.0014216434309068861
-0.0014217465237843648 16.346705885562194 0.0
16.346705885562194 -0.001421597246106685 0.0
0.0 0.0 -0.001421643451507826
0.0009224030572182428 150.31996084315537 0.0
150.31996084315537 0.000924035638426645 0.0
0.0 0.0 0.0009232008834354855
