# vtk DataFile Version 2.0
incompressible test for cantilever beam problem
ASCII
DATASET UNSTRUCTURED_GRID
POINTS 85 float
0.0 -6.0 0.0
48.0 -6.0 0.0
48.0 6.0 0.0
0.0 6.0 0.0
2.999999999986668 -6.0 0.0
5.999999999975707 -6.0 0.0
8.999999999961364 -6.0 0.0
11.99999999995067 -6.0 0.0
14.99999999993997 -6.0 0.0
17.99999999992927 -6.0 0.0
20.99999999991858 -6.0 0.0
23.99999999990857 -6.0 0.0
26.9999999999194 -6.0 0.0
29.99999999993091 -6.0 0.0
32.99999999994242 -6.0 0.0
35.99999999995394 -6.0 0.0
38.99999999996545 -6.0 0.0
41.99999999997696 -6.0 0.0
44.99999999998848 -6.0 0.0
48.0 -3.000000000011103 0.0
48.0 -2.202238391646461e-11 0.0
48.0 2.999999999988901 0.0
45.0000000000346 6.0 0.0
42.00000000002897 6.0 0.0
39.0000000000497 6.0 0.0
36.00000000004128 6.0 0.0
33.00000000003288 6.0 0.0
30.00000000003972 6.0 0.0
27.0000000000535 6.0 0.0
24.00000000006659 6.0 0.0
21.00000000005888 6.0 0.0
18.00000000005047 6.0 0.0
15.00000000004206 6.0 0.0
12.00000000003364 6.0 0.0
9.000000000025231 6.0 0.0
6.000000000016826 6.0 0.0
3.000000000008413 6.0 0.0
0.0 3.000000000011103 0.0
0.0 2.202238391646461e-11 0.0
0.0 -2.999999999988901 0.0
2.999999999992614 -2.999999999992079 0.0
2.999999999997909 1.122996140523469e-11 0.0
3.000000000003163 3.000000000007575 0.0
5.999999999985362 -2.999999999994323 0.0
5.999999999995862 7.733313989177759e-12 0.0
6.000000000006352 3.000000000005216 0.0
8.999999999978225 -2.999999999995646 0.0
8.999999999994003 5.858702412098182e-12 0.0
9.000000000009644 3.000000000003906 0.0
11.99999999997165 -2.999999999996654 0.0
11.99999999999244 4.4763637241374e-12 0.0
12.00000000001307 3.000000000002964 0.0
14.99999999996556 -2.999999999997564 0.0
14.99999999999111 3.245265167706179e-12 0.0
15.0000000000166 3.000000000002139 0.0
17.99999999995966 -2.999999999998447 0.0
17.99999999998992 2.058936354742968e-12 0.0
18.00000000002015 3.00000000000135 0.0
20.99999999995433 -2.99999999999932 0.0
20.99999999998884 8.857914401971811e-13 0.0
21.00000000002323 3.000000000000571 0.0
23.99999999995178 -3.000000000000191 0.0
23.99999999998779 -2.836619827917275e-13 0.0
24.0000000000236 2.999999999999794 0.0
26.99999999995399 -3.000000000001061 0.0
26.99999999998715 -1.452005182756011e-12 0.0
27.00000000001991 2.999999999999019 0.0
29.99999999995971 -3.000000000001932 0.0
29.99999999998823 -2.62037613829591e-12 0.0
30.00000000001566 2.999999999998243 0.0
32.99999999996734 -3.000000000002802 0.0
32.99999999999206 -3.788525049230884e-12 0.0
33.00000000001545 2.999999999997467 0.0
35.99999999997581 -3.000000000003673 0.0
35.99999999999749 -4.95672947131709e-12 0.0
36.00000000001921 2.999999999996693 0.0
38.99999999998376 -3.000000000004543 0.0
39.00000000000207 -6.124795115525217e-12 0.0
39.00000000002137 2.999999999995917 0.0
41.99999999999061 -3.000000000005529 0.0
42.00000000000439 -7.496753218205754e-12 0.0
42.00000000001917 2.999999999994972 0.0
44.99999999999595 -3.000000000007437 0.0
45.00000000000347 -1.053609977041958e-11 0.0
45.0000000000126 2.999999999992899 0.0
CELLS 64 320
4 0 4 40 39
4 39 40 41 38
4 38 41 42 37
4 37 42 36 3
4 4 5 43 40
4 40 43 44 41
4 41 44 45 42
4 42 45 35 36
4 5 6 46 43
4 43 46 47 44
4 44 47 48 45
4 45 48 34 35
4 6 7 49 46
4 46 49 50 47
4 47 50 51 48
4 48 51 33 34
4 7 8 52 49
4 49 52 53 50
4 50 53 54 51
4 51 54 32 33
4 8 9 55 52
4 52 55 56 53
4 53 56 57 54
4 54 57 31 32
4 9 10 58 55
4 55 58 59 56
4 56 59 60 57
4 57 60 30 31
4 10 11 61 58
4 58 61 62 59
4 59 62 63 60
4 60 63 29 30
4 11 12 64 61
4 61 64 65 62
4 62 65 66 63
4 63 66 28 29
4 12 13 67 64
4 64 67 68 65
4 65 68 69 66
4 66 69 27 28
4 13 14 70 67
4 67 70 71 68
4 68 71 72 69
4 69 72 26 27
4 14 15 73 70
4 70 73 74 71
4 71 74 75 72
4 72 75 25 26
4 15 16 76 73
4 73 76 77 74
4 74 77 78 75
4 75 78 24 25
4 16 17 79 76
4 76 79 80 77
4 77 80 81 78
4 78 81 23 24
4 17 18 82 79
4 79 82 83 80
4 80 83 84 81
4 81 84 22 23
4 18 1 19 82
4 82 19 20 83
4 83 20 21 84
4 84 21 2 22
CELL_TYPES 64
9
9
9
9
9
9
9
9
9
9
9
9
9
9
9
9
9
9
9
9
9
9
9
9
9
9
9
9
9
9
9
9
9
9
9
9
9
9
9
9
9
9
9
9
9
9
9
9
9
9
9
9
9
9
9
9
9
9
9
9
9
9
9
9
POINT_DATA 85
VECTORS disp float
-2.120530858288786e-5 0.001437461668465192 0.0
0.012283812136821084 0.06988108294473867 0.0
-0.01228381213474213 0.06988108294460808 0.0
2.120530858258211e-5 0.0014374616684659914 0.0
0.001458251360061652 0.0020176142789724272 0.0
0.0028561910601973962 0.0032786793965889753 0.0
0.004153360433488033 0.005222984050913487 0.0
0.005358054991439337 0.007789585054886963 0.0
0.006464304452700047 0.010935625493343662 0.0
0.0074754007533085875 0.014610073079979097 0.0
0.00838968468441507 0.018766352506233805 0.0
0.009207977402694682 0.02335551524414491 0.0
0.009929900389713708 0.028329889099046067 0.0
0.01055556575815081 0.033641033263218025 0.0
0.01108507665893059 0.03924112682728203 0.0
0.011518062646735583 0.045081592186680675 0.0
0.011855334300593991 0.051115062150774146 0.0
0.0120954228120175 0.05729202677072565 0.0
0.012240396466859824 0.06356796185372883 0.0
0.006072205205932424 0.06988875751502864 0.0
9.895182129172847e-13 0.06988981715558976 0.0
-0.006072205204091087 0.06988875751497996 0.0
-0.012240396465017773 0.06356796185390563 0.0
-0.012095422810187677 0.05729202677080937 0.0
-0.011855334298751817 0.051115062150728224 0.0
-0.011518062644885363 0.04508159218685265 0.0
-0.011085076657192891 0.039241126827484915 0.0
-0.01055556575634069 0.03364103326340507 0.0
-0.009929900387911167 0.02832988909930231 0.0
-0.009207977400901403 0.023355515244403234 0.0
-0.008389684682586267 0.018766352506441243 0.0
-0.007475400751439305 0.014610073080231547 0.0
-0.006464304450783976 0.010935625493472321 0.0
-0.005358054989096674 0.00778958505546647 0.0
-0.004153360431259616 0.005222984050519188 0.0
-0.002856191054793392 0.003278679399320177 0.0
-0.0014582513551279544 0.0020176142724954603 0.0
8.25892595090883e-5 0.0003124916684691163 0.0
7.463738841671081e-16 -6.249833013031973e-5 0.0
-8.258925950899711e-5 0.00031249166846238936 0.0
0.0006538118211481001 0.000926907615878663 0.0
3.634668539639835e-13 0.0005655565411504549 0.0
-0.000653811820751316 0.0009269076147497014 0.0
0.001354687941960453 0.0022707370108119352 0.0
7.636524576339401e-13 0.0019312683815720705 0.0
-0.0013546879403211595 0.0022707370099134343 0.0
0.0020055072713948585 0.0042830938993399514 0.0
1.066732809879303e-12 0.003971794773680797 0.0
-0.0020055072696111924 0.004283093899524797 0.0
0.002606340242434839 0.006924091947766117 0.0
9.69747336011886e-13 0.00663460642844287 0.0
-0.002606340240644451 0.006924091947834911 0.0
0.003160198526013179 0.010141143748337184 0.0
9.227861726776676e-13 0.009876815163633848 0.0
-0.0031601985242209855 0.010141143748462776 0.0
0.003665387219988825 0.013888391080840737 0.0
8.962609539034377e-13 0.013647571448594005 0.0
-0.0036653872182000687 0.013888391080914933 0.0
0.004122708268729399 0.01811653927220616 0.0
8.799637357272487e-13 0.01790007440790542 0.0
-0.004122708266950587 0.018116539272361825 0.0
0.004531771711240552 0.02277807049067835 0.0
8.460756680967795e-13 0.022585504650911095 0.0
-0.004531771709410068 0.022778070490763556 0.0
0.004892757787507722 0.027824511421215118 0.0
8.871745165764652e-13 0.027656120057967554 0.0
-0.0048927577857276455 0.027824511421337045 0.0
0.0052056128207806735 0.03320796562051785 0.0
8.986534025481637e-13 0.03306352697384339 0.0
-0.005205612819011744 0.03320796562061064 0.0
0.005470287997724591 0.03888007191388624 0.0
8.903696317642863e-13 0.03875985657094369 0.0
-0.0054702879959104694 0.03888007191396958 0.0
0.0056869640686984515 0.044793037034084895 0.0
9.186374969060719e-13 0.04469659360776908 0.0
-0.005686964066974849 0.04479303703422403 0.0
0.005855220845451541 0.050898129271503514 0.0
9.392490568301546e-13 0.050826329447514966 0.0
-0.005855220843626663 0.05089812927139507 0.0
0.005975754787055758 0.05714836613575264 0.0
9.292072169979542e-13 0.05709964154243002 0.0
-0.005975754785083341 0.05714836613588135 0.0
0.006048874050281714 0.06349354670156346 0.0
8.623218350439352e-13 0.0634691579381179 0.0
-0.006048874048260139 0.06349354670163564 0.0
CELL_DATA 64
TENSORS stress float
0.05993669073558294 54.79120995595771 0.0
54.79120995595771 0.020545536335305314 0.0
0.0 0.0 0.040240308713175986
0.019880432461718556 111.875455406888 0.0
111.875455406888 0.006789478359877421 0.0
0.0 0.0 0.013334688711686875
-0.01988043248474014 111.8754551623197 0.0
111.8754551623197 -0.006789478402794202 0.0
0.0 0.0 -0.013334688744645742
-0.059936690818403804 54.79120944225482 0.0
54.79120944225482 -0.020545536512997842 0.0
0.0 0.0 -0.040240308843421335
0.05571549039410684 49.82564140531197 0.0
49.82564140531197 0.01840494027976547 0.0
0.0 0.0 0.037059474132602764
0.018766797920733325 116.84102450298565 0.0
116.84102450298565 0.00630736253472719 0.0
0.0 0.0 0.01253682948613397
-0.018766797933324142 116.84102450444571 0.0
116.84102450444571 -0.0063073625835841085 0.0
0.0 0.0 -0.012536829516852211
-0.055715490644445254 49.825644360287555 0.0
49.825644360287555 -0.018404940560685645 0.0
0.0 0.0 -0.03705947439822521
0.052017829049816555 51.21788520817413 0.0
51.21788520817413 0.017388537769704726 0.0
0.0 0.0 0.034702489346080535
0.017245787694577075 115.44878117798955 0.0
115.44878117798955 0.005676201847848006 0.0
0.0 0.0 0.011460765551319899
-0.017245787709242677 115.44878131805227 0.0
115.44878131805227 -0.005676201875786546 0.0
0.0 0.0 -0.011460765572605834
-0.052017829063629506 51.217885566793846 0.0
51.217885566793846 -0.01738853772985749 0.0
0.0 0.0 -0.034702489333070456
0.04810823184607216 51.338865811031454 0.0
51.338865811031454 0.016011461037521713 0.0
0.0 0.0 0.03205920524486539
0.016079510546887832 115.32780075206186 0.0
115.32780075206186 0.005398536275833976 0.0
0.0 0.0 0.010738808630890636
-0.01607951055066792 115.32780064860714 0.0
115.32780064860714 -0.005398536276203458 0.0
0.0 0.0 -0.010738808632968635
-0.048108231875119145 51.338866117778906 0.0
51.338866117778906 -0.016011461068842436 0.0
0.0 0.0 -0.03205920527507769
0.04428733133966034 51.2122686396081 0.0
51.2122686396081 0.01477568277039154 0.0
0.0 0.0 0.029530916424868256
0.014740546503361429 115.4543978979755 0.0
115.4543978979755 0.0048946353618077865 0.0
0.0 0.0 0.009817394580760684
-0.0147405465025372 115.45439787272491 0.0
115.45439787272491 -0.004894635359292465 0.0
0.0 0.0 -0.009817394579098285
-0.04428733134335516 51.21226868406567 0.0
51.21226868406567 -0.014775682766696718 0.0
0.0 0.0 -0.029530916424868256
0.040421808094151856 51.26291827666343 0.0
51.26291827666343 0.013466887887034318 0.0
0.0 0.0 0.02694380910361883
0.013485169145766918 115.40374823936565 0.0
115.40374823936565 0.004504456473227947 0.0
0.0 0.0 0.008994632913245723
-0.013485169144928477 115.40374822032781 0.0
115.40374822032781 -0.0045044564713094815 0.0
0.0 0.0 -0.008994632911854367
-0.0404218080998362 51.26291832020875 0.0
51.26291832020875 -0.013466887891979695 0.0
0.0 0.0 -0.02694380910896742
0.03657944411912695 51.239953037148574 0.0
51.239953037148574 0.01219649366117892 0.0
0.0 0.0 0.02438748113078925
0.012187517428870365 115.42671346804448 0.0
115.42671346804448 0.00405774455563801 0.0
0.0 0.0 0.00812246853963623
-0.01218751742646873 115.4267134834806 0.0
115.4267134834806 -0.004057744552397935 0.0
0.0 0.0 -0.008122468536817381
-0.03657944411662584 51.23995306273548 0.0
51.23995306273548 -0.012196493657882002 0.0
0.0 0.0 -0.02438748112789812
0.032725439430464576 51.25231655665344 0.0
51.25231655665344 0.010906792452885838 0.0
0.0 0.0 0.02181567961933411
0.01091107829597604 115.41434996812998 0.0
115.41434996812998 0.003639178803425125 0.0
0.0 0.0 0.007274983047125714
-0.010911078293673881 115.41434998339219 0.0
115.41434998339219 -0.0036391788007392734 0.0
0.0 0.0 -0.007274983044632115
-0.032725439429100334 51.25231655543522 0.0
51.25231655543522 -0.010906792451862657 0.0
0.0 0.0 -0.021815679618177656
0.0288768040847458 51.24475692168036 0.0
51.24475692168036 0.009625985799516457 0.0
0.0 0.0 0.019251009914222166
0.009624833410441624 115.42190957448341 0.0
115.42190957448341 0.0032076025955518617 0.0
0.0 0.0 0.006416089678637599
-0.009624833411621125 115.42190960796162 0.0
115.42190960796162 -0.0032076025971576883 0.0
0.0 0.0 -0.006416089680028955
-0.028876804089946972 51.244756938649104 0.0
51.244756938649104 -0.009625985803864978 0.0
0.0 0.0 -0.019251009918992527
0.02502658332275587 51.25081231418429 0.0
51.25081231418429 0.008342554791596513 0.0
0.0 0.0 0.01668423536579663
0.008341488501642402 115.4158542154681 0.0
115.4158542154681 0.0027798807483208066 0.0
0.0 0.0 0.005560573411287647
-0.008341488501230288 115.41585421159444 0.0
115.41585421159444 -0.002779880747979746 0.0
0.0 0.0 -0.005560573410908187
-0.025026583323864315 51.250812323731836 0.0
51.250812323731836 -0.008342554792506007 0.0
0.0 0.0 -0.016684235366808527
0.02117490211011841 51.24338475663197 0.0
51.24338475663197 0.007056697260139799 0.0
0.0 0.0 0.01411551736914859
0.007060796680072201 115.42328177609394 0.0
115.42328177609394 0.002355679898457197 0.0
0.0 0.0 0.00470814412450339
-0.007060796678587167 115.42328177975337 0.0
115.42328177975337 -0.0023556798973487503 0.0
0.0 0.0 -0.004708144123202382
-0.021174902105684623 51.2433847649162 0.0
51.2433847649162 -0.007056697255080735 0.0
0.0 0.0 -0.014115517364378228
0.017328358610228634 51.257548433238576 0.0
51.257548433238576 0.005779350046708487 0.0
0.0 0.0 0.011553623251375973
0.005770704763797596 115.40911812355245 0.0
115.40911812355245 0.0019188651943125024 0.0
0.0 0.0 0.003844708083351458
-0.005770704761253853 115.40911812319683 0.0
115.40911812319683 -0.001918865191029795 0.0
0.0 0.0 -0.00384470808044226
-0.01732835860602222 51.25754845380733 0.0
51.25754845380733 -0.005779350042814713 0.0
0.0 0.0 -0.011553623247328393
0.013470796645478345 51.22536954804623 0.0
51.22536954804623 0.004484043554612072 0.0
0.0 0.0 0.008977240551640531
0.004501388652826677 115.44129708201045 0.0
115.44129708201045 0.0015102972402658565 0.0
0.0 0.0 0.003005782829688094
-0.0045013886589089225 115.44129701733085 0.0
115.44129701733085 -0.001510297248735526 0.0
0.0 0.0 -0.00300578283696109
-0.013470796633114901 51.225369503868606 0.0
51.225369503868606 -0.004484043543854455 0.0
0.0 0.0 -0.008977240540076016
0.009636165437456157 51.23700891941129 0.0
51.23700891941129 0.0032253995759106147 0.0
0.0 0.0 0.006430653891027326
0.003187840591703406 115.42965761413429 0.0
115.42965761413429 0.001045113907462536 0.0
0.0 0.0 0.0021164349200395597
-0.003187840589877311 115.42965766975682 0.0
115.42965766975682 -0.001045113907736095 0.0
0.0 0.0 -0.002116434919262569
-0.009636165428503318 51.23700898109153 0.0
51.23700898109153 -0.003225399569231513 0.0
0.0 0.0 -0.006430653883221279
0.005745351603188453 51.654545565506446 0.0
51.654545565506446 0.0018683222914219755 0.0
0.0 0.0 0.0038067608105668937
0.001962428720389653 115.01212106962868 0.0
115.01212106962868 0.0006625918748959236 0.0
0.0 0.0 0.0013124840474370212
-0.0019624287170039167 115.0121211366814 0.0
115.0121211366814 -0.0006625918696450128 0.0
0.0 0.0 -0.0013124840431206564
-0.005745351606186944 51.65454553308251 0.0
51.65454553308251 -0.0018683222953583822 0.0
0.0 0.0 -0.0038067608140362483
0.001980755894669173 50.86743193901577 0.0
50.86743193901577 0.0007942090714188055 0.0
0.0 0.0 0.0013874547333938758
0.0006591183416251312 115.79923475241497 0.0
115.79923475241497 0.00024436307413999714 0.0
0.0 0.0 0.00045173167306850124
-0.0006591183369026865 115.79923477431947 0.0
115.79923477431947 -0.0002443630696351562 0.0
0.0 0.0 -0.00045173166845511816
-0.0019807558931557168 50.86743191220891 0.0
50.86743191220891 -0.0007942090706176685 0.0
0.0 0.0 -0.0013874547322374243
